$*$$$$$$$$$$$$$$$$$$$$$$$$$$$$$$$$$$$$$$$$$$$$$$$$$$$$$$$$$$$$$$$$$
$*
$*                    Simcenter v2206.0.0.8101 Translator
$*                    for Simcenter Nastran version 2206.0
$*
$*             FEM FILE: D:\MainFolder\Programs\Mechanics & Machines\IgorMAMfiles\mamcw.prj\Model\Iter3\mech_assembly\mech_assembly_fem2.fem
$*             SIM FILE: D:\MainFolder\Programs\Mechanics & Machines\IgorMAMfiles\mamcw.prj\Model\Iter3\mech_assembly\mech_assembly_sim2.sim
$*        ANALYSIS TYPE: Structural
$*        SOLUTION NAME: Solution 1
$*        SOLUTION TYPE: SOL 101 Linear Statics
$*
$*    SOLVER INPUT FILE: mech_assembly_sim2-solution_1.dat
$*        CREATION DATE: 16-May-2023
$*        CREATION TIME: 10:31:44
$*             HOSTNAME: DESKTOP-0UUJCF0
$*      NASTRAN LICENSE: Desktop Bundle
$*
$*                UNITS: mm (milli-newton)
$*                      ... LENGTH : mm
$*                      ... TIME   : sec
$*                      ... MASS   : kilogram (kg)
$*                      ... TEMPERATURE : deg Celsius
$*                      ... FORCE  : milli-newton
$*                      ... THERMAL ENERGY : mN-mm (micro-joule)
$*
$* IMPORTANT NOTE:
$*     This banner was generated by Simcenter and altering this 
$*     information may compromise the pre and post processing of results
$*
$*$$$$$$$$$$$$$$$$$$$$$$$$$$$$$$$$$$$$$$$$$$$$$$$$$$$$$$$$$$$$$$$$$
$*
$*$$$$$$$$$$$$$$$$$$$$$$$$$$$$$$$$$$$
$*
$* FILE MANAGEMENT
$*
$*$$$$$$$$$$$$$$$$$$$$$$$$$$$$$$$$$$$
$*
$*
$*$$$$$$$$$$$$$$$$$$$$$$$$$$$$$$$$$$$
$*
$* EXECUTIVE CONTROL
$*
$*$$$$$$$$$$$$$$$$$$$$$$$$$$$$$$$$$$$
$*
ID,NASTRAN,mech_assembly_sim2-solution_1
SOL 101
CEND
$*
$*$$$$$$$$$$$$$$$$$$$$$$$$$$$$$$$$$$$
$*
$* CASE CONTROL
$*
$*$$$$$$$$$$$$$$$$$$$$$$$$$$$$$$$$$$$
$*
ECHO = NONE
OUTPUT
DISPLACEMENT(PLOT,REAL) = ALL
SPCFORCES(PLOT,REAL) = ALL
STRESS(PLOT,REAL,VONMISES,CENTER) = ALL
$*  Step: Subcase - Statics 1
SUBCASE 1
  LABEL = Subcase - Statics 1
  LOAD = 1
  SPC = 2
$*
$*$$$$$$$$$$$$$$$$$$$$$$$$$$$$$$$$$$$
$*
$* BULK DATA
$*
$*$$$$$$$$$$$$$$$$$$$$$$$$$$$$$$$$$$$
$*
BEGIN BULK
$*
$* PARAM CARDS
$*
PARAM      K6ROT100.0000
PARAM     OIBULK     YES
PARAM    OMACHPR     YES
PARAM       POST      -2
PARAM    POSTEXT     YES
PARAM    UNITSYS   MN-MM
$*
$* GRID CARDS
$*
GRID*                  1               09.5897140503E+017.8415916443E+01+
*       5.9465228271E+02               0
GRID*                  2               09.6397132874E+017.8415916443E+01+
*       5.9465228271E+02               0
GRID*                  3               01.0039713287E+027.4415916443E+01+
*       4.1615228271E+02               0
GRID*                  4               01.0039713287E+027.4415916443E+01+
*       6.1615228271E+02               0
GRID*                  5               01.0039713287E+027.3915916443E+01+
*       4.1615228271E+02               0
GRID*                  6               01.0039713287E+027.3915916443E+01+
*       6.1615228271E+02               0
GRID*                  7               01.0439714050E+027.8415916443E+01+
*       5.9465228271E+02               0
GRID*                  8               01.0489713287E+027.8415916443E+01+
*       5.9465228271E+02               0
GRID*                  9               09.6088304607E+017.7118225738E+01+
*       5.9539999581E+02               0
GRID*                 10               09.6088342948E+017.7118113073E+01+
*       5.9690433370E+02               0
GRID*                 11               09.5897232056E+017.8415957346E+01+
*       5.9765209961E+02               0
GRID*                 12               09.6088404410E+017.9713931798E+01+
*       5.9690384231E+02               0
GRID*                 13               09.6088309136E+017.9713611180E+01+
*       5.9539999438E+02               0
GRID*                 14               09.5960424041E+017.9167636080E+01+
*       5.9485436468E+02               0
GRID*                 15               09.6154388731E+017.9915763088E+01+
*       5.9615194233E+02               0
GRID*                 16               09.5960530941E+017.9168305317E+01+
*       5.9744982174E+02               0
GRID*                 17               09.5960387540E+017.7664193025E+01+
*       5.9745027033E+02               0
GRID*                 18               09.6154459197E+017.6915964046E+01+
*       5.9615215408E+02               0
GRID*                 19               09.5960417222E+017.7664186171E+01+
*       5.9485435563E+02               0
GRID*                 20               09.6612472710E+017.7119446682E+01+
*       5.9540017237E+02               0
GRID*                 21               09.6612209277E+017.7119768054E+01+
*       5.9690440582E+02               0
GRID*                 22               09.6397132963E+017.8416660535E+01+
*       5.9765228251E+02               0
GRID*                 23               09.6612639180E+017.9713304714E+01+
*       5.9690348870E+02               0
GRID*                 24               09.6612285039E+017.9712066360E+01+
*       5.9539966126E+02               0
GRID*                 25               09.6469488543E+017.9167827557E+01+
*       5.9485513227E+02               0
GRID*                 26               09.6688681148E+017.9915656870E+01+
*       5.9615156339E+02               0
GRID*                 27               09.6469738973E+017.9169152670E+01+
*       5.9744839917E+02               0
GRID*                 28               09.6469558673E+017.7664721144E+01+
*       5.9744914215E+02               0
GRID*                 29               09.6688658650E+017.6916252489E+01+
*       5.9615237349E+02               0
GRID*                 30               09.6469515394E+017.7664041495E+01+
*       5.9485539508E+02               0
GRID*                 31               01.0239744325E+027.4951995183E+01+
*       4.1615228271E+02               0
GRID*                 32               01.0386123637E+027.6415916089E+01+
*       4.1615228271E+02               0
GRID*                 33               01.0439713286E+027.8415557091E+01+
*       4.1615228271E+02               0
GRID*                 34               01.0386123724E+028.0415915289E+01+
*       4.1615228271E+02               0
GRID*                 35               01.0239682918E+028.1880199863E+01+
*       4.1615228271E+02               0
GRID*                 36               01.0039713977E+028.2415916443E+01+
*       4.1615228271E+02               0
GRID*                 37               09.8397449557E+018.1880202960E+01+
*       4.1615228271E+02               0
GRID*                 38               09.6933039240E+018.0415920662E+01+
*       4.1615228271E+02               0
GRID*                 39               09.6397132889E+017.8415564282E+01+
*       4.1615228271E+02               0
GRID*                 40               09.6933033204E+017.6415922679E+01+
*       4.1615228271E+02               0
GRID*                 41               09.8396823552E+017.4951998979E+01+
*       4.1615228271E+02               0
GRID*                 42               09.9362376874E+017.4552077702E+01+
*       4.1615228271E+02               0
GRID*                 43               09.6533199711E+017.7381513083E+01+
*       4.1615228271E+02               0
GRID*                 44               09.7569342564E+017.5586861801E+01+
*       4.1615228271E+02               0
GRID*                 45               09.9360996526E+018.2279392883E+01+
*       4.1615228271E+02               0
GRID*                 46               09.6533572240E+017.9451717977E+01+
*       4.1615228271E+02               0
GRID*                 47               09.7568332162E+018.1243968403E+01+
*       4.1615228271E+02               0
GRID*                 48               01.0143188917E+027.4552075739E+01+
*       4.1615228271E+02               0
GRID*                 49               01.0426107170E+027.7381505746E+01+
*       4.1615228271E+02               0
GRID*                 50               01.0322492544E+027.5586856431E+01+
*       4.1615228271E+02               0
GRID*                 51               01.0143328284E+028.2279391277E+01+
*       4.1615228271E+02               0
GRID*                 52               01.0426070274E+027.9451711995E+01+
*       4.1615228271E+02               0
GRID*                 53               01.0322594559E+028.1243964023E+01+
*       4.1615228271E+02               0
GRID*                 54               01.0239744325E+027.4951995183E+01+
*       6.1615228271E+02               0
GRID*                 55               01.0386123637E+027.6415916089E+01+
*       6.1615228271E+02               0
GRID*                 56               01.0439713286E+027.8415557091E+01+
*       6.1615228271E+02               0
GRID*                 57               01.0386123724E+028.0415915289E+01+
*       6.1615228271E+02               0
GRID*                 58               01.0239682918E+028.1880199863E+01+
*       6.1615228271E+02               0
GRID*                 59               01.0039713977E+028.2415916443E+01+
*       6.1615228271E+02               0
GRID*                 60               09.8397449557E+018.1880202960E+01+
*       6.1615228271E+02               0
GRID*                 61               09.6933039240E+018.0415920662E+01+
*       6.1615228271E+02               0
GRID*                 62               09.6397132889E+017.8415564282E+01+
*       6.1615228271E+02               0
GRID*                 63               09.6933033204E+017.6415922679E+01+
*       6.1615228271E+02               0
GRID*                 64               09.8396823552E+017.4951998979E+01+
*       6.1615228271E+02               0
GRID*                 65               09.6533572240E+017.9451717977E+01+
*       6.1615228271E+02               0
GRID*                 66               09.7568332162E+018.1243968403E+01+
*       6.1615228271E+02               0
GRID*                 67               09.9360996526E+018.2279392883E+01+
*       6.1615228271E+02               0
GRID*                 68               09.6533199711E+017.7381513083E+01+
*       6.1615228271E+02               0
GRID*                 69               09.7569342564E+017.5586861801E+01+
*       6.1615228271E+02               0
GRID*                 70               09.9362376874E+017.4552077702E+01+
*       6.1615228271E+02               0
GRID*                 71               01.0143328284E+028.2279391277E+01+
*       6.1615228271E+02               0
GRID*                 72               01.0322594559E+028.1243964023E+01+
*       6.1615228271E+02               0
GRID*                 73               01.0426070274E+027.9451711995E+01+
*       6.1615228271E+02               0
GRID*                 74               01.0426107170E+027.7381505746E+01+
*       6.1615228271E+02               0
GRID*                 75               01.0322492544E+027.5586856431E+01+
*       6.1615228271E+02               0
GRID*                 76               01.0143188917E+027.4552075739E+01+
*       6.1615228271E+02               0
GRID*                 77               01.0234969899E+027.4361643824E+01+
*       4.1615228271E+02               0
GRID*                 78               01.0391497423E+027.5609793561E+01+
*       4.1615228271E+02               0
GRID*                 79               01.0478449665E+027.7415396586E+01+
*       4.1615228271E+02               0
GRID*                 80               01.0478419861E+027.9417709486E+01+
*       4.1615228271E+02               0
GRID*                 81               01.0391543996E+028.1221522374E+01+
*       4.1615228271E+02               0
GRID*                 82               01.0234971890E+028.2470225917E+01+
*       4.1615228271E+02               0
GRID*                 83               01.0039713977E+028.2915916443E+01+
*       4.1615228271E+02               0
GRID*                 84               09.8444560062E+018.2470228605E+01+
*       4.1615228271E+02               0
GRID*                 85               09.6878837282E+018.1221527225E+01+
*       4.1615228271E+02               0
GRID*                 86               09.6010075728E+017.9417715595E+01+
*       4.1615228271E+02               0
GRID*                 87               09.6009775042E+017.7415403991E+01+
*       4.1615228271E+02               0
GRID*                 88               09.6879294406E+017.5609799510E+01+
*       4.1615228271E+02               0
GRID*                 89               09.8444567529E+017.4361647125E+01+
*       4.1615228271E+02               0
GRID*                 90               09.9396070059E+017.4028683415E+01+
*       4.1615228271E+02               0
GRID*                 91               09.6342682631E+017.6463720464E+01+
*       4.1615228271E+02               0
GRID*                 92               09.7591839816E+017.4897362595E+01+
*       4.1615228271E+02               0
GRID*                 93               09.5897132891E+017.8415519556E+01+
*       4.1615228271E+02               0
GRID*                 94               09.9394951899E+018.2802891929E+01+
*       4.1615228271E+02               0
GRID*                 95               09.6342822548E+018.0368442226E+01+
*       4.1615228271E+02               0
GRID*                 96               09.7591332269E+018.1934012670E+01+
*       4.1615228271E+02               0
GRID*                 97               01.0139819592E+027.4028681727E+01+
*       4.1615228271E+02               0
GRID*                 98               01.0445158744E+027.6463713607E+01+
*       4.1615228271E+02               0
GRID*                 99               01.0320242762E+027.4897357860E+01+
*       4.1615228271E+02               0
GRID*                100               01.0489713286E+027.8415512365E+01+
*       4.1615228271E+02               0
GRID*                101               01.0139932753E+028.2802890512E+01+
*       4.1615228271E+02               0
GRID*                102               01.0445145352E+028.0368436636E+01+
*       4.1615228271E+02               0
GRID*                103               01.0320294596E+028.1934008798E+01+
*       4.1615228271E+02               0
GRID*                104               01.0234969899E+027.4361643824E+01+
*       6.1615228271E+02               0
GRID*                105               01.0391497423E+027.5609793561E+01+
*       6.1615228271E+02               0
GRID*                106               01.0478449665E+027.7415396586E+01+
*       6.1615228271E+02               0
GRID*                107               01.0478419861E+027.9417709486E+01+
*       6.1615228271E+02               0
GRID*                108               01.0391543996E+028.1221522374E+01+
*       6.1615228271E+02               0
GRID*                109               01.0234971890E+028.2470225917E+01+
*       6.1615228271E+02               0
GRID*                110               01.0039713977E+028.2915916443E+01+
*       6.1615228271E+02               0
GRID*                111               09.8444560062E+018.2470228605E+01+
*       6.1615228271E+02               0
GRID*                112               09.6878837282E+018.1221527225E+01+
*       6.1615228271E+02               0
GRID*                113               09.6010075728E+017.9417715595E+01+
*       6.1615228271E+02               0
GRID*                114               09.6009775042E+017.7415403991E+01+
*       6.1615228271E+02               0
GRID*                115               09.6879294406E+017.5609799510E+01+
*       6.1615228271E+02               0
GRID*                116               09.8444567529E+017.4361647125E+01+
*       6.1615228271E+02               0
GRID*                117               01.0139819592E+027.4028681727E+01+
*       6.1615228271E+02               0
GRID*                118               01.0445158744E+027.6463713607E+01+
*       6.1615228271E+02               0
GRID*                119               01.0320242762E+027.4897357860E+01+
*       6.1615228271E+02               0
GRID*                120               01.0489713286E+027.8415512365E+01+
*       6.1615228271E+02               0
GRID*                121               01.0139932753E+028.2802890512E+01+
*       6.1615228271E+02               0
GRID*                122               01.0445145352E+028.0368436636E+01+
*       6.1615228271E+02               0
GRID*                123               01.0320294596E+028.1934008798E+01+
*       6.1615228271E+02               0
GRID*                124               09.9396070059E+017.4028683415E+01+
*       6.1615228271E+02               0
GRID*                125               09.6342682631E+017.6463720464E+01+
*       6.1615228271E+02               0
GRID*                126               09.7591839816E+017.4897362595E+01+
*       6.1615228271E+02               0
GRID*                127               09.5897132891E+017.8415519556E+01+
*       6.1615228271E+02               0
GRID*                128               09.9394951899E+018.2802891929E+01+
*       6.1615228271E+02               0
GRID*                129               09.6342822548E+018.0368442226E+01+
*       6.1615228271E+02               0
GRID*                130               09.7591332269E+018.1934012670E+01+
*       6.1615228271E+02               0
GRID*                131               01.0418182735E+027.9712472634E+01+
*       5.9540044123E+02               0
GRID*                132               01.0418186809E+027.9712412119E+01+
*       5.9690405795E+02               0
GRID*                133               01.0439713286E+027.8415598179E+01+
*       5.9765228268E+02               0
GRID*                134               01.0418173052E+027.7119022044E+01+
*       5.9690441801E+02               0
GRID*                135               01.0418199737E+027.7119572486E+01+
*       5.9540024578E+02               0
GRID*                136               01.0432459277E+027.7663847703E+01+
*       5.9744890629E+02               0
GRID*                137               01.0432446856E+027.9168243504E+01+
*       5.9744842968E+02               0
GRID*                138               01.0410561521E+027.9915581942E+01+
*       5.9615211774E+02               0
GRID*                139               01.0410559340E+027.6916184179E+01+
*       5.9615223952E+02               0
GRID*                140               01.0432477890E+027.9168440993E+01+
*       5.9485559351E+02               0
GRID*                141               01.0432483099E+027.7664081316E+01+
*       5.9485507792E+02               0
GRID*                142               01.0470589600E+027.9713868909E+01+
*       5.9540047736E+02               0
GRID*                143               01.0470592054E+027.9713771240E+01+
*       5.9690414207E+02               0
GRID*                144               01.0489704131E+027.8415559734E+01+
*       5.9765209957E+02               0
GRID*                145               01.0470596215E+027.7118217239E+01+
*       5.9690433976E+02               0
GRID*                146               01.0470596791E+027.7118216462E+01+
*       5.9540016843E+02               0
GRID*                147               01.0483384782E+027.7663922463E+01+
*       5.9745012457E+02               0
GRID*                148               01.0463988463E+027.6916077360E+01+
*       5.9615225232E+02               0
GRID*                149               01.0483386232E+027.7664271943E+01+
*       5.9485433908E+02               0
GRID*                150               01.0483379919E+027.9168141081E+01+
*       5.9745000133E+02               0
GRID*                151               01.0483378131E+027.9168246717E+01+
*       5.9485461089E+02               0
GRID*                152               01.0463981413E+027.9915876542E+01+
*       5.9615229029E+02               0
GRID*                153               09.6147136688E+017.8415916443E+01+
*       5.9465228271E+02               0
GRID*                154               01.0464713669E+027.8415916443E+01+
*       5.9465228271E+02               0
GRID*                155               01.0039713287E+027.3915916443E+01+
*       6.1512135488E+02               0
GRID*                156               01.0039713287E+027.3915916443E+01+
*       6.1409042704E+02               0
GRID*                157               01.0039713287E+027.3915916443E+01+
*       6.1305949921E+02               0
GRID*                158               01.0039713287E+027.3915916443E+01+
*       6.1202857137E+02               0
GRID*                159               01.0039713287E+027.3915916443E+01+
*       6.1099764354E+02               0
GRID*                160               01.0039713287E+027.3915916443E+01+
*       6.0996671570E+02               0
GRID*                161               01.0039713287E+027.3915916443E+01+
*       6.0893578787E+02               0
GRID*                162               01.0039713287E+027.3915916443E+01+
*       6.0790486003E+02               0
GRID*                163               01.0039713287E+027.3915916443E+01+
*       6.0687393220E+02               0
GRID*                164               01.0039713287E+027.3915916443E+01+
*       6.0584300436E+02               0
GRID*                165               01.0039713287E+027.3915916443E+01+
*       6.0481207653E+02               0
GRID*                166               01.0039713287E+027.3915916443E+01+
*       6.0378114869E+02               0
GRID*                167               01.0039713287E+027.3915916443E+01+
*       6.0275022086E+02               0
GRID*                168               01.0039713287E+027.3915916443E+01+
*       6.0171929302E+02               0
GRID*                169               01.0039713287E+027.3915916443E+01+
*       6.0068836519E+02               0
GRID*                170               01.0039713287E+027.3915916443E+01+
*       5.9965743735E+02               0
GRID*                171               01.0039713287E+027.3915916443E+01+
*       5.9862650952E+02               0
GRID*                172               01.0039713287E+027.3915916443E+01+
*       5.9759558168E+02               0
GRID*                173               01.0039713287E+027.3915916443E+01+
*       5.9656465385E+02               0
GRID*                174               01.0039713287E+027.3915916443E+01+
*       5.9553372601E+02               0
GRID*                175               01.0039713287E+027.3915916443E+01+
*       5.9450279818E+02               0
GRID*                176               01.0039713287E+027.3915916443E+01+
*       5.9347187034E+02               0
GRID*                177               01.0039713287E+027.3915916443E+01+
*       5.9244094251E+02               0
GRID*                178               01.0039713287E+027.3915916443E+01+
*       5.9141001467E+02               0
GRID*                179               01.0039713287E+027.3915916443E+01+
*       5.9037908684E+02               0
GRID*                180               01.0039713287E+027.3915916443E+01+
*       5.8934815900E+02               0
GRID*                181               01.0039713287E+027.3915916443E+01+
*       5.8831723117E+02               0
GRID*                182               01.0039713287E+027.3915916443E+01+
*       5.8728630333E+02               0
GRID*                183               01.0039713287E+027.3915916443E+01+
*       5.8625537550E+02               0
GRID*                184               01.0039713287E+027.3915916443E+01+
*       5.8522444766E+02               0
GRID*                185               01.0039713287E+027.3915916443E+01+
*       5.8419351983E+02               0
GRID*                186               01.0039713287E+027.3915916443E+01+
*       5.8316259199E+02               0
GRID*                187               01.0039713287E+027.3915916443E+01+
*       5.8213166416E+02               0
GRID*                188               01.0039713287E+027.3915916443E+01+
*       5.8110073632E+02               0
GRID*                189               01.0039713287E+027.3915916443E+01+
*       5.8006980849E+02               0
GRID*                190               01.0039713287E+027.3915916443E+01+
*       5.7903888065E+02               0
GRID*                191               01.0039713287E+027.3915916443E+01+
*       5.7800795282E+02               0
GRID*                192               01.0039713287E+027.3915916443E+01+
*       5.7697702498E+02               0
GRID*                193               01.0039713287E+027.3915916443E+01+
*       5.7594609715E+02               0
GRID*                194               01.0039713287E+027.3915916443E+01+
*       5.7491516931E+02               0
GRID*                195               01.0039713287E+027.3915916443E+01+
*       5.7388424148E+02               0
GRID*                196               01.0039713287E+027.3915916443E+01+
*       5.7285331364E+02               0
GRID*                197               01.0039713287E+027.3915916443E+01+
*       5.7182238581E+02               0
GRID*                198               01.0039713287E+027.3915916443E+01+
*       5.7079145797E+02               0
GRID*                199               01.0039713287E+027.3915916443E+01+
*       5.6976053014E+02               0
GRID*                200               01.0039713287E+027.3915916443E+01+
*       5.6872960230E+02               0
GRID*                201               01.0039713287E+027.3915916443E+01+
*       5.6769867447E+02               0
GRID*                202               01.0039713287E+027.3915916443E+01+
*       5.6666774663E+02               0
GRID*                203               01.0039713287E+027.3915916443E+01+
*       5.6563681880E+02               0
GRID*                204               01.0039713287E+027.3915916443E+01+
*       5.6460589096E+02               0
GRID*                205               01.0039713287E+027.3915916443E+01+
*       5.6357496313E+02               0
GRID*                206               01.0039713287E+027.3915916443E+01+
*       5.6254403529E+02               0
GRID*                207               01.0039713287E+027.3915916443E+01+
*       5.6151310746E+02               0
GRID*                208               01.0039713287E+027.3915916443E+01+
*       5.6048217962E+02               0
GRID*                209               01.0039713287E+027.3915916443E+01+
*       5.5945125179E+02               0
GRID*                210               01.0039713287E+027.3915916443E+01+
*       5.5842032395E+02               0
GRID*                211               01.0039713287E+027.3915916443E+01+
*       5.5738939612E+02               0
GRID*                212               01.0039713287E+027.3915916443E+01+
*       5.5635846828E+02               0
GRID*                213               01.0039713287E+027.3915916443E+01+
*       5.5532754045E+02               0
GRID*                214               01.0039713287E+027.3915916443E+01+
*       5.5429661261E+02               0
GRID*                215               01.0039713287E+027.3915916443E+01+
*       5.5326568478E+02               0
GRID*                216               01.0039713287E+027.3915916443E+01+
*       5.5223475694E+02               0
GRID*                217               01.0039713287E+027.3915916443E+01+
*       5.5120382911E+02               0
GRID*                218               01.0039713287E+027.3915916443E+01+
*       5.5017290127E+02               0
GRID*                219               01.0039713287E+027.3915916443E+01+
*       5.4914197344E+02               0
GRID*                220               01.0039713287E+027.3915916443E+01+
*       5.4811104560E+02               0
GRID*                221               01.0039713287E+027.3915916443E+01+
*       5.4708011777E+02               0
GRID*                222               01.0039713287E+027.3915916443E+01+
*       5.4604918993E+02               0
GRID*                223               01.0039713287E+027.3915916443E+01+
*       5.4501826210E+02               0
GRID*                224               01.0039713287E+027.3915916443E+01+
*       5.4398733426E+02               0
GRID*                225               01.0039713287E+027.3915916443E+01+
*       5.4295640643E+02               0
GRID*                226               01.0039713287E+027.3915916443E+01+
*       5.4192547859E+02               0
GRID*                227               01.0039713287E+027.3915916443E+01+
*       5.4089455076E+02               0
GRID*                228               01.0039713287E+027.3915916443E+01+
*       5.3986362292E+02               0
GRID*                229               01.0039713287E+027.3915916443E+01+
*       5.3883269509E+02               0
GRID*                230               01.0039713287E+027.3915916443E+01+
*       5.3780176725E+02               0
GRID*                231               01.0039713287E+027.3915916443E+01+
*       5.3677083942E+02               0
GRID*                232               01.0039713287E+027.3915916443E+01+
*       5.3573991158E+02               0
GRID*                233               01.0039713287E+027.3915916443E+01+
*       5.3470898375E+02               0
GRID*                234               01.0039713287E+027.3915916443E+01+
*       5.3367805591E+02               0
GRID*                235               01.0039713287E+027.3915916443E+01+
*       5.3264712808E+02               0
GRID*                236               01.0039713287E+027.3915916443E+01+
*       5.3161620024E+02               0
GRID*                237               01.0039713287E+027.3915916443E+01+
*       5.3058527241E+02               0
GRID*                238               01.0039713287E+027.3915916443E+01+
*       5.2955434457E+02               0
GRID*                239               01.0039713287E+027.3915916443E+01+
*       5.2852341674E+02               0
GRID*                240               01.0039713287E+027.3915916443E+01+
*       5.2749248890E+02               0
GRID*                241               01.0039713287E+027.3915916443E+01+
*       5.2646156107E+02               0
GRID*                242               01.0039713287E+027.3915916443E+01+
*       5.2543063323E+02               0
GRID*                243               01.0039713287E+027.3915916443E+01+
*       5.2439970540E+02               0
GRID*                244               01.0039713287E+027.3915916443E+01+
*       5.2336877756E+02               0
GRID*                245               01.0039713287E+027.3915916443E+01+
*       5.2233784973E+02               0
GRID*                246               01.0039713287E+027.3915916443E+01+
*       5.2130692189E+02               0
GRID*                247               01.0039713287E+027.3915916443E+01+
*       5.2027599406E+02               0
GRID*                248               01.0039713287E+027.3915916443E+01+
*       5.1924506622E+02               0
GRID*                249               01.0039713287E+027.3915916443E+01+
*       5.1821413838E+02               0
GRID*                250               01.0039713287E+027.3915916443E+01+
*       5.1718321055E+02               0
GRID*                251               01.0039713287E+027.3915916443E+01+
*       5.1615228271E+02               0
GRID*                252               01.0039713287E+027.3915916443E+01+
*       5.1512135488E+02               0
GRID*                253               01.0039713287E+027.3915916443E+01+
*       5.1409042704E+02               0
GRID*                254               01.0039713287E+027.3915916443E+01+
*       5.1305949921E+02               0
GRID*                255               01.0039713287E+027.3915916443E+01+
*       5.1202857137E+02               0
GRID*                256               01.0039713287E+027.3915916443E+01+
*       5.1099764354E+02               0
GRID*                257               01.0039713287E+027.3915916443E+01+
*       5.0996671570E+02               0
GRID*                258               01.0039713287E+027.3915916443E+01+
*       5.0893578787E+02               0
GRID*                259               01.0039713287E+027.3915916443E+01+
*       5.0790486003E+02               0
GRID*                260               01.0039713287E+027.3915916443E+01+
*       5.0687393220E+02               0
GRID*                261               01.0039713287E+027.3915916443E+01+
*       5.0584300436E+02               0
GRID*                262               01.0039713287E+027.3915916443E+01+
*       5.0481207653E+02               0
GRID*                263               01.0039713287E+027.3915916443E+01+
*       5.0378114869E+02               0
GRID*                264               01.0039713287E+027.3915916443E+01+
*       5.0275022086E+02               0
GRID*                265               01.0039713287E+027.3915916443E+01+
*       5.0171929302E+02               0
GRID*                266               01.0039713287E+027.3915916443E+01+
*       5.0068836519E+02               0
GRID*                267               01.0039713287E+027.3915916443E+01+
*       4.9965743735E+02               0
GRID*                268               01.0039713287E+027.3915916443E+01+
*       4.9862650952E+02               0
GRID*                269               01.0039713287E+027.3915916443E+01+
*       4.9759558168E+02               0
GRID*                270               01.0039713287E+027.3915916443E+01+
*       4.9656465385E+02               0
GRID*                271               01.0039713287E+027.3915916443E+01+
*       4.9553372601E+02               0
GRID*                272               01.0039713287E+027.3915916443E+01+
*       4.9450279818E+02               0
GRID*                273               01.0039713287E+027.3915916443E+01+
*       4.9347187034E+02               0
GRID*                274               01.0039713287E+027.3915916443E+01+
*       4.9244094251E+02               0
GRID*                275               01.0039713287E+027.3915916443E+01+
*       4.9141001467E+02               0
GRID*                276               01.0039713287E+027.3915916443E+01+
*       4.9037908684E+02               0
GRID*                277               01.0039713287E+027.3915916443E+01+
*       4.8934815900E+02               0
GRID*                278               01.0039713287E+027.3915916443E+01+
*       4.8831723117E+02               0
GRID*                279               01.0039713287E+027.3915916443E+01+
*       4.8728630333E+02               0
GRID*                280               01.0039713287E+027.3915916443E+01+
*       4.8625537550E+02               0
GRID*                281               01.0039713287E+027.3915916443E+01+
*       4.8522444766E+02               0
GRID*                282               01.0039713287E+027.3915916443E+01+
*       4.8419351983E+02               0
GRID*                283               01.0039713287E+027.3915916443E+01+
*       4.8316259199E+02               0
GRID*                284               01.0039713287E+027.3915916443E+01+
*       4.8213166416E+02               0
GRID*                285               01.0039713287E+027.3915916443E+01+
*       4.8110073632E+02               0
GRID*                286               01.0039713287E+027.3915916443E+01+
*       4.8006980849E+02               0
GRID*                287               01.0039713287E+027.3915916443E+01+
*       4.7903888065E+02               0
GRID*                288               01.0039713287E+027.3915916443E+01+
*       4.7800795282E+02               0
GRID*                289               01.0039713287E+027.3915916443E+01+
*       4.7697702498E+02               0
GRID*                290               01.0039713287E+027.3915916443E+01+
*       4.7594609715E+02               0
GRID*                291               01.0039713287E+027.3915916443E+01+
*       4.7491516931E+02               0
GRID*                292               01.0039713287E+027.3915916443E+01+
*       4.7388424148E+02               0
GRID*                293               01.0039713287E+027.3915916443E+01+
*       4.7285331364E+02               0
GRID*                294               01.0039713287E+027.3915916443E+01+
*       4.7182238581E+02               0
GRID*                295               01.0039713287E+027.3915916443E+01+
*       4.7079145797E+02               0
GRID*                296               01.0039713287E+027.3915916443E+01+
*       4.6976053014E+02               0
GRID*                297               01.0039713287E+027.3915916443E+01+
*       4.6872960230E+02               0
GRID*                298               01.0039713287E+027.3915916443E+01+
*       4.6769867447E+02               0
GRID*                299               01.0039713287E+027.3915916443E+01+
*       4.6666774663E+02               0
GRID*                300               01.0039713287E+027.3915916443E+01+
*       4.6563681880E+02               0
GRID*                301               01.0039713287E+027.3915916443E+01+
*       4.6460589096E+02               0
GRID*                302               01.0039713287E+027.3915916443E+01+
*       4.6357496313E+02               0
GRID*                303               01.0039713287E+027.3915916443E+01+
*       4.6254403529E+02               0
GRID*                304               01.0039713287E+027.3915916443E+01+
*       4.6151310746E+02               0
GRID*                305               01.0039713287E+027.3915916443E+01+
*       4.6048217962E+02               0
GRID*                306               01.0039713287E+027.3915916443E+01+
*       4.5945125179E+02               0
GRID*                307               01.0039713287E+027.3915916443E+01+
*       4.5842032395E+02               0
GRID*                308               01.0039713287E+027.3915916443E+01+
*       4.5738939612E+02               0
GRID*                309               01.0039713287E+027.3915916443E+01+
*       4.5635846828E+02               0
GRID*                310               01.0039713287E+027.3915916443E+01+
*       4.5532754045E+02               0
GRID*                311               01.0039713287E+027.3915916443E+01+
*       4.5429661261E+02               0
GRID*                312               01.0039713287E+027.3915916443E+01+
*       4.5326568478E+02               0
GRID*                313               01.0039713287E+027.3915916443E+01+
*       4.5223475694E+02               0
GRID*                314               01.0039713287E+027.3915916443E+01+
*       4.5120382911E+02               0
GRID*                315               01.0039713287E+027.3915916443E+01+
*       4.5017290127E+02               0
GRID*                316               01.0039713287E+027.3915916443E+01+
*       4.4914197344E+02               0
GRID*                317               01.0039713287E+027.3915916443E+01+
*       4.4811104560E+02               0
GRID*                318               01.0039713287E+027.3915916443E+01+
*       4.4708011777E+02               0
GRID*                319               01.0039713287E+027.3915916443E+01+
*       4.4604918993E+02               0
GRID*                320               01.0039713287E+027.3915916443E+01+
*       4.4501826210E+02               0
GRID*                321               01.0039713287E+027.3915916443E+01+
*       4.4398733426E+02               0
GRID*                322               01.0039713287E+027.3915916443E+01+
*       4.4295640643E+02               0
GRID*                323               01.0039713287E+027.3915916443E+01+
*       4.4192547859E+02               0
GRID*                324               01.0039713287E+027.3915916443E+01+
*       4.4089455076E+02               0
GRID*                325               01.0039713287E+027.3915916443E+01+
*       4.3986362292E+02               0
GRID*                326               01.0039713287E+027.3915916443E+01+
*       4.3883269509E+02               0
GRID*                327               01.0039713287E+027.3915916443E+01+
*       4.3780176725E+02               0
GRID*                328               01.0039713287E+027.3915916443E+01+
*       4.3677083942E+02               0
GRID*                329               01.0039713287E+027.3915916443E+01+
*       4.3573991158E+02               0
GRID*                330               01.0039713287E+027.3915916443E+01+
*       4.3470898375E+02               0
GRID*                331               01.0039713287E+027.3915916443E+01+
*       4.3367805591E+02               0
GRID*                332               01.0039713287E+027.3915916443E+01+
*       4.3264712808E+02               0
GRID*                333               01.0039713287E+027.3915916443E+01+
*       4.3161620024E+02               0
GRID*                334               01.0039713287E+027.3915916443E+01+
*       4.3058527241E+02               0
GRID*                335               01.0039713287E+027.3915916443E+01+
*       4.2955434457E+02               0
GRID*                336               01.0039713287E+027.3915916443E+01+
*       4.2852341674E+02               0
GRID*                337               01.0039713287E+027.3915916443E+01+
*       4.2749248890E+02               0
GRID*                338               01.0039713287E+027.3915916443E+01+
*       4.2646156107E+02               0
GRID*                339               01.0039713287E+027.3915916443E+01+
*       4.2543063323E+02               0
GRID*                340               01.0039713287E+027.3915916443E+01+
*       4.2439970540E+02               0
GRID*                341               01.0039713287E+027.3915916443E+01+
*       4.2336877756E+02               0
GRID*                342               01.0039713287E+027.3915916443E+01+
*       4.2233784973E+02               0
GRID*                343               01.0039713287E+027.3915916443E+01+
*       4.2130692189E+02               0
GRID*                344               01.0039713287E+027.3915916443E+01+
*       4.2027599406E+02               0
GRID*                345               01.0039713287E+027.3915916443E+01+
*       4.1924506622E+02               0
GRID*                346               01.0039713287E+027.3915916443E+01+
*       4.1821413838E+02               0
GRID*                347               01.0039713287E+027.3915916443E+01+
*       4.1718321055E+02               0
GRID*                348               01.0039713287E+027.4415916443E+01+
*       6.1512135488E+02               0
GRID*                349               01.0039713287E+027.4415916443E+01+
*       6.1409042704E+02               0
GRID*                350               01.0039713287E+027.4415916443E+01+
*       6.1305949921E+02               0
GRID*                351               01.0039713287E+027.4415916443E+01+
*       6.1202857137E+02               0
GRID*                352               01.0039713287E+027.4415916443E+01+
*       6.1099764354E+02               0
GRID*                353               01.0039713287E+027.4415916443E+01+
*       6.0996671570E+02               0
GRID*                354               01.0039713287E+027.4415916443E+01+
*       6.0893578787E+02               0
GRID*                355               01.0039713287E+027.4415916443E+01+
*       6.0790486003E+02               0
GRID*                356               01.0039713287E+027.4415916443E+01+
*       6.0687393220E+02               0
GRID*                357               01.0039713287E+027.4415916443E+01+
*       6.0584300436E+02               0
GRID*                358               01.0039713287E+027.4415916443E+01+
*       6.0481207653E+02               0
GRID*                359               01.0039713287E+027.4415916443E+01+
*       6.0378114869E+02               0
GRID*                360               01.0039713287E+027.4415916443E+01+
*       6.0275022086E+02               0
GRID*                361               01.0039713287E+027.4415916443E+01+
*       6.0171929302E+02               0
GRID*                362               01.0039713287E+027.4415916443E+01+
*       6.0068836519E+02               0
GRID*                363               01.0039713287E+027.4415916443E+01+
*       5.9965743735E+02               0
GRID*                364               01.0039713287E+027.4415916443E+01+
*       5.9862650952E+02               0
GRID*                365               01.0039713287E+027.4415916443E+01+
*       5.9759558168E+02               0
GRID*                366               01.0039713287E+027.4415916443E+01+
*       5.9656465385E+02               0
GRID*                367               01.0039713287E+027.4415916443E+01+
*       5.9553372601E+02               0
GRID*                368               01.0039713287E+027.4415916443E+01+
*       5.9450279818E+02               0
GRID*                369               01.0039713287E+027.4415916443E+01+
*       5.9347187034E+02               0
GRID*                370               01.0039713287E+027.4415916443E+01+
*       5.9244094251E+02               0
GRID*                371               01.0039713287E+027.4415916443E+01+
*       5.9141001467E+02               0
GRID*                372               01.0039713287E+027.4415916443E+01+
*       5.9037908684E+02               0
GRID*                373               01.0039713287E+027.4415916443E+01+
*       5.8934815900E+02               0
GRID*                374               01.0039713287E+027.4415916443E+01+
*       5.8831723117E+02               0
GRID*                375               01.0039713287E+027.4415916443E+01+
*       5.8728630333E+02               0
GRID*                376               01.0039713287E+027.4415916443E+01+
*       5.8625537550E+02               0
GRID*                377               01.0039713287E+027.4415916443E+01+
*       5.8522444766E+02               0
GRID*                378               01.0039713287E+027.4415916443E+01+
*       5.8419351983E+02               0
GRID*                379               01.0039713287E+027.4415916443E+01+
*       5.8316259199E+02               0
GRID*                380               01.0039713287E+027.4415916443E+01+
*       5.8213166416E+02               0
GRID*                381               01.0039713287E+027.4415916443E+01+
*       5.8110073632E+02               0
GRID*                382               01.0039713287E+027.4415916443E+01+
*       5.8006980849E+02               0
GRID*                383               01.0039713287E+027.4415916443E+01+
*       5.7903888065E+02               0
GRID*                384               01.0039713287E+027.4415916443E+01+
*       5.7800795282E+02               0
GRID*                385               01.0039713287E+027.4415916443E+01+
*       5.7697702498E+02               0
GRID*                386               01.0039713287E+027.4415916443E+01+
*       5.7594609715E+02               0
GRID*                387               01.0039713287E+027.4415916443E+01+
*       5.7491516931E+02               0
GRID*                388               01.0039713287E+027.4415916443E+01+
*       5.7388424148E+02               0
GRID*                389               01.0039713287E+027.4415916443E+01+
*       5.7285331364E+02               0
GRID*                390               01.0039713287E+027.4415916443E+01+
*       5.7182238581E+02               0
GRID*                391               01.0039713287E+027.4415916443E+01+
*       5.7079145797E+02               0
GRID*                392               01.0039713287E+027.4415916443E+01+
*       5.6976053014E+02               0
GRID*                393               01.0039713287E+027.4415916443E+01+
*       5.6872960230E+02               0
GRID*                394               01.0039713287E+027.4415916443E+01+
*       5.6769867447E+02               0
GRID*                395               01.0039713287E+027.4415916443E+01+
*       5.6666774663E+02               0
GRID*                396               01.0039713287E+027.4415916443E+01+
*       5.6563681880E+02               0
GRID*                397               01.0039713287E+027.4415916443E+01+
*       5.6460589096E+02               0
GRID*                398               01.0039713287E+027.4415916443E+01+
*       5.6357496313E+02               0
GRID*                399               01.0039713287E+027.4415916443E+01+
*       5.6254403529E+02               0
GRID*                400               01.0039713287E+027.4415916443E+01+
*       5.6151310746E+02               0
GRID*                401               01.0039713287E+027.4415916443E+01+
*       5.6048217962E+02               0
GRID*                402               01.0039713287E+027.4415916443E+01+
*       5.5945125179E+02               0
GRID*                403               01.0039713287E+027.4415916443E+01+
*       5.5842032395E+02               0
GRID*                404               01.0039713287E+027.4415916443E+01+
*       5.5738939612E+02               0
GRID*                405               01.0039713287E+027.4415916443E+01+
*       5.5635846828E+02               0
GRID*                406               01.0039713287E+027.4415916443E+01+
*       5.5532754045E+02               0
GRID*                407               01.0039713287E+027.4415916443E+01+
*       5.5429661261E+02               0
GRID*                408               01.0039713287E+027.4415916443E+01+
*       5.5326568478E+02               0
GRID*                409               01.0039713287E+027.4415916443E+01+
*       5.5223475694E+02               0
GRID*                410               01.0039713287E+027.4415916443E+01+
*       5.5120382911E+02               0
GRID*                411               01.0039713287E+027.4415916443E+01+
*       5.5017290127E+02               0
GRID*                412               01.0039713287E+027.4415916443E+01+
*       5.4914197344E+02               0
GRID*                413               01.0039713287E+027.4415916443E+01+
*       5.4811104560E+02               0
GRID*                414               01.0039713287E+027.4415916443E+01+
*       5.4708011777E+02               0
GRID*                415               01.0039713287E+027.4415916443E+01+
*       5.4604918993E+02               0
GRID*                416               01.0039713287E+027.4415916443E+01+
*       5.4501826210E+02               0
GRID*                417               01.0039713287E+027.4415916443E+01+
*       5.4398733426E+02               0
GRID*                418               01.0039713287E+027.4415916443E+01+
*       5.4295640643E+02               0
GRID*                419               01.0039713287E+027.4415916443E+01+
*       5.4192547859E+02               0
GRID*                420               01.0039713287E+027.4415916443E+01+
*       5.4089455076E+02               0
GRID*                421               01.0039713287E+027.4415916443E+01+
*       5.3986362292E+02               0
GRID*                422               01.0039713287E+027.4415916443E+01+
*       5.3883269509E+02               0
GRID*                423               01.0039713287E+027.4415916443E+01+
*       5.3780176725E+02               0
GRID*                424               01.0039713287E+027.4415916443E+01+
*       5.3677083942E+02               0
GRID*                425               01.0039713287E+027.4415916443E+01+
*       5.3573991158E+02               0
GRID*                426               01.0039713287E+027.4415916443E+01+
*       5.3470898375E+02               0
GRID*                427               01.0039713287E+027.4415916443E+01+
*       5.3367805591E+02               0
GRID*                428               01.0039713287E+027.4415916443E+01+
*       5.3264712808E+02               0
GRID*                429               01.0039713287E+027.4415916443E+01+
*       5.3161620024E+02               0
GRID*                430               01.0039713287E+027.4415916443E+01+
*       5.3058527241E+02               0
GRID*                431               01.0039713287E+027.4415916443E+01+
*       5.2955434457E+02               0
GRID*                432               01.0039713287E+027.4415916443E+01+
*       5.2852341674E+02               0
GRID*                433               01.0039713287E+027.4415916443E+01+
*       5.2749248890E+02               0
GRID*                434               01.0039713287E+027.4415916443E+01+
*       5.2646156107E+02               0
GRID*                435               01.0039713287E+027.4415916443E+01+
*       5.2543063323E+02               0
GRID*                436               01.0039713287E+027.4415916443E+01+
*       5.2439970540E+02               0
GRID*                437               01.0039713287E+027.4415916443E+01+
*       5.2336877756E+02               0
GRID*                438               01.0039713287E+027.4415916443E+01+
*       5.2233784973E+02               0
GRID*                439               01.0039713287E+027.4415916443E+01+
*       5.2130692189E+02               0
GRID*                440               01.0039713287E+027.4415916443E+01+
*       5.2027599406E+02               0
GRID*                441               01.0039713287E+027.4415916443E+01+
*       5.1924506622E+02               0
GRID*                442               01.0039713287E+027.4415916443E+01+
*       5.1821413838E+02               0
GRID*                443               01.0039713287E+027.4415916443E+01+
*       5.1718321055E+02               0
GRID*                444               01.0039713287E+027.4415916443E+01+
*       5.1615228271E+02               0
GRID*                445               01.0039713287E+027.4415916443E+01+
*       5.1512135488E+02               0
GRID*                446               01.0039713287E+027.4415916443E+01+
*       5.1409042704E+02               0
GRID*                447               01.0039713287E+027.4415916443E+01+
*       5.1305949921E+02               0
GRID*                448               01.0039713287E+027.4415916443E+01+
*       5.1202857137E+02               0
GRID*                449               01.0039713287E+027.4415916443E+01+
*       5.1099764354E+02               0
GRID*                450               01.0039713287E+027.4415916443E+01+
*       5.0996671570E+02               0
GRID*                451               01.0039713287E+027.4415916443E+01+
*       5.0893578787E+02               0
GRID*                452               01.0039713287E+027.4415916443E+01+
*       5.0790486003E+02               0
GRID*                453               01.0039713287E+027.4415916443E+01+
*       5.0687393220E+02               0
GRID*                454               01.0039713287E+027.4415916443E+01+
*       5.0584300436E+02               0
GRID*                455               01.0039713287E+027.4415916443E+01+
*       5.0481207653E+02               0
GRID*                456               01.0039713287E+027.4415916443E+01+
*       5.0378114869E+02               0
GRID*                457               01.0039713287E+027.4415916443E+01+
*       5.0275022086E+02               0
GRID*                458               01.0039713287E+027.4415916443E+01+
*       5.0171929302E+02               0
GRID*                459               01.0039713287E+027.4415916443E+01+
*       5.0068836519E+02               0
GRID*                460               01.0039713287E+027.4415916443E+01+
*       4.9965743735E+02               0
GRID*                461               01.0039713287E+027.4415916443E+01+
*       4.9862650952E+02               0
GRID*                462               01.0039713287E+027.4415916443E+01+
*       4.9759558168E+02               0
GRID*                463               01.0039713287E+027.4415916443E+01+
*       4.9656465385E+02               0
GRID*                464               01.0039713287E+027.4415916443E+01+
*       4.9553372601E+02               0
GRID*                465               01.0039713287E+027.4415916443E+01+
*       4.9450279818E+02               0
GRID*                466               01.0039713287E+027.4415916443E+01+
*       4.9347187034E+02               0
GRID*                467               01.0039713287E+027.4415916443E+01+
*       4.9244094251E+02               0
GRID*                468               01.0039713287E+027.4415916443E+01+
*       4.9141001467E+02               0
GRID*                469               01.0039713287E+027.4415916443E+01+
*       4.9037908684E+02               0
GRID*                470               01.0039713287E+027.4415916443E+01+
*       4.8934815900E+02               0
GRID*                471               01.0039713287E+027.4415916443E+01+
*       4.8831723117E+02               0
GRID*                472               01.0039713287E+027.4415916443E+01+
*       4.8728630333E+02               0
GRID*                473               01.0039713287E+027.4415916443E+01+
*       4.8625537550E+02               0
GRID*                474               01.0039713287E+027.4415916443E+01+
*       4.8522444766E+02               0
GRID*                475               01.0039713287E+027.4415916443E+01+
*       4.8419351983E+02               0
GRID*                476               01.0039713287E+027.4415916443E+01+
*       4.8316259199E+02               0
GRID*                477               01.0039713287E+027.4415916443E+01+
*       4.8213166416E+02               0
GRID*                478               01.0039713287E+027.4415916443E+01+
*       4.8110073632E+02               0
GRID*                479               01.0039713287E+027.4415916443E+01+
*       4.8006980849E+02               0
GRID*                480               01.0039713287E+027.4415916443E+01+
*       4.7903888065E+02               0
GRID*                481               01.0039713287E+027.4415916443E+01+
*       4.7800795282E+02               0
GRID*                482               01.0039713287E+027.4415916443E+01+
*       4.7697702498E+02               0
GRID*                483               01.0039713287E+027.4415916443E+01+
*       4.7594609715E+02               0
GRID*                484               01.0039713287E+027.4415916443E+01+
*       4.7491516931E+02               0
GRID*                485               01.0039713287E+027.4415916443E+01+
*       4.7388424148E+02               0
GRID*                486               01.0039713287E+027.4415916443E+01+
*       4.7285331364E+02               0
GRID*                487               01.0039713287E+027.4415916443E+01+
*       4.7182238581E+02               0
GRID*                488               01.0039713287E+027.4415916443E+01+
*       4.7079145797E+02               0
GRID*                489               01.0039713287E+027.4415916443E+01+
*       4.6976053014E+02               0
GRID*                490               01.0039713287E+027.4415916443E+01+
*       4.6872960230E+02               0
GRID*                491               01.0039713287E+027.4415916443E+01+
*       4.6769867447E+02               0
GRID*                492               01.0039713287E+027.4415916443E+01+
*       4.6666774663E+02               0
GRID*                493               01.0039713287E+027.4415916443E+01+
*       4.6563681880E+02               0
GRID*                494               01.0039713287E+027.4415916443E+01+
*       4.6460589096E+02               0
GRID*                495               01.0039713287E+027.4415916443E+01+
*       4.6357496313E+02               0
GRID*                496               01.0039713287E+027.4415916443E+01+
*       4.6254403529E+02               0
GRID*                497               01.0039713287E+027.4415916443E+01+
*       4.6151310746E+02               0
GRID*                498               01.0039713287E+027.4415916443E+01+
*       4.6048217962E+02               0
GRID*                499               01.0039713287E+027.4415916443E+01+
*       4.5945125179E+02               0
GRID*                500               01.0039713287E+027.4415916443E+01+
*       4.5842032395E+02               0
GRID*                501               01.0039713287E+027.4415916443E+01+
*       4.5738939612E+02               0
GRID*                502               01.0039713287E+027.4415916443E+01+
*       4.5635846828E+02               0
GRID*                503               01.0039713287E+027.4415916443E+01+
*       4.5532754045E+02               0
GRID*                504               01.0039713287E+027.4415916443E+01+
*       4.5429661261E+02               0
GRID*                505               01.0039713287E+027.4415916443E+01+
*       4.5326568478E+02               0
GRID*                506               01.0039713287E+027.4415916443E+01+
*       4.5223475694E+02               0
GRID*                507               01.0039713287E+027.4415916443E+01+
*       4.5120382911E+02               0
GRID*                508               01.0039713287E+027.4415916443E+01+
*       4.5017290127E+02               0
GRID*                509               01.0039713287E+027.4415916443E+01+
*       4.4914197344E+02               0
GRID*                510               01.0039713287E+027.4415916443E+01+
*       4.4811104560E+02               0
GRID*                511               01.0039713287E+027.4415916443E+01+
*       4.4708011777E+02               0
GRID*                512               01.0039713287E+027.4415916443E+01+
*       4.4604918993E+02               0
GRID*                513               01.0039713287E+027.4415916443E+01+
*       4.4501826210E+02               0
GRID*                514               01.0039713287E+027.4415916443E+01+
*       4.4398733426E+02               0
GRID*                515               01.0039713287E+027.4415916443E+01+
*       4.4295640643E+02               0
GRID*                516               01.0039713287E+027.4415916443E+01+
*       4.4192547859E+02               0
GRID*                517               01.0039713287E+027.4415916443E+01+
*       4.4089455076E+02               0
GRID*                518               01.0039713287E+027.4415916443E+01+
*       4.3986362292E+02               0
GRID*                519               01.0039713287E+027.4415916443E+01+
*       4.3883269509E+02               0
GRID*                520               01.0039713287E+027.4415916443E+01+
*       4.3780176725E+02               0
GRID*                521               01.0039713287E+027.4415916443E+01+
*       4.3677083942E+02               0
GRID*                522               01.0039713287E+027.4415916443E+01+
*       4.3573991158E+02               0
GRID*                523               01.0039713287E+027.4415916443E+01+
*       4.3470898375E+02               0
GRID*                524               01.0039713287E+027.4415916443E+01+
*       4.3367805591E+02               0
GRID*                525               01.0039713287E+027.4415916443E+01+
*       4.3264712808E+02               0
GRID*                526               01.0039713287E+027.4415916443E+01+
*       4.3161620024E+02               0
GRID*                527               01.0039713287E+027.4415916443E+01+
*       4.3058527241E+02               0
GRID*                528               01.0039713287E+027.4415916443E+01+
*       4.2955434457E+02               0
GRID*                529               01.0039713287E+027.4415916443E+01+
*       4.2852341674E+02               0
GRID*                530               01.0039713287E+027.4415916443E+01+
*       4.2749248890E+02               0
GRID*                531               01.0039713287E+027.4415916443E+01+
*       4.2646156107E+02               0
GRID*                532               01.0039713287E+027.4415916443E+01+
*       4.2543063323E+02               0
GRID*                533               01.0039713287E+027.4415916443E+01+
*       4.2439970540E+02               0
GRID*                534               01.0039713287E+027.4415916443E+01+
*       4.2336877756E+02               0
GRID*                535               01.0039713287E+027.4415916443E+01+
*       4.2233784973E+02               0
GRID*                536               01.0039713287E+027.4415916443E+01+
*       4.2130692189E+02               0
GRID*                537               01.0039713287E+027.4415916443E+01+
*       4.2027599406E+02               0
GRID*                538               01.0039713287E+027.4415916443E+01+
*       4.1924506622E+02               0
GRID*                539               01.0039713287E+027.4415916443E+01+
*       4.1821413838E+02               0
GRID*                540               01.0039713287E+027.4415916443E+01+
*       4.1718321055E+02               0
GRID*                541               09.6350289150E+017.9712856941E+01+
*       5.9539979547E+02               0
GRID*                542               09.6242932044E+017.9164435592E+01+
*       5.9485296956E+02               0
GRID*                543               09.6350419758E+017.9713818728E+01+
*       5.9690358773E+02               0
GRID*                544               09.6350382720E+017.9915673885E+01+
*       5.9615165880E+02               0
GRID*                545               09.6147182469E+017.8416308978E+01+
*       5.9765219111E+02               0
GRID*                546               09.6255216389E+017.9164845067E+01+
*       5.9745101089E+02               0
GRID*                547               09.6350408731E+017.7118827023E+01+
*       5.9690457159E+02               0
GRID*                548               09.6243151340E+017.7667857128E+01+
*       5.9745128424E+02               0
GRID*                549               09.6350171745E+017.7118816783E+01+
*       5.9540015235E+02               0
GRID*                550               09.6350527174E+017.6916116087E+01+
*       5.9615237331E+02               0
GRID*                551               09.6254923609E+017.7667893719E+01+
*       5.9485293761E+02               0
GRID*                552               09.9405171792E+017.4269830100E+01+
*       4.1615228271E+02               0
GRID*                553               09.8391922884E+017.4660380757E+01+
*       4.1615228271E+02               0
GRID*                554               01.0039713283E+027.4164204197E+01+
*       4.1615228271E+02               0
GRID*                555               09.6419783902E+017.6822066572E+01+
*       4.1615228271E+02               0
GRID*                556               09.6850963029E+017.6042470486E+01+
*       4.1615228271E+02               0
GRID*                557               09.6140998932E+017.7982001475E+01+
*       4.1615228271E+02               0
GRID*                558               09.7602044281E+017.5173386085E+01+
*       4.1615228271E+02               0
GRID*                559               09.6140888324E+017.8849601244E+01+
*       4.1615228271E+02               0
GRID*                560               09.9404469097E+018.2561682641E+01+
*       4.1615228271E+02               0
GRID*                561               01.0039713981E+028.2667675091E+01+
*       4.1615228271E+02               0
GRID*                562               09.8392050921E+018.2171665907E+01+
*       4.1615228271E+02               0
GRID*                563               09.6419968291E+018.0010443720E+01+
*       4.1615228271E+02               0
GRID*                564               09.6850694659E+018.0789183624E+01+
*       4.1615228271E+02               0
GRID*                565               09.7601873749E+018.1658049425E+01+
*       4.1615228271E+02               0
GRID*                566               01.0138909422E+027.4269828411E+01+
*       4.1615228271E+02               0
GRID*                567               01.0240234369E+027.4660377150E+01+
*       4.1615228271E+02               0
GRID*                568               01.0437448776E+027.6822058425E+01+
*       4.1615228271E+02               0
GRID*                569               01.0465326781E+027.7981990680E+01+
*       4.1615228271E+02               0
GRID*                570               01.0394330553E+027.6042463837E+01+
*       4.1615228271E+02               0
GRID*                571               01.0319222333E+027.5173381112E+01+
*       4.1615228271E+02               0
GRID*                572               01.0465337945E+027.8849597677E+01+
*       4.1615228271E+02               0
GRID*                573               01.0138981027E+028.2561681263E+01+
*       4.1615228271E+02               0
GRID*                574               01.0240222799E+028.2171662971E+01+
*       4.1615228271E+02               0
GRID*                575               01.0437430810E+028.0010439332E+01+
*       4.1615228271E+02               0
GRID*                576               01.0394358196E+028.0789178514E+01+
*       4.1615228271E+02               0
GRID*                577               01.0319240432E+028.1658045438E+01+
*       4.1615228271E+02               0
GRID*                578               01.0205322639E+027.4774901628E+01+
*       5.9869278979E+02               0
GRID*                579               01.0338032080E+027.5751250776E+01+
*       5.9779474430E+02               0
GRID*                580               09.8649684454E+017.4817836819E+01+
*       5.9436014645E+02               0
GRID*                581               09.7345795168E+017.5829609675E+01+
*       5.9495971282E+02               0
GRID*                582               09.8658233497E+017.4813696479E+01+
*       5.8625603509E+02               0
GRID*                583               09.7263478867E+017.5930002190E+01+
*       5.8727363268E+02               0
GRID*                584               09.6501241651E+017.7559462089E+01+
*       5.8830446948E+02               0
GRID*                585               09.6521857781E+017.9368550630E+01+
*       5.8933881219E+02               0
GRID*                586               09.7328466959E+018.0981309089E+01+
*       5.9034792320E+02               0
GRID*                587               09.8731292375E+018.2052532291E+01+
*       5.9133393778E+02               0
GRID*                588               01.0041162154E+028.2415890047E+01+
*       5.9232209478E+02               0
GRID*                589               01.0205232184E+028.2057396227E+01+
*       5.9331788857E+02               0
GRID*                590               01.0336911302E+028.1093111378E+01+
*       5.9432602174E+02               0
GRID*                591               09.8657662061E+017.4813972839E+01+
*       5.8831951276E+02               0
GRID*                592               09.7260589209E+017.5933649071E+01+
*       5.8934250763E+02               0
GRID*                593               09.6492996930E+017.7588621700E+01+
*       5.9040467790E+02               0
GRID*                594               09.6534474818E+017.9451586626E+01+
*       5.9142742282E+02               0
GRID*                595               09.7381495027E+018.1043701846E+01+
*       5.9236028450E+02               0
GRID*                596               09.8763556102E+018.2067139211E+01+
*       5.9330261804E+02               0
GRID*                597               01.0040847628E+028.2415900264E+01+
*       5.9426487244E+02               0
GRID*                598               01.0203299333E+028.2066120045E+01+
*       5.9523006115E+02               0
GRID*                599               01.0333304917E+028.1132611789E+01+
*       5.9614942649E+02               0
GRID*                600               01.0205545802E+027.4775917037E+01+
*       6.0069091198E+02               0
GRID*                601               01.0338344636E+027.5754756163E+01+
*       5.9969028883E+02               0
GRID*                602               01.0416585779E+027.7073881183E+01+
*       5.9872371952E+02               0
GRID*                603               09.8776590754E+018.2072943113E+01+
*       5.9522148225E+02               0
GRID*                604               09.7466801339E+018.1138626484E+01+
*       5.9614238877E+02               0
GRID*                605               09.8676497390E+017.4804942221E+01+
*       5.9240528614E+02               0
GRID*                606               09.7347625029E+017.5827452144E+01+
*       5.9333164368E+02               0
GRID*                607               09.6715329388E+017.6852112211E+01+
*       5.9419105450E+02               0
GRID*                608               09.7433434658E+018.1102268317E+01+
*       5.9431099228E+02               0
GRID*                609               09.8662059688E+017.4811853897E+01+
*       5.9038289837E+02               0
GRID*                610               09.7271112663E+017.5920408319E+01+
*       5.9141357465E+02               0
GRID*                611               09.6592332242E+017.9651511618E+01+
*       5.9343542021E+02               0
GRID*                612               09.6480938271E+017.7629481789E+01+
*       5.9266984733E+02               0
GRID*                613               09.7325110822E+017.5854217971E+01+
*       5.9779767054E+02               0
GRID*                614               09.8661837275E+017.4811963851E+01+
*       5.9863125795E+02               0
GRID*                615               09.8421854093E+017.4937666566E+01+
*       5.9645252433E+02               0
GRID*                616               09.7170331053E+017.6052160040E+01+
*       5.9631498810E+02               0
GRID*                617               09.8715036223E+017.4786838494E+01+
*       6.0065770239E+02               0
GRID*                618               09.7373378968E+017.5797404504E+01+
*       5.9967777171E+02               0
GRID*                619               09.6615852306E+017.7118336351E+01+
*       5.9872487928E+02               0
GRID*                620               01.0211452906E+027.4803403452E+01+
*       6.0683740332E+02               0
GRID*                621               01.0349293033E+027.5882995232E+01+
*       6.0575352354E+02               0
GRID*                622               01.0427308163E+027.7431956226E+01+
*       6.0465204311E+02               0
GRID*                623               01.0432811837E+027.9151976239E+01+
*       6.0352425419E+02               0
GRID*                624               01.0363723250E+028.0761067688E+01+
*       6.0235124994E+02               0
GRID*                625               01.0222736225E+028.1972640656E+01+
*       6.0122560015E+02               0
GRID*                626               01.0040975105E+028.2415896427E+01+
*       6.0017864470E+02               0
GRID*                627               09.8648560566E+018.2013483904E+01+
*       5.9908461652E+02               0
GRID*                628               09.7375668315E+018.1036981001E+01+
*       5.9792446600E+02               0
GRID*                629               01.0040567544E+028.2415907267E+01+
*       5.9617693624E+02               0
GRID*                630               01.0040615558E+028.2415906207E+01+
*       5.9812196064E+02               0
GRID*                631               09.8748635939E+018.2060427108E+01+
*       5.9710426443E+02               0
GRID*                632               01.0346167383E+027.5845258101E+01+
*       6.0368925455E+02               0
GRID*                633               01.0342072434E+027.5797202515E+01+
*       6.0165855006E+02               0
GRID*                634               01.0207469252E+027.4784738975E+01+
*       6.0271884491E+02               0
GRID*                635               01.0209688744E+027.4795072082E+01+
*       6.0477092637E+02               0
GRID*                636               01.0205877719E+028.2054455094E+01+
*       5.9710995358E+02               0
GRID*                637               01.0216338978E+028.2004838244E+01+
*       5.9908597959E+02               0
GRID*                638               01.0424672742E+027.7338893939E+01+
*       6.0258711040E+02               0
GRID*                639               01.0420838351E+027.7205501532E+01+
*       6.0058352564E+02               0
GRID*                640               01.0435405004E+027.8995033927E+01+
*       6.0141734254E+02               0
GRID*                641               01.0373376916E+028.0621733124E+01+
*       5.9997627374E+02               0
GRID*                642               01.0342670321E+028.1027578721E+01+
*       5.9792805153E+02               0
GRID*                643               01.0416606464E+027.9757705723E+01+
*       5.9840325736E+02               0
GRID*                644               01.0438828175E+027.8679138599E+01+
*       5.9946032753E+02               0
GRID*                645               01.0042247427E+028.2415835725E+01+
*       6.0231394451E+02               0
GRID*                646               09.8640307871E+018.2009460985E+01+
*       6.0339924242E+02               0
GRID*                647               09.7244998072E+018.0878042849E+01+
*       6.0451456943E+02               0
GRID*                648               09.6492704837E+017.9280615137E+01+
*       6.0563617365E+02               0
GRID*                649               09.6500411507E+017.7516400816E+01+
*       6.0674044345E+02               0
GRID*                650               09.7267792084E+017.5924572285E+01+
*       6.0782898057E+02               0
GRID*                651               09.8649781731E+017.4817794516E+01+
*       6.0890634647E+02               0
GRID*                652               09.6578841097E+017.7233769852E+01+
*       6.0057686398E+02               0
GRID*                653               09.6543574406E+017.7351577407E+01+
*       6.0257850662E+02               0
GRID*                654               09.6518057219E+017.7444507095E+01+
*       6.0464894897E+02               0
GRID*                655               09.7328436083E+017.5850233814E+01+
*       6.0367660042E+02               0
GRID*                656               09.8711137044E+017.4788648251E+01+
*       6.0269620620E+02               0
GRID*                657               09.7360133723E+017.5812782075E+01+
*       6.0164503774E+02               0
GRID*                658               09.8670806695E+017.4807662972E+01+
*       6.0682508329E+02               0
GRID*                659               09.8691443349E+017.4797864769E+01+
*       6.0475447760E+02               0
GRID*                660               09.7294202354E+017.5891750941E+01+
*       6.0574656931E+02               0
GRID*                661               09.6442619359E+017.9016843622E+01+
*       6.0141295324E+02               0
GRID*                662               09.7177191861E+018.0788639293E+01+
*       6.0234954158E+02               0
GRID*                663               09.6471495289E+017.9178308506E+01+
*       6.0352506215E+02               0
GRID*                664               09.8597399900E+018.1988164752E+01+
*       6.0122025262E+02               0
GRID*                665               09.7073747918E+018.0641601961E+01+
*       5.9997151597E+02               0
GRID*                666               09.6634916004E+017.9768685383E+01+
*       5.9839828808E+02               0
GRID*                667               09.6408073893E+017.8703654749E+01+
*       5.9945768377E+02               0
GRID*                668               01.0220236856E+027.4846471664E+01+
*       6.1322383139E+02               0
GRID*                669               01.0354520852E+027.5948280029E+01+
*       6.1208406328E+02               0
GRID*                670               01.0429980076E+027.7540071558E+01+
*       6.1098867991E+02               0
GRID*                671               01.0427386366E+027.9399941766E+01+
*       6.0985280998E+02               0
GRID*                672               01.0347906444E+028.0965550486E+01+
*       6.0860218046E+02               0
GRID*                673               01.0220366326E+028.1984735952E+01+
*       6.0748545848E+02               0
GRID*                674               01.0052087388E+028.2413993486E+01+
*       6.0651976094E+02               0
GRID*                675               09.8722132080E+018.2048322283E+01+
*       6.0552789176E+02               0
GRID*                676               01.0352737665E+027.5925697018E+01+
*       6.0995129650E+02               0
GRID*                677               01.0212847786E+027.4810065458E+01+
*       6.0892084411E+02               0
GRID*                678               01.0214957660E+027.4820268506E+01+
*       6.1102740676E+02               0
GRID*                679               01.0429882275E+027.7536826570E+01+
*       6.0884577198E+02               0
GRID*                680               01.0351423807E+027.5909268379E+01+
*       6.0784098288E+02               0
GRID*                681               01.0429426252E+027.9315033651E+01+
*       6.0770424592E+02               0
GRID*                682               01.0428825708E+027.7492383503E+01+
*       6.0673556925E+02               0
GRID*                683               01.0354785275E+028.0879927355E+01+
*       6.0656955477E+02               0
GRID*                684               01.0431106913E+027.9238187386E+01+
*       6.0561464061E+02               0
GRID*                685               01.0220342128E+028.1984858432E+01+
*       6.0548958915E+02               0
GRID*                686               01.0358872884E+028.0826680754E+01+
*       6.0449277967E+02               0
GRID*                687               01.0045852602E+028.2415442868E+01+
*       6.0444282967E+02               0
GRID*                688               01.0221601403E+028.1978457246E+01+
*       6.0338789701E+02               0
GRID*                689               09.7320696476E+018.0972133927E+01+
*       6.0664521509E+02               0
GRID*                690               09.6514569066E+017.9374793913E+01+
*       6.0776513015E+02               0
GRID*                691               09.6486605955E+017.7576905224E+01+
*       6.0885987326E+02               0
GRID*                692               09.7240499143E+017.5959247515E+01+
*       6.0993962275E+02               0
GRID*                693               09.8621086747E+017.4831866925E+01+
*       6.1101471616E+02               0
GRID*                694               09.8845079091E+018.2102530169E+01+
*       6.0762064122E+02               0
GRID*                695               09.7408651423E+018.1074650624E+01+
*       6.0880038106E+02               0
GRID*                696               09.6529975400E+017.9436532540E+01+
*       6.0993012862E+02               0
GRID*                697               09.6480548085E+017.7604655755E+01+
*       6.1098011069E+02               0
GRID*                698               09.7209051872E+017.6000197235E+01+
*       6.1206718441E+02               0
GRID*                699               09.8564381283E+017.4860519989E+01+
*       6.1321557674E+02               0
GRID*                700               09.9058370391E+018.2185223775E+01+
*       6.0971932274E+02               0
GRID*                701               09.9420477285E+018.2294853690E+01+
*       6.1180433172E+02               0
GRID*                702               09.9579246314E+018.2331386976E+01+
*       6.1410046073E+02               0
GRID*                703               09.7510248993E+018.1184651350E+01+
*       6.1115756176E+02               0
GRID*                704               09.8121359971E+018.1705380720E+01+
*       6.1289033091E+02               0
GRID*                705               09.7107813630E+018.0691940301E+01+
*       6.1295012958E+02               0
GRID*                706               09.6513148037E+017.9371860638E+01+
*       6.1204198451E+02               0
GRID*                707               09.6519037536E+017.9395800959E+01+
*       6.1421554044E+02               0
GRID*                708               09.7581572184E+018.1257149930E+01+
*       6.1441216255E+02               0
GRID*                709               09.6495850712E+017.7532878466E+01+
*       6.1475362466E+02               0
GRID*                710               09.6478815153E+017.7612260783E+01+
*       6.1304256310E+02               0
GRID*                711               09.7139753172E+017.6094474236E+01+
*       6.1421778056E+02               0
GRID*                712               01.0219200482E+028.1990613461E+01+
*       6.0915839671E+02               0
GRID*                713               01.0104778938E+028.2362602115E+01+
*       6.1043336152E+02               0
GRID*                714               01.0066217649E+028.2407097956E+01+
*       6.0848718844E+02               0
GRID*                715               01.0316573066E+028.1302934534E+01+
*       6.1087858267E+02               0
GRID*                716               01.0155761974E+028.2243878105E+01+
*       6.1255797387E+02               0
GRID*                717               01.0347704390E+028.0968153897E+01+
*       6.1343464251E+02               0
GRID*                718               01.0200579542E+028.2078187556E+01+
*       6.1470602231E+02               0
GRID*                719               01.0428483832E+027.9356428145E+01+
*       6.1209138403E+02               0
GRID*                720               01.0434706129E+027.9046588683E+01+
*       6.1427631489E+02               0
GRID*                721               01.0429240716E+027.7507046577E+01+
*       6.1307783125E+02               0
GRID*                722               01.0427722672E+027.7443947796E+01+
*       6.1477296243E+02               0
GRID*                723               01.0362503275E+027.6053651741E+01+
*       6.1423037523E+02               0
GRID*                724               01.0343598844E+027.5814933607E+01+
*       5.9602061273E+02               0
GRID*                725               01.0211581741E+027.4804017042E+01+
*       5.9671005627E+02               0
GRID*                726               01.0219876186E+027.4844652084E+01+
*       5.9242899462E+02               0
GRID*                727               01.0355239727E+027.5957478282E+01+
*       5.9332816690E+02               0
GRID*                728               01.0412462990E+027.6950136129E+01+
*       5.9414153172E+02               0
GRID*                729               01.0212978906E+027.4810708411E+01+
*       4.9347316517E+02               0
GRID*                730               01.0352101272E+027.5917727332E+01+
*       4.9244299825E+02               0
GRID*                731               01.0429523312E+027.7519688612E+01+
*       4.9141228282E+02               0
GRID*                732               01.0429977700E+027.9298709479E+01+
*       4.9038109441E+02               0
GRID*                733               01.0352869474E+028.0904273620E+01+
*       4.8934958118E+02               0
GRID*                734               01.0213513448E+028.2018606067E+01+
*       4.8831793464E+02               0
GRID*                735               01.0039724362E+028.2415916441E+01+
*       4.8728614228E+02               0
GRID*                736               09.8659224551E+018.2018647369E+01+
*       4.8625436457E+02               0
GRID*                737               09.7265560426E+018.0904277005E+01+
*       4.8522266804E+02               0
GRID*                738               09.6495543617E+017.9298138027E+01+
*       4.8419135728E+02               0
GRID*                739               09.6499335481E+017.7519391714E+01+
*       4.8316036959E+02               0
GRID*                740               09.7273680167E+017.5917185881E+01+
*       4.8212983317E+02               0
GRID*                741               09.8664394857E+017.4810748682E+01+
*       4.8109973949E+02               0
GRID*                742               01.0213017889E+027.4810875394E+01+
*       4.4192718430E+02               0
GRID*                743               01.0352097285E+027.5917669907E+01+
*       4.4089740883E+02               0
GRID*                744               01.0429559455E+027.7520483889E+01+
*       4.3986694824E+02               0
GRID*                745               01.0429799106E+027.9300823211E+01+
*       4.3883579822E+02               0
GRID*                746               01.0352725360E+028.0906305683E+01+
*       4.3780399857E+02               0
GRID*                747               01.0213440038E+028.2018960349E+01+
*       4.3677196540E+02               0
GRID*                748               01.0039645406E+028.2415916385E+01+
*       4.3573989035E+02               0
GRID*                749               09.8658686142E+018.2018387753E+01+
*       4.3470794433E+02               0
GRID*                750               09.7266369979E+018.0905527056E+01+
*       4.3367622886E+02               0
GRID*                751               09.6495956763E+017.9299530105E+01+
*       4.3264447075E+02               0
GRID*                752               09.6498930694E+017.7519389107E+01+
*       4.3161277058E+02               0
GRID*                753               09.7274059786E+017.5916717511E+01+
*       4.3058186941E+02               0
GRID*                754               09.8665115863E+017.4810392219E+01+
*       4.2955186420E+02               0
GRID*                755               09.7265329075E+018.0904219452E+01+
*       4.3161198489E+02               0
GRID*                756               09.8652381019E+018.2015338262E+01+
*       4.3057861518E+02               0
GRID*                757               01.0037807898E+028.2415870806E+01+
*       4.2954559790E+02               0
GRID*                758               01.0210331793E+028.2033782796E+01+
*       4.2851483198E+02               0
GRID*                759               01.0349439434E+028.0947098513E+01+
*       4.2748331743E+02               0
GRID*                760               01.0428399884E+027.9360502752E+01+
*       4.2644896118E+02               0
GRID*                761               01.0430764749E+027.7574590317E+01+
*       4.2541587670E+02               0
GRID*                762               01.0354853621E+027.5952531599E+01+
*       4.2438426376E+02               0
GRID*                763               01.0215723824E+027.4824010332E+01+
*       4.2335339437E+02               0
GRID*                764               01.0430243542E+027.7550724442E+01+
*       4.2748563564E+02               0
GRID*                765               01.0429874339E+027.7534232307E+01+
*       4.2955120414E+02               0
GRID*                766               01.0429684532E+027.7525885169E+01+
*       4.3161491058E+02               0
GRID*                767               01.0429602576E+027.7522314658E+01+
*       4.3367815137E+02               0
GRID*                768               01.0429572572E+027.7521021206E+01+
*       4.3574124597E+02               0
GRID*                769               01.0429568239E+027.7520848752E+01+
*       4.3780408602E+02               0
GRID*                770               01.0351282817E+028.0924365095E+01+
*       4.2954897682E+02               0
GRID*                771               01.0352202098E+028.0912896664E+01+
*       4.3161351975E+02               0
GRID*                772               01.0352554024E+028.0908478432E+01+
*       4.3367735161E+02               0
GRID*                773               01.0352669375E+028.0907020791E+01+
*       4.3574075348E+02               0
GRID*                774               01.0038939853E+028.2415908922E+01+
*       4.3161180178E+02               0
GRID*                775               01.0039430544E+028.2415915438E+01+
*       4.3367629906E+02               0
GRID*                776               09.8655964934E+018.2017073304E+01+
*       4.3264373064E+02               0
GRID*                777               01.0211962306E+028.2026048225E+01+
*       4.3057982173E+02               0
GRID*                778               01.0212842128E+028.2021837160E+01+
*       4.3264453256E+02               0
GRID*                779               01.0213232522E+028.2019960179E+01+
*       4.3470845204E+02               0
GRID*                780               01.0429762523E+027.9302472721E+01+
*       4.3470944138E+02               0
GRID*                781               01.0429776263E+027.9301840192E+01+
*       4.3677254772E+02               0
GRID*                782               01.0429685100E+027.9305894618E+01+
*       4.3264603224E+02               0
GRID*                783               01.0429481641E+027.9314783145E+01+
*       4.3058222840E+02               0
GRID*                784               01.0429034406E+027.9333980704E+01+
*       4.2851672936E+02               0
GRID*                785               01.0352120266E+027.5917957021E+01+
*       4.3883479579E+02               0
GRID*                786               01.0213049305E+027.4811027069E+01+
*       4.3986489077E+02               0
GRID*                787               01.0352137088E+027.5918167163E+01+
*       4.3677216932E+02               0
GRID*                788               01.0213065549E+027.4811105877E+01+
*       4.3780263410E+02               0
GRID*                789               01.0214601709E+027.4818534922E+01+
*       4.2542458140E+02               0
GRID*                790               01.0353866434E+027.5939953849E+01+
*       4.2645360157E+02               0
GRID*                791               01.0213952886E+027.4815388422E+01+
*       4.2748972054E+02               0
GRID*                792               01.0353098288E+027.5930237939E+01+
*       4.2851963209E+02               0
GRID*                793               01.0352179934E+027.5918702994E+01+
*       4.3470951090E+02               0
GRID*                794               01.0213084892E+027.4811199608E+01+
*       4.3574038131E+02               0
GRID*                795               01.0213539150E+027.4813389257E+01+
*       4.2955309329E+02               0
GRID*                796               01.0352607336E+027.5924060373E+01+
*       4.3058361677E+02               0
GRID*                797               01.0213127456E+027.4811405015E+01+
*       4.3367812117E+02               0
GRID*                798               01.0213305586E+027.4812262945E+01+
*       4.3161574401E+02               0
GRID*                799               01.0352356896E+027.5920918832E+01+
*       4.3264667867E+02               0
GRID*                800               09.8671133456E+017.4807508299E+01+
*       4.2541892933E+02               0
GRID*                801               09.7280266659E+017.5908980429E+01+
*       4.2644386807E+02               0
GRID*                802               09.6501263936E+017.7509251373E+01+
*       4.2747320572E+02               0
GRID*                803               09.6493683772E+017.9289411488E+01+
*       4.2850662946E+02               0
GRID*                804               09.7259951391E+018.0897436474E+01+
*       4.2954191127E+02               0
GRID*                805               09.8667611272E+017.4809194761E+01+
*       4.2748585793E+02               0
GRID*                806               09.6499813820E+017.7515529851E+01+
*       4.2954495847E+02               0
GRID*                807               09.6495002235E+017.9295293957E+01+
*       4.3057694325E+02               0
GRID*                808               09.7276782260E+017.5913319059E+01+
*       4.2851326770E+02               0
GRID*                809               09.8672457245E+017.4806875476E+01+
*       4.2333941479E+02               0
GRID*                810               09.7285543045E+017.5902433744E+01+
*       4.2435707350E+02               0
GRID*                811               09.6503896615E+017.7497990955E+01+
*       4.2538429408E+02               0
GRID*                812               09.6491278338E+017.9278578042E+01+
*       4.2642239049E+02               0
GRID*                813               09.7252464784E+018.0887942017E+01+
*       4.2746589953E+02               0
GRID*                814               09.8637274175E+018.2007976246E+01+
*       4.2850738694E+02               0
GRID*                815               09.8655264838E+017.4815138850E+01+
*       4.2123921995E+02               0
GRID*                816               09.7280753803E+017.5908375266E+01+
*       4.2225481690E+02               0
GRID*                817               09.6503676253E+017.7498910350E+01+
*       4.2327723999E+02               0
GRID*                818               09.6492665407E+017.9284833456E+01+
*       4.2432125596E+02               0
GRID*                819               09.7255333636E+018.0891588681E+01+
*       4.2538414277E+02               0
GRID*                820               09.8627811343E+018.2003324641E+01+
*       4.2644001119E+02               0
GRID*                821               01.0035177015E+028.2415657849E+01+
*       4.2748039456E+02               0
GRID*                822               01.0206266473E+028.2052677264E+01+
*       4.2645287004E+02               0
GRID*                823               01.0345867754E+028.0990193704E+01+
*       4.2541341333E+02               0
GRID*                824               01.0427325853E+027.9403682394E+01+
*       4.2436751370E+02               0
GRID*                825               01.0431369877E+027.7603222429E+01+
*       4.2333139663E+02               0
GRID*                826               01.0356483113E+027.5973521421E+01+
*       4.2229794547E+02               0
GRID*                827               01.0217942799E+027.4834965424E+01+
*       4.2125879739E+02               0
GRID*                828               01.0033044937E+028.2415357763E+01+
*       4.2543285224E+02               0
GRID*                829               01.0201661997E+028.2073413821E+01+
*       4.2441165841E+02               0
GRID*                830               01.0341568335E+028.1040481319E+01+
*       4.2332548260E+02               0
GRID*                831               01.0426719287E+027.9427189245E+01+
*       4.2225802463E+02               0
GRID*                832               01.0431510415E+027.7610019978E+01+
*       4.2125022966E+02               0
GRID*                833               01.0358938646E+027.6005703428E+01+
*       4.2019616227E+02               0
GRID*                834               01.0223206794E+027.4861642054E+01+
*       4.1907164363E+02               0
GRID*                835               09.8591332639E+017.4846760990E+01+
*       4.1905265889E+02               0
GRID*                836               09.7252638306E+017.5943727730E+01+
*       4.2014077073E+02               0
GRID*                837               09.6500399518E+017.7512926096E+01+
*       4.2115659605E+02               0
GRID*                838               09.6500935501E+017.9321213016E+01+
*       4.2218107899E+02               0
GRID*                839               09.7293600816E+018.0939403507E+01+
*       4.2328067408E+02               0
GRID*                840               09.8657658421E+018.2017891634E+01+
*       4.2438712079E+02               0
GRID*                841               01.0192902524E+028.2110955897E+01+
*       4.2241802707E+02               0
GRID*                842               01.0159790254E+028.2231432271E+01+
*       4.2049671153E+02               0
GRID*                843               01.0137661854E+028.2294142162E+01+
*       4.1825736492E+02               0
GRID*                844               01.0334781570E+028.1116566237E+01+
*       4.2106091315E+02               0
GRID*                845               01.0276624623E+028.1638798106E+01+
*       4.1939854422E+02               0
GRID*                846               01.0371834591E+028.0645139581E+01+
*       4.1931675957E+02               0
GRID*                847               01.0428743951E+027.9346240291E+01+
*       4.2020018947E+02               0
GRID*                848               01.0427991849E+027.9377160867E+01+
*       4.1806576368E+02               0
GRID*                849               01.0325185267E+028.1217810368E+01+
*       4.1789041666E+02               0
GRID*                850               01.0429801758E+027.7530989254E+01+
*       4.1753442291E+02               0
GRID*                851               01.0431470293E+027.7608067703E+01+
*       4.1922342629E+02               0
GRID*                852               01.0365562019E+027.6096018157E+01+
*       4.1806903353E+02               0
GRID*                853               09.8790861561E+018.2079233631E+01+
*       4.2234634538E+02               0
GRID*                854               01.0041555647E+028.2415873530E+01+
*       4.2177047051E+02               0
GRID*                855               01.0035737311E+028.2415717785E+01+
*       4.2345934343E+02               0
GRID*                856               09.7398907896E+018.1063675359E+01+
*       4.2105761013E+02               0
GRID*                857               09.9385468129E+018.2285872682E+01+
*       4.2002698719E+02               0
GRID*                858               09.7483717160E+018.1156719468E+01+
*       4.1842952033E+02               0
GRID*                859               09.9342227893E+018.2274310291E+01+
*       4.1777735308E+02               0
GRID*                860               09.6502833304E+017.9329343768E+01+
*       4.1997950398E+02               0
GRID*                861               09.6452601235E+017.9079481795E+01+
*       4.1788024053E+02               0
GRID*                862               09.6502042667E+017.7505855530E+01+
*       4.1910777823E+02               0
GRID*                863               09.6514932448E+017.7452340309E+01+
*       4.1746656159E+02               0
GRID*                864               09.7167405862E+017.6056160529E+01+
*       4.1802591596E+02               0
GRID*                865               01.0352130623E+027.5918087161E+01+
*       4.4295933799E+02               0
GRID*                866               01.0429574221E+027.7521166673E+01+
*       4.4399114976E+02               0
GRID*                867               01.0429786642E+027.9301466050E+01+
*       4.4502240034E+02               0
GRID*                868               01.0352708350E+028.0906676539E+01+
*       4.4605306861E+02               0
GRID*                869               01.0213382423E+028.2019238144E+01+
*       4.4708351893E+02               0
GRID*                870               01.0039597554E+028.2415916274E+01+
*       4.4811380418E+02               0
GRID*                871               09.8658261369E+018.2018182703E+01+
*       4.4914409104E+02               0
GRID*                872               09.7265581185E+018.0904480212E+01+
*       4.5017440091E+02               0
GRID*                873               09.6495644705E+017.9298264982E+01+
*       4.5120460015E+02               0
GRID*                874               09.6499178267E+017.7518771038E+01+
*       4.5223479931E+02               0
GRID*                875               09.7274119174E+017.5916638916E+01+
*       4.5326522898E+02               0
GRID*                876               09.8664724010E+017.4810584352E+01+
*       4.5429611760E+02               0
GRID*                877               09.6495813880E+017.9298997534E+01+
*       4.4914384249E+02               0
GRID*                878               09.6495918406E+017.9299444439E+01+
*       4.4708249572E+02               0
GRID*                879               09.6495982880E+017.9299714886E+01+
*       4.4502061721E+02               0
GRID*                880               09.6496020061E+017.9299865455E+01+
*       4.4295842142E+02               0
GRID*                881               09.6496033116E+017.9299910232E+01+
*       4.4089602241E+02               0
GRID*                882               09.6496034132E+017.9299902668E+01+
*       4.3883342796E+02               0
GRID*                883               09.6496037869E+017.9299907986E+01+
*       4.3677069504E+02               0
GRID*                884               09.6496049346E+017.9299948386E+01+
*       4.3470775308E+02               0
GRID*                885               01.0039633924E+028.2415916364E+01+
*       4.4605269495E+02               0
GRID*                886               01.0039661568E+028.2415916409E+01+
*       4.4399095772E+02               0
GRID*                887               01.0039679566E+028.2415916429E+01+
*       4.4192866603E+02               0
GRID*                888               01.0039686693E+028.2415916434E+01+
*       4.3986599428E+02               0
GRID*                889               01.0039671983E+028.2415916421E+01+
*       4.3780303357E+02               0
GRID*                890               01.0352714924E+028.0906443043E+01+
*       4.4399155587E+02               0
GRID*                891               01.0352725866E+028.0906265103E+01+
*       4.4192948754E+02               0
GRID*                892               01.0352720121E+028.0906356559E+01+
*       4.3986681808E+02               0
GRID*                893               01.0429788916E+027.9301377181E+01+
*       4.4296044641E+02               0
GRID*                894               01.0429790265E+027.9301313587E+01+
*       4.4089813996E+02               0
GRID*                895               01.0429579061E+027.7521357190E+01+
*       4.4192885211E+02               0
GRID*                896               01.0213403006E+028.2019138920E+01+
*       4.4502201169E+02               0
GRID*                897               01.0213425816E+028.2019028951E+01+
*       4.4296008298E+02               0
GRID*                898               01.0213439121E+028.2018964791E+01+
*       4.4089767047E+02               0
GRID*                899               01.0213437108E+028.2018974486E+01+
*       4.3883489663E+02               0
GRID*                900               09.7266100077E+018.0905143984E+01+
*       4.4811339432E+02               0
GRID*                901               09.8658724352E+018.2018406163E+01+
*       4.4708295851E+02               0
GRID*                902               09.7266405243E+018.0905538627E+01+
*       4.4605187252E+02               0
GRID*                903               09.8659008123E+018.2018543092E+01+
*       4.4502133777E+02               0
GRID*                904               09.7266589112E+018.0905778746E+01+
*       4.4398991181E+02               0
GRID*                905               09.8659176976E+018.2018624557E+01+
*       4.4295925227E+02               0
GRID*                906               09.7266695833E+018.0905920129E+01+
*       4.4192761322E+02               0
GRID*                907               09.8659254502E+018.2018661961E+01+
*       4.4089679312E+02               0
GRID*                908               09.8659166271E+018.2018619403E+01+
*       4.3883406388E+02               0
GRID*                909               09.8658996976E+018.2018537733E+01+
*       4.3677109813E+02               0
GRID*                910               09.7266676749E+018.0905906465E+01+
*       4.3780229953E+02               0
GRID*                911               09.7266643127E+018.0905867776E+01+
*       4.3573934298E+02               0
GRID*                912               09.7266774118E+018.0906024316E+01+
*       4.3986503938E+02               0
GRID*                913               09.8664517096E+017.4810682912E+01+
*       4.5017339287E+02               0
GRID*                914               09.7273763138E+017.5917084370E+01+
*       4.5120427054E+02               0
GRID*                915               09.8664318311E+017.4810778830E+01+
*       4.5223476062E+02               0
GRID*                916               09.7273601320E+017.5917290288E+01+
*       4.3264525577E+02               0
GRID*                917               09.8664189294E+017.4810837761E+01+
*       4.3367738257E+02               0
GRID*                918               09.8664342901E+017.4810763718E+01+
*       4.3161476857E+02               0
GRID*                919               09.6498749535E+017.7520242746E+01+
*       4.3573923128E+02               0
GRID*                920               09.7273342228E+017.5917613912E+01+
*       4.3470806612E+02               0
GRID*                921               09.6498702029E+017.7520415092E+01+
*       4.3367623333E+02               0
GRID*                922               09.7273606489E+017.5917280636E+01+
*       4.4914298681E+02               0
GRID*                923               09.6498874214E+017.7519976435E+01+
*       4.4811265478E+02               0
GRID*                924               09.6498912978E+017.7519864680E+01+
*       4.5017381600E+02               0
GRID*                925               09.8664283590E+017.4810794324E+01+
*       4.4604982583E+02               0
GRID*                926               09.7273380819E+017.5917563245E+01+
*       4.4708125860E+02               0
GRID*                927               09.8664041556E+017.4810911011E+01+
*       4.4811159638E+02               0
GRID*                928               09.7273344881E+017.5917608607E+01+
*       4.4501939516E+02               0
GRID*                929               09.6498745930E+017.7520429966E+01+
*       4.4398892766E+02               0
GRID*                930               09.6498717580E+017.7520604320E+01+
*       4.4605086022E+02               0
GRID*                931               09.7273298781E+017.5917667878E+01+
*       4.3677057388E+02               0
GRID*                932               09.8664027860E+017.4810915878E+01+
*       4.3780176938E+02               0
GRID*                933               09.8663868114E+017.4810992373E+01+
*       4.3573960583E+02               0
GRID*                934               09.6498731809E+017.7520399106E+01+
*       4.3986435559E+02               0
GRID*                935               09.7273162068E+017.5917838476E+01+
*       4.3883291083E+02               0
GRID*                936               09.6498629709E+017.7520802466E+01+
*       4.3780184929E+02               0
GRID*                937               09.7273194572E+017.5917797012E+01+
*       4.4295732050E+02               0
GRID*                938               09.7273069565E+017.5917953779E+01+
*       4.4089516644E+02               0
GRID*                939               09.6498630630E+017.7520884330E+01+
*       4.4192667740E+02               0
GRID*                940               09.8663825068E+017.4811013972E+01+
*       4.4192587188E+02               0
GRID*                941               09.8663705962E+017.4811070899E+01+
*       4.3986383079E+02               0
GRID*                942               09.8663818900E+017.4811017280E+01+
*       4.4398785437E+02               0
GRID*                943               09.7273562401E+017.5917332859E+01+
*       4.8006766863E+02               0
GRID*                944               09.6499234268E+017.7519531718E+01+
*       4.7903572381E+02               0
GRID*                945               09.6495529758E+017.9298009201E+01+
*       4.7800397986E+02               0
GRID*                946               09.7265051126E+018.0903681559E+01+
*       4.7697234869E+02               0
GRID*                947               09.8657507650E+018.2017818685E+01+
*       4.7594082718E+02               0
GRID*                948               01.0039469629E+028.2415915695E+01+
*       4.7490933638E+02               0
GRID*                949               01.0213266238E+028.2019797757E+01+
*       4.7387797938E+02               0
GRID*                950               01.0352683073E+028.0906711192E+01+
*       4.7284689338E+02               0
GRID*                951               01.0429796634E+027.9301336005E+01+
*       4.7181636761E+02               0
GRID*                952               01.0429568882E+027.7521301273E+01+
*       4.7078621033E+02               0
GRID*                953               01.0352163831E+027.5918507146E+01+
*       4.6975653421E+02               0
GRID*                954               01.0213075476E+027.4811154353E+01+
*       4.6872741511E+02               0
GRID*                955               01.0429801744E+027.9301157547E+01+
*       4.7387952321E+02               0
GRID*                956               01.0429800168E+027.9300886824E+01+
*       4.7594251882E+02               0
GRID*                957               01.0429794862E+027.9300561606E+01+
*       4.7800532854E+02               0
GRID*                958               01.0429795632E+027.9300180103E+01+
*       4.8006798734E+02               0
GRID*                959               01.0429817696E+027.9299723677E+01+
*       4.8213052582E+02               0
GRID*                960               01.0429855732E+027.9299319264E+01+
*       4.8419305501E+02               0
GRID*                961               01.0429899810E+027.9299010473E+01+
*       4.8625562125E+02               0
GRID*                962               01.0429939703E+027.9298940828E+01+
*       4.8831828053E+02               0
GRID*                963               01.0039536292E+028.2415916048E+01+
*       4.7697222050E+02               0
GRID*                964               01.0039588821E+028.2415916248E+01+
*       4.7903496026E+02               0
GRID*                965               01.0039633636E+028.2415916363E+01+
*       4.8109770983E+02               0
GRID*                966               01.0039671873E+028.2415916421E+01+
*       4.8316050009E+02               0
GRID*                967               01.0039701081E+028.2415916441E+01+
*       4.8522332123E+02               0
GRID*                968               09.7265351526E+018.0904048744E+01+
*       4.7903471754E+02               0
GRID*                969               09.7265484865E+018.0904205289E+01+
*       4.8109724433E+02               0
GRID*                970               09.7265637577E+018.0904385981E+01+
*       4.8315998447E+02               0
GRID*                971               09.6495617932E+017.9298421782E+01+
*       4.8006639182E+02               0
GRID*                972               09.6495652244E+017.9298596134E+01+
*       4.8212891435E+02               0
GRID*                973               09.6499156995E+017.7520037811E+01+
*       4.8109815338E+02               0
GRID*                974               09.8658148277E+018.2018128016E+01+
*       4.7800352049E+02               0
GRID*                975               09.8658579196E+018.2018336006E+01+
*       4.8006615552E+02               0
GRID*                976               09.8658904936E+018.2018493186E+01+
*       4.8212886669E+02               0
GRID*                977               09.8659134926E+018.2018604140E+01+
*       4.8419163077E+02               0
GRID*                978               01.0213472137E+028.2018805360E+01+
*       4.8419232041E+02               0
GRID*                979               01.0352809113E+028.0905070191E+01+
*       4.8316130389E+02               0
GRID*                980               01.0352843249E+028.0904616323E+01+
*       4.8728669910E+02               0
GRID*                981               01.0213483881E+028.2018748702E+01+
*       4.8625507877E+02               0
GRID*                982               01.0352819110E+028.0904932414E+01+
*       4.8522395479E+02               0
GRID*                983               01.0213433037E+028.2018993925E+01+
*       4.8212956291E+02               0
GRID*                984               01.0352777852E+028.0905475237E+01+
*       4.8109863521E+02               0
GRID*                985               01.0213393574E+028.2019184185E+01+
*       4.8006682012E+02               0
GRID*                986               01.0352747964E+028.0905862628E+01+
*       4.7903593401E+02               0
GRID*                987               01.0213313921E+028.2019568062E+01+
*       4.7594114124E+02               0
GRID*                988               01.0213350969E+028.2019389539E+01+
*       4.7800405157E+02               0
GRID*                989               01.0352718140E+028.0906248829E+01+
*       4.7697313716E+02               0
GRID*                990               01.0352690271E+028.0906610077E+01+
*       4.7491017385E+02               0
GRID*                991               01.0213036595E+027.4810971100E+01+
*       4.7285185795E+02               0
GRID*                992               01.0352170506E+027.5918591001E+01+
*       4.7181917814E+02               0
GRID*                993               01.0213083904E+027.4811196592E+01+
*       4.7078965219E+02               0
GRID*                994               01.0352114357E+027.5917890848E+01+
*       4.9038043385E+02               0
GRID*                995               01.0212998661E+027.4810801656E+01+
*       4.8934871103E+02               0
GRID*                996               01.0213014511E+027.4810878743E+01+
*       4.9141087015E+02               0
GRID*                997               01.0352161938E+027.5918484125E+01+
*       4.7388176499E+02               0
GRID*                998               01.0429566578E+027.7521270793E+01+
*       4.7491199772E+02               0
GRID*                999               01.0429578487E+027.7521754643E+01+
*       4.7284918588E+02               0
GRID*               1000               01.0429529333E+027.7519872556E+01+
*       4.8728697260E+02               0
GRID*               1001               01.0352127146E+027.5918050645E+01+
*       4.8831800207E+02               0
GRID*               1002               01.0429537900E+027.7520284226E+01+
*       4.8934950893E+02               0
GRID*               1003               01.0213028201E+027.4810935097E+01+
*       4.7697629115E+02               0
GRID*               1004               01.0352166938E+027.5918546992E+01+
*       4.7594429080E+02               0
GRID*               1005               01.0213069119E+027.4811129781E+01+
*       4.7491408385E+02               0
GRID*               1006               01.0352156107E+027.5918411778E+01+
*       4.7800669322E+02               0
GRID*               1007               01.0429556518E+027.7520904889E+01+
*       4.7903725461E+02               0
GRID*               1008               01.0429570338E+027.7521470611E+01+
*       4.7697467694E+02               0
GRID*               1009               01.0352130706E+027.5918094999E+01+
*       4.8625566107E+02               0
GRID*               1010               01.0213019984E+027.4810901948E+01+
*       4.8522449687E+02               0
GRID*               1011               01.0213033876E+027.4810969900E+01+
*       4.8728657026E+02               0
GRID*               1012               01.0429541312E+027.7520317373E+01+
*       4.8316209480E+02               0
GRID*               1013               01.0352148290E+027.5918314738E+01+
*       4.8419341384E+02               0
GRID*               1014               01.0429546027E+027.7520560696E+01+
*       4.8522446886E+02               0
GRID*               1015               01.0352160371E+027.5918465396E+01+
*       4.8006896490E+02               0
GRID*               1016               01.0352164402E+027.5918516073E+01+
*       4.8213117982E+02               0
GRID*               1017               01.0429559364E+027.7521065973E+01+
*       4.8109966398E+02               0
GRID*               1018               01.0213054653E+027.4811065826E+01+
*       4.8110040523E+02               0
GRID*               1019               01.0213059117E+027.4811088777E+01+
*       4.8316244077E+02               0
GRID*               1020               01.0213065125E+027.4811114519E+01+
*       4.7903834220E+02               0
GRID*               1021               09.8665296628E+017.4810310241E+01+
*       4.5841858680E+02               0
GRID*               1022               09.7274970471E+017.5915574191E+01+
*       4.5944734667E+02               0
GRID*               1023               09.6499700952E+017.7516636386E+01+
*       4.6047601840E+02               0
GRID*               1024               09.6494899985E+017.9295050616E+01+
*       4.6150492296E+02               0
GRID*               1025               09.7263072720E+018.0901260594E+01+
*       4.6253408931E+02               0
GRID*               1026               09.8654638828E+018.2016431744E+01+
*       4.6356390597E+02               0
GRID*               1027               01.0039219104E+028.2415913368E+01+
*       4.6459453298E+02               0
GRID*               1028               01.0213104391E+028.2020576825E+01+
*       4.6562580101E+02               0
GRID*               1029               01.0352591035E+028.0907897976E+01+
*       4.6665777083E+02               0
GRID*               1030               01.0429760548E+027.9302363866E+01+
*       4.6769051880E+02               0
GRID*               1031               01.0429585704E+027.7522000909E+01+
*       4.6872354444E+02               0
GRID*               1032               09.6495443776E+017.9297606454E+01+
*       4.7594197619E+02               0
GRID*               1033               09.6495263158E+017.9296784271E+01+
*       4.7387980653E+02               0
GRID*               1034               09.6495096521E+017.9296023721E+01+
*       4.7181735467E+02               0
GRID*               1035               09.6494950519E+017.9295354545E+01+
*       4.6975465897E+02               0
GRID*               1036               09.6494855023E+017.9294909744E+01+
*       4.6769182265E+02               0
GRID*               1037               09.6494815729E+017.9294715003E+01+
*       4.6562907937E+02               0
GRID*               1038               09.6494880077E+017.9294981346E+01+
*       4.6356684279E+02               0
GRID*               1039               09.8656846739E+018.2017499413E+01+
*       4.7387817274E+02               0
GRID*               1040               09.8656148872E+018.2017162125E+01+
*       4.7181525396E+02               0
GRID*               1041               09.8655542119E+018.2016868740E+01+
*       4.6975219939E+02               0
GRID*               1042               09.8655100295E+018.2016655025E+01+
*       4.6768920660E+02               0
GRID*               1043               09.8654904318E+018.2016560211E+01+
*       4.6562656713E+02               0
GRID*               1044               01.0213213972E+028.2020049440E+01+
*       4.7181479063E+02               0
GRID*               1045               01.0213169089E+028.2020265496E+01+
*       4.6975160023E+02               0
GRID*               1046               01.0213129356E+028.2020456705E+01+
*       4.6768874099E+02               0
GRID*               1047               01.0352640104E+028.0907261539E+01+
*       4.7078387030E+02               0
GRID*               1048               01.0352605254E+028.0907709460E+01+
*       4.6872096075E+02               0
GRID*               1049               01.0429767670E+027.9302294992E+01+
*       4.6975363252E+02               0
GRID*               1050               01.0039410168E+028.2415915285E+01+
*       4.7284644645E+02               0
GRID*               1051               01.0039349183E+028.2415914773E+01+
*       4.7078338336E+02               0
GRID*               1052               01.0039297907E+028.2415914270E+01+
*       4.6872037437E+02               0
GRID*               1053               01.0039264059E+028.2415913901E+01+
*       4.6665759422E+02               0
GRID*               1054               09.7264307722E+018.0902766631E+01+
*       4.7284754258E+02               0
GRID*               1055               09.7264841718E+018.0903428698E+01+
*       4.7491011458E+02               0
GRID*               1056               09.7263919046E+018.0902287290E+01+
*       4.7078478143E+02               0
GRID*               1057               09.7263604021E+018.0901900490E+01+
*       4.6872191960E+02               0
GRID*               1058               09.7263295973E+018.0901532228E+01+
*       4.6459658783E+02               0
GRID*               1059               09.7263494557E+018.0901772619E+01+
*       4.6665923024E+02               0
GRID*               1060               09.7275018800E+017.5915513511E+01+
*       4.6150882981E+02               0
GRID*               1061               09.8665404369E+017.4810259440E+01+
*       4.6254191163E+02               0
GRID*               1062               09.8665066405E+017.4810421252E+01+
*       4.6048020330E+02               0
GRID*               1063               09.6499737661E+017.7516458349E+01+
*       4.6459979140E+02               0
GRID*               1064               09.7274975042E+017.5915567880E+01+
*       4.6357075559E+02               0
GRID*               1065               09.6499576085E+017.7517163128E+01+
*       4.6253787551E+02               0
GRID*               1066               09.7274991920E+017.5915546558E+01+
*       4.6563297825E+02               0
GRID*               1067               09.8665328406E+017.4810296871E+01+
*       4.6666600615E+02               0
GRID*               1068               09.8665077223E+017.4810417002E+01+
*       4.6460393282E+02               0
GRID*               1069               09.6499658114E+017.7516909108E+01+
*       4.6872485593E+02               0
GRID*               1070               09.7274802793E+017.5915782592E+01+
*       4.6769529636E+02               0
GRID*               1071               09.6499566986E+017.7517228950E+01+
*       4.6666228869E+02               0
GRID*               1072               09.7274617168E+017.5916014338E+01+
*       4.6975765890E+02               0
GRID*               1073               09.8664965804E+017.4810471971E+01+
*       4.7079018194E+02               0
GRID*               1074               09.8664881682E+017.4810511882E+01+
*       4.6872807320E+02               0
GRID*               1075               09.6499434283E+017.7518122170E+01+
*       4.7284969752E+02               0
GRID*               1076               09.7274256056E+017.5916465465E+01+
*       4.7181981691E+02               0
GRID*               1077               09.6499418721E+017.7518041861E+01+
*       4.7078730056E+02               0
GRID*               1078               09.7273957064E+017.5916839132E+01+
*       4.7388186137E+02               0
GRID*               1079               09.8664513707E+017.4810690117E+01+
*       4.7491403298E+02               0
GRID*               1080               09.8664468193E+017.4810711490E+01+
*       4.7285210548E+02               0
GRID*               1081               09.8664392885E+017.4810748656E+01+
*       4.7697589282E+02               0
GRID*               1082               09.8664203659E+017.4810840067E+01+
*       4.7903781421E+02               0
GRID*               1083               09.7273434919E+017.5917492089E+01+
*       4.7800574370E+02               0
GRID*               1084               09.7273555350E+017.5917341391E+01+
*       4.7594380490E+02               0
GRID*               1085               09.6499211461E+017.7519239602E+01+
*       4.7491177390E+02               0
GRID*               1086               09.6499114707E+017.7519841538E+01+
*       4.7697382249E+02               0
GRID*               1087               01.0352674896E+028.0906934141E+01+
*       4.4811362591E+02               0
GRID*               1088               01.0352657065E+028.0907147079E+01+
*       4.5017364757E+02               0
GRID*               1089               01.0352631419E+028.0907458722E+01+
*       4.5223315810E+02               0
GRID*               1090               01.0352603662E+028.0907797243E+01+
*       4.5429244140E+02               0
GRID*               1091               01.0352583514E+028.0908040476E+01+
*       4.5635184514E+02               0
GRID*               1092               01.0352562789E+028.0908291062E+01+
*       4.5841176916E+02               0
GRID*               1093               01.0352550777E+028.0908432328E+01+
*       4.6047239031E+02               0
GRID*               1094               01.0352554913E+028.0908370874E+01+
*       4.6253366113E+02               0
GRID*               1095               01.0352564481E+028.0908241148E+01+
*       4.6459565822E+02               0
GRID*               1096               09.8657756638E+018.2017939011E+01+
*       4.5120400405E+02               0
GRID*               1097               09.8657081713E+018.2017613011E+01+
*       4.5326342989E+02               0
GRID*               1098               09.8656360983E+018.2017264714E+01+
*       4.5532257202E+02               0
GRID*               1099               09.8655716852E+018.2016953284E+01+
*       4.5738191346E+02               0
GRID*               1100               09.8655221731E+018.2016713800E+01+
*       4.5944184653E+02               0
GRID*               1101               09.8654988830E+018.2016601116E+01+
*       4.6150267830E+02               0
GRID*               1102               09.6495536441E+017.9297802160E+01+
*       4.5326450499E+02               0
GRID*               1103               09.6495343775E+017.9296965629E+01+
*       4.5532417697E+02               0
GRID*               1104               09.6495190663E+017.9296304282E+01+
*       4.5738394415E+02               0
GRID*               1105               09.6495112102E+017.9295973867E+01+
*       4.5944426646E+02               0
GRID*               1106               09.6499398864E+017.7517940987E+01+
*       4.5635511225E+02               0
GRID*               1107               09.7274157850E+017.5916590188E+01+
*       4.5532585174E+02               0
GRID*               1108               09.6499161271E+017.7518907486E+01+
*       4.5429491871E+02               0
GRID*               1109               09.8664736303E+017.4810578885E+01+
*       4.5635734344E+02               0
GRID*               1110               09.7274281996E+017.5916434668E+01+
*       4.5738656899E+02               0
GRID*               1111               09.6499411246E+017.7517918751E+01+
*       4.5841554171E+02               0
GRID*               1112               09.7264833470E+018.0903518450E+01+
*       4.5429367256E+02               0
GRID*               1113               09.7265362930E+018.0904195035E+01+
*       4.5223408393E+02               0
GRID*               1114               09.7264397863E+018.0902959989E+01+
*       4.5635314719E+02               0
GRID*               1115               09.7264022393E+018.0902477205E+01+
*       4.5841302732E+02               0
GRID*               1116               09.7263717991E+018.0902083865E+01+
*       4.6047352380E+02               0
GRID*               1117               01.0213236442E+028.2019941379E+01+
*       4.5326278210E+02               0
GRID*               1118               01.0039481028E+028.2415915764E+01+
*       4.5223337538E+02               0
GRID*               1119               01.0213334135E+028.2019470843E+01+
*       4.4914367877E+02               0
GRID*               1120               01.0039541132E+028.2415916070E+01+
*       4.5017372318E+02               0
GRID*               1121               01.0213283561E+028.2019714474E+01+
*       4.5120338306E+02               0
GRID*               1122               01.0213179640E+028.2020214815E+01+
*       4.5532198256E+02               0
GRID*               1123               01.0039408092E+028.2415915271E+01+
*       4.5429261380E+02               0
GRID*               1124               01.0213130930E+028.2020449200E+01+
*       4.5738149331E+02               0
GRID*               1125               01.0039340742E+028.2415914696E+01+
*       4.5635195452E+02               0
GRID*               1126               01.0213095891E+028.2020617748E+01+
*       4.5944162922E+02               0
GRID*               1127               01.0039286273E+028.2415914148E+01+
*       4.5841170746E+02               0
GRID*               1128               01.0039252655E+028.2415913772E+01+
*       4.6047202574E+02               0
GRID*               1129               01.0039236777E+028.2415913584E+01+
*       4.6253310940E+02               0
GRID*               1130               01.0213088082E+028.2020655300E+01+
*       4.6150277291E+02               0
GRID*               1131               01.0213087679E+028.2020657224E+01+
*       4.6356432270E+02               0
GRID*               1132               01.0213061287E+027.4811082260E+01+
*       4.4811213887E+02               0
GRID*               1133               01.0352157466E+027.5918423614E+01+
*       4.4708237295E+02               0
GRID*               1134               01.0429586261E+027.7521713245E+01+
*       4.4605234749E+02               0
GRID*               1135               01.0213076903E+027.4811157817E+01+
*       4.4605050309E+02               0
GRID*               1136               01.0213071847E+027.4811134090E+01+
*       4.4398879135E+02               0
GRID*               1137               01.0352178191E+027.5918682595E+01+
*       4.4502069631E+02               0
GRID*               1138               01.0352178368E+027.5918685484E+01+
*       4.4914327787E+02               0
GRID*               1139               01.0429591981E+027.7522009897E+01+
*       4.5017375972E+02               0
GRID*               1140               01.0429763107E+027.9302456917E+01+
*       4.5120362381E+02               0
GRID*               1141               01.0429595105E+027.7522122011E+01+
*       4.4811317743E+02               0
GRID*               1142               01.0429764349E+027.9302419445E+01+
*       4.4914354675E+02               0
GRID*               1143               01.0429768789E+027.9302239009E+01+
*       4.4708300676E+02               0
GRID*               1144               01.0213077200E+027.4811157978E+01+
*       4.5429577663E+02               0
GRID*               1145               01.0352187940E+027.5918805954E+01+
*       4.5326456879E+02               0
GRID*               1146               01.0429601157E+027.7522435637E+01+
*       4.5223385948E+02               0
GRID*               1147               01.0213103231E+027.4811283262E+01+
*       4.5223455065E+02               0
GRID*               1148               01.0213106012E+027.4811296896E+01+
*       4.5017329113E+02               0
GRID*               1149               01.0352218175E+027.5919184017E+01+
*       4.5120385637E+02               0
GRID*               1150               01.0352201649E+027.5918977886E+01+
*       4.5532515773E+02               0
GRID*               1151               01.0429600774E+027.7522472914E+01+
*       4.5635411959E+02               0
GRID*               1152               01.0429745552E+027.9303162142E+01+
*       4.5738305515E+02               0
GRID*               1153               01.0429607220E+027.7522726733E+01+
*       4.5429397530E+02               0
GRID*               1154               01.0429744834E+027.9303218237E+01+
*       4.5532315505E+02               0
GRID*               1155               01.0429747931E+027.9303104322E+01+
*       4.5326338994E+02               0
GRID*               1156               01.0213073913E+027.4811142824E+01+
*       4.6047981454E+02               0
GRID*               1157               01.0352196890E+027.5918919044E+01+
*       4.5944694864E+02               0
GRID*               1158               01.0429607737E+027.7522805481E+01+
*       4.5841476462E+02               0
GRID*               1159               01.0213107802E+027.4811305368E+01+
*       4.5841838432E+02               0
GRID*               1160               01.0213117961E+027.4811354009E+01+
*       4.5635702689E+02               0
GRID*               1161               01.0352237557E+027.5919427706E+01+
*       4.5738606965E+02               0
GRID*               1162               01.0352205305E+027.5919024723E+01+
*       4.6150827958E+02               0
GRID*               1163               01.0429601847E+027.7522608461E+01+
*       4.6253692221E+02               0
GRID*               1164               01.0429740841E+027.9303284034E+01+
*       4.6356617788E+02               0
GRID*               1165               01.0429611192E+027.7522985930E+01+
*       4.6047570777E+02               0
GRID*               1166               01.0429734422E+027.9303595344E+01+
*       4.6150473401E+02               0
GRID*               1167               01.0429732853E+027.9303692828E+01+
*       4.5944379591E+02               0
GRID*               1168               01.0213090987E+027.4811226414E+01+
*       4.6460333913E+02               0
GRID*               1169               01.0352224253E+027.5919262250E+01+
*       4.6357008937E+02               0
GRID*               1170               01.0213122444E+027.4811376838E+01+
*       4.6254160418E+02               0
GRID*               1171               01.0352205760E+027.5919031477E+01+
*       4.6769420465E+02               0
GRID*               1172               01.0352227143E+027.5919298773E+01+
*       4.6563205184E+02               0
GRID*               1173               01.0213120157E+027.4811367845E+01+
*       4.6666543119E+02               0
GRID*               1174               01.0429602034E+027.7522680375E+01+
*       4.6666114830E+02               0
GRID*               1175               01.0429741599E+027.9303221889E+01+
*       4.6562839708E+02               0
GRID*               1176               01.0429613698E+027.7523157405E+01+
*       4.6459917471E+02               0
GRID*               1177               01.0212956704E+027.4810603569E+01+
*       5.2852293150E+02               0
GRID*               1178               01.0352078731E+027.5917438428E+01+
*       5.2749145752E+02               0
GRID*               1179               01.0429494745E+027.7519122784E+01+
*       5.2645983874E+02               0
GRID*               1180               01.0429067812E+027.9295569886E+01+
*       5.2542770065E+02               0
GRID*               1181               01.0352927489E+028.0903306857E+01+
*       5.2439582778E+02               0
GRID*               1182               01.0213469836E+028.2018816352E+01+
*       5.2336408467E+02               0
GRID*               1183               01.0039654728E+028.2415916399E+01+
*       5.2233225006E+02               0
GRID*               1184               09.8658486787E+018.2018291325E+01+
*       5.2130055401E+02               0
GRID*               1185               09.7264307209E+018.0902468294E+01+
*       5.2026898687E+02               0
GRID*               1186               09.6495078835E+017.9296514458E+01+
*       5.1923827608E+02               0
GRID*               1187               09.6499965468E+017.7518483239E+01+
*       5.1820802302E+02               0
GRID*               1188               09.7273395466E+017.5917556697E+01+
*       5.1717873937E+02               0
GRID*               1189               09.8664323954E+017.4810788468E+01+
*       5.1615029245E+02               0
GRID*               1190               01.0352126337E+027.5918040842E+01+
*       4.9450528133E+02               0
GRID*               1191               01.0429529975E+027.7520057753E+01+
*       4.9553713622E+02               0
GRID*               1192               01.0430006518E+027.9298923294E+01+
*       4.9656842581E+02               0
GRID*               1193               01.0352868800E+028.0904229985E+01+
*       4.9759921810E+02               0
GRID*               1194               01.0213519760E+028.2018575556E+01+
*       4.9862982637E+02               0
GRID*               1195               01.0039771838E+028.2415916399E+01+
*       4.9966023364E+02               0
GRID*               1196               09.8659955811E+018.2018999987E+01+
*       5.0069056412E+02               0
GRID*               1197               09.7265876934E+018.0904573167E+01+
*       5.0172087184E+02               0
GRID*               1198               09.6495608601E+017.9298642531E+01+
*       5.0275134795E+02               0
GRID*               1199               09.6499404666E+017.7520132819E+01+
*       5.0378172249E+02               0
GRID*               1200               09.7272907570E+017.5918161799E+01+
*       5.0481222203E+02               0
GRID*               1201               09.8663927589E+017.4810978050E+01+
*       5.0584305809E+02               0
GRID*               1202               09.6495640520E+017.9298758563E+01+
*       5.0069016396E+02               0
GRID*               1203               09.6495654884E+017.9298797227E+01+
*       4.9862855442E+02               0
GRID*               1204               09.6495662108E+017.9298804589E+01+
*       4.9656659387E+02               0
GRID*               1205               09.6495661198E+017.9298776239E+01+
*       4.9450439049E+02               0
GRID*               1206               09.6495650827E+017.9298706288E+01+
*       4.9244200429E+02               0
GRID*               1207               09.6495630242E+017.9298591384E+01+
*       4.9037947139E+02               0
GRID*               1208               09.6495606684E+017.9298463567E+01+
*       4.8831684706E+02               0
GRID*               1209               09.6495611238E+017.9298460434E+01+
*       4.8625414950E+02               0
GRID*               1210               01.0039764296E+028.2415916410E+01+
*       4.9759883805E+02               0
GRID*               1211               01.0039763088E+028.2415916411E+01+
*       4.9553692262E+02               0
GRID*               1212               01.0039761046E+028.2415916414E+01+
*       4.9347452419E+02               0
GRID*               1213               01.0039753912E+028.2415916422E+01+
*       4.9141183226E+02               0
GRID*               1214               01.0039737410E+028.2415916435E+01+
*       4.8934899881E+02               0
GRID*               1215               01.0352868017E+028.0904253185E+01+
*       4.9553739395E+02               0
GRID*               1216               01.0352871010E+028.0904228620E+01+
*       4.9347506684E+02               0
GRID*               1217               01.0352861951E+028.0904355653E+01+
*       4.9141231805E+02               0
GRID*               1218               01.0430005664E+027.9299029367E+01+
*       4.9450611466E+02               0
GRID*               1219               01.0429992872E+027.9299093922E+01+
*       4.9244359711E+02               0
GRID*               1220               01.0429538263E+027.7520378742E+01+
*       4.9347454885E+02               0
GRID*               1221               01.0213510594E+028.2018619786E+01+
*       4.9656806577E+02               0
GRID*               1222               01.0213511097E+028.2018617370E+01+
*       4.9450593066E+02               0
GRID*               1223               01.0213509598E+028.2018624610E+01+
*       4.9244341041E+02               0
GRID*               1224               01.0213504186E+028.2018650732E+01+
*       4.9038067775E+02               0
GRID*               1225               09.7266051392E+018.0904832694E+01+
*       4.9553590331E+02               0
GRID*               1226               09.8659859778E+018.2018953701E+01+
*       4.9450524591E+02               0
GRID*               1227               09.8659919990E+018.2018982722E+01+
*       4.9862919703E+02               0
GRID*               1228               09.8659936413E+018.2018990645E+01+
*       4.9656735131E+02               0
GRID*               1229               09.7266051979E+018.0904807063E+01+
*       4.9965947154E+02               0
GRID*               1230               09.7266133321E+018.0904922759E+01+
*       4.9759776441E+02               0
GRID*               1231               09.7266078154E+018.0904879299E+01+
*       4.9347350938E+02               0
GRID*               1232               09.8659801671E+018.2018925689E+01+
*       4.9244270640E+02               0
GRID*               1233               09.8659613301E+018.2018834858E+01+
*       4.9038002216E+02               0
GRID*               1234               09.8659443945E+018.2018753187E+01+
*       4.8831723067E+02               0
GRID*               1235               09.7265925426E+018.0904712224E+01+
*       4.8934830602E+02               0
GRID*               1236               09.7265892055E+018.0904682493E+01+
*       4.8728556292E+02               0
GRID*               1237               09.7266079668E+018.0904893911E+01+
*       4.9141095336E+02               0
GRID*               1238               09.8664208035E+017.4810842668E+01+
*       5.0172000955E+02               0
GRID*               1239               09.7272870033E+017.5918207528E+01+
*       5.0275096000E+02               0
GRID*               1240               09.8663795372E+017.4811041314E+01+
*       5.0378153186E+02               0
GRID*               1241               09.7273532129E+017.5917371329E+01+
*       4.8419220209E+02               0
GRID*               1242               09.8664300041E+017.4810795189E+01+
*       4.8522397771E+02               0
GRID*               1243               09.8664125289E+017.4810878691E+01+
*       4.8316187655E+02               0
GRID*               1244               09.6499292183E+017.7519777838E+01+
*       4.8728554185E+02               0
GRID*               1245               09.7273348473E+017.5917601432E+01+
*       4.8625456931E+02               0
GRID*               1246               09.6499190876E+017.7520118740E+01+
*       4.8522302443E+02               0
GRID*               1247               09.7272968683E+017.5918082792E+01+
*       5.0068943409E+02               0
GRID*               1248               09.6499294979E+017.7520391961E+01+
*       4.9965892533E+02               0
GRID*               1249               09.6499249363E+017.7520698661E+01+
*       5.0172037064E+02               0
GRID*               1250               09.8664204936E+017.4810843452E+01+
*       4.9759625710E+02               0
GRID*               1251               09.7272921288E+017.5918140759E+01+
*       4.9862756647E+02               0
GRID*               1252               09.8663849278E+017.4811014745E+01+
*       4.9965811647E+02               0
GRID*               1253               09.7273016215E+017.5918020866E+01+
*       4.9656562212E+02               0
GRID*               1254               09.6499243214E+017.7520403460E+01+
*       4.9553500345E+02               0
GRID*               1255               09.6499182500E+017.7520773815E+01+
*       4.9759700826E+02               0
GRID*               1256               09.7273259477E+017.5917713277E+01+
*       4.8831691968E+02               0
GRID*               1257               09.8664095762E+017.4810894264E+01+
*       4.8934819965E+02               0
GRID*               1258               09.8663948704E+017.4810964488E+01+
*       4.8728610365E+02               0
GRID*               1259               09.6499252624E+017.7520153574E+01+
*       4.9141046773E+02               0
GRID*               1260               09.7273058469E+017.5917965333E+01+
*       4.9037918396E+02               0
GRID*               1261               09.6499157907E+017.7520463056E+01+
*       4.8934805279E+02               0
GRID*               1262               09.7272953431E+017.5918098373E+01+
*       4.9450353940E+02               0
GRID*               1263               09.7272899277E+017.5918165225E+01+
*       4.9244140236E+02               0
GRID*               1264               09.6499139881E+017.7520747900E+01+
*       4.9347277353E+02               0
GRID*               1265               09.8663825243E+017.4811025140E+01+
*       4.9347228110E+02               0
GRID*               1266               09.8663734730E+017.4811068224E+01+
*       4.9141024930E+02               0
GRID*               1267               09.8663776381E+017.4811049032E+01+
*       4.9553427505E+02               0
GRID*               1268               09.6499797012E+017.7519100024E+01+
*       5.1614575485E+02               0
GRID*               1269               09.6495332401E+017.9297579891E+01+
*       5.1511337950E+02               0
GRID*               1270               09.7265318449E+018.0903786253E+01+
*       5.1408152936E+02               0
GRID*               1271               09.8659737627E+018.2018894763E+01+
*       5.1305043041E+02               0
GRID*               1272               01.0039771525E+028.2415916400E+01+
*       5.1201954468E+02               0
GRID*               1273               01.0213548517E+028.2018436786E+01+
*       5.1098897523E+02               0
GRID*               1274               01.0352933727E+028.0903328406E+01+
*       5.0995866567E+02               0
GRID*               1275               01.0429821775E+027.9298200900E+01+
*       5.0892906797E+02               0
GRID*               1276               01.0429511101E+027.7519477913E+01+
*       5.0789991238E+02               0
GRID*               1277               01.0352125415E+027.5918028751E+01+
*       5.0687099762E+02               0
GRID*               1278               01.0213007669E+027.4810849340E+01+
*       5.0584182937E+02               0
GRID*               1279               01.0429506443E+027.7519592984E+01+
*       5.2439713581E+02               0
GRID*               1280               01.0429510713E+027.7519739884E+01+
*       5.2233429187E+02               0
GRID*               1281               01.0429510187E+027.7519677838E+01+
*       5.2027133988E+02               0
GRID*               1282               01.0429508643E+027.7519571235E+01+
*       5.1820841491E+02               0
GRID*               1283               01.0429507176E+027.7519467697E+01+
*       5.1614568909E+02               0
GRID*               1284               01.0429506176E+027.7519384301E+01+
*       5.1408334322E+02               0
GRID*               1285               01.0429506412E+027.7519354489E+01+
*       5.1202153749E+02               0
GRID*               1286               01.0429513464E+027.7519620935E+01+
*       5.0996057207E+02               0
GRID*               1287               01.0212981103E+027.4810721971E+01+
*       5.0996420529E+02               0
GRID*               1288               01.0352121184E+027.5917975183E+01+
*       5.1099287188E+02               0
GRID*               1289               01.0213014995E+027.4810884725E+01+
*       5.0790302461E+02               0
GRID*               1290               01.0352148418E+027.5918316161E+01+
*       5.0893194719E+02               0
GRID*               1291               01.0212995041E+027.4810788995E+01+
*       5.1202594127E+02               0
GRID*               1292               01.0352126774E+027.5918044664E+01+
*       5.1305454056E+02               0
GRID*               1293               01.0212999934E+027.4810812510E+01+
*       5.1408783692E+02               0
GRID*               1294               01.0352130108E+027.5918085846E+01+
*       5.1511659273E+02               0
GRID*               1295               01.0213003901E+027.4810831518E+01+
*       5.1614990057E+02               0
GRID*               1296               01.0352135449E+027.5918152053E+01+
*       5.1717894106E+02               0
GRID*               1297               01.0213010814E+027.4810864641E+01+
*       5.1821208862E+02               0
GRID*               1298               01.0352142426E+027.5918238636E+01+
*       5.1924147826E+02               0
GRID*               1299               01.0352122972E+027.5917992701E+01+
*       5.2542908167E+02               0
GRID*               1300               01.0213005358E+027.4810837616E+01+
*       5.2646084690E+02               0
GRID*               1301               01.0213019147E+027.4810904544E+01+
*       5.2027433068E+02               0
GRID*               1302               01.0352149787E+027.5918329937E+01+
*       5.2130407156E+02               0
GRID*               1303               01.0213027034E+027.4810942266E+01+
*       5.2233655806E+02               0
GRID*               1304               01.0213027512E+027.4810944342E+01+
*       5.2439870922E+02               0
GRID*               1305               01.0352158495E+027.5918437991E+01+
*       5.2336659726E+02               0
GRID*               1306               01.0213522546E+028.2018562091E+01+
*       5.1305012411E+02               0
GRID*               1307               01.0213495036E+028.2018694801E+01+
*       5.1511197488E+02               0
GRID*               1308               01.0213471291E+028.2018809329E+01+
*       5.1717453512E+02               0
GRID*               1309               01.0213459250E+028.2018867395E+01+
*       5.1923755459E+02               0
GRID*               1310               01.0213457789E+028.2018874446E+01+
*       5.2130081049E+02               0
GRID*               1311               09.8659304794E+018.2018686012E+01+
*       5.1511201868E+02               0
GRID*               1312               09.8658887170E+018.2018484537E+01+
*       5.1717433220E+02               0
GRID*               1313               09.8658687671E+018.2018388271E+01+
*       5.1923734407E+02               0
GRID*               1314               09.7264999701E+018.0903370224E+01+
*       5.1614360673E+02               0
GRID*               1315               09.7264741798E+018.0903030784E+01+
*       5.1820620426E+02               0
GRID*               1316               09.6495309610E+017.9297507753E+01+
*       5.1717596321E+02               0
GRID*               1317               01.0039731607E+028.2415916439E+01+
*       5.1408115166E+02               0
GRID*               1318               01.0039695176E+028.2415916439E+01+
*       5.1614326840E+02               0
GRID*               1319               01.0039655275E+028.2415916400E+01+
*       5.2026899316E+02               0
GRID*               1320               01.0039670535E+028.2415916420E+01+
*       5.1820599208E+02               0
GRID*               1321               01.0429780293E+027.9298616413E+01+
*       5.1099003090E+02               0
GRID*               1322               01.0352915399E+028.0903545217E+01+
*       5.1201981157E+02               0
GRID*               1323               01.0429765243E+027.9298734809E+01+
*       5.1305149267E+02               0
GRID*               1324               01.0352903828E+028.0903676780E+01+
*       5.1408148685E+02               0
GRID*               1325               01.0429718306E+027.9298673352E+01+
*       5.1511352914E+02               0
GRID*               1326               01.0352895306E+028.0903769895E+01+
*       5.1614376407E+02               0
GRID*               1327               01.0429625082E+027.9298429920E+01+
*       5.1717605328E+02               0
GRID*               1328               01.0352891645E+028.0903801715E+01+
*       5.1820653544E+02               0
GRID*               1329               01.0352898826E+028.0903696850E+01+
*       5.2026955639E+02               0
GRID*               1330               01.0352903865E+028.0903619038E+01+
*       5.2233271356E+02               0
GRID*               1331               01.0429498229E+027.9298074579E+01+
*       5.1923892150E+02               0
GRID*               1332               01.0429353141E+027.9297549258E+01+
*       5.2130187000E+02               0
GRID*               1333               01.0429199554E+027.9296882055E+01+
*       5.2336478666E+02               0
GRID*               1334               01.0213011573E+027.4810867543E+01+
*       5.0171971355E+02               0
GRID*               1335               01.0352147922E+027.5918310762E+01+
*       5.0068968985E+02               0
GRID*               1336               01.0429533753E+027.7520302258E+01+
*       4.9965978845E+02               0
GRID*               1337               01.0429985201E+027.9299169490E+01+
*       4.9862948242E+02               0
GRID*               1338               01.0352151981E+027.5918361618E+01+
*       4.9656704122E+02               0
GRID*               1339               01.0352167098E+027.5918550719E+01+
*       4.9862844497E+02               0
GRID*               1340               01.0429544021E+027.7520709202E+01+
*       4.9759835057E+02               0
GRID*               1341               01.0213041568E+027.4811011328E+01+
*       4.9965824519E+02               0
GRID*               1342               01.0213045739E+027.4811030897E+01+
*       4.9759664132E+02               0
GRID*               1343               01.0213035957E+027.4810983296E+01+
*       4.9553489309E+02               0
GRID*               1344               01.0429852930E+027.9298556548E+01+
*       5.0686938828E+02               0
GRID*               1345               01.0429895206E+027.9298629374E+01+
*       5.0480983264E+02               0
GRID*               1346               01.0429931148E+027.9298852167E+01+
*       5.0275020637E+02               0
GRID*               1347               01.0429956614E+027.9299233180E+01+
*       5.0069004936E+02               0
GRID*               1348               01.0429527860E+027.7520126303E+01+
*       5.0378018908E+02               0
GRID*               1349               01.0352151780E+027.5918358733E+01+
*       5.0481066901E+02               0
GRID*               1350               01.0429530647E+027.7520287979E+01+
*       5.0584019513E+02               0
GRID*               1351               01.0213033130E+027.4810971476E+01+
*       5.0378079158E+02               0
GRID*               1352               01.0352171767E+027.5918608943E+01+
*       5.0275020460E+02               0
GRID*               1353               01.0429542076E+027.7520704911E+01+
*       5.0172001754E+02               0
GRID*               1354               01.0352902872E+028.0903745671E+01+
*       5.0583942578E+02               0
GRID*               1355               01.0213541762E+028.2018469387E+01+
*       5.0481008403E+02               0
GRID*               1356               01.0039788259E+028.2415916372E+01+
*       5.0378068715E+02               0
GRID*               1357               09.8660082839E+018.2019061225E+01+
*       5.0275092034E+02               0
GRID*               1358               01.0213522502E+028.2018562321E+01+
*       5.0069039313E+02               0
GRID*               1359               01.0213528477E+028.2018533492E+01+
*       5.0275043153E+02               0
GRID*               1360               01.0039772407E+028.2415916399E+01+
*       5.0172049157E+02               0
GRID*               1361               01.0352881691E+028.0904026569E+01+
*       5.0377998326E+02               0
GRID*               1362               01.0352863863E+028.0904265010E+01+
*       5.0172011704E+02               0
GRID*               1363               01.0352851985E+028.0904428292E+01+
*       4.9965973925E+02               0
GRID*               1364               09.8659948557E+018.2018996471E+01+
*       5.1098999399E+02               0
GRID*               1365               09.8660100697E+018.2019069822E+01+
*       5.0893004134E+02               0
GRID*               1366               09.8660196955E+018.2019116229E+01+
*       5.0687047243E+02               0
GRID*               1367               09.8660169878E+018.2019103180E+01+
*       5.0481083233E+02               0
GRID*               1368               01.0039798071E+028.2415916352E+01+
*       5.0789953797E+02               0
GRID*               1369               01.0213547352E+028.2018442410E+01+
*       5.0892903532E+02               0
GRID*               1370               01.0039781933E+028.2415916383E+01+
*       5.0995953086E+02               0
GRID*               1371               01.0039792854E+028.2415916363E+01+
*       5.0584010717E+02               0
GRID*               1372               01.0213539234E+028.2018481580E+01+
*       5.0686948185E+02               0
GRID*               1373               01.0352904651E+028.0903709161E+01+
*       5.0789910800E+02               0
GRID*               1374               09.7265742198E+018.0904348395E+01+
*       5.0996076441E+02               0
GRID*               1375               09.6495575596E+017.9298574346E+01+
*       5.0893187936E+02               0
GRID*               1376               09.6499423118E+017.7520273585E+01+
*       5.0790266824E+02               0
GRID*               1377               09.7272619410E+017.5918523349E+01+
*       5.0687306288E+02               0
GRID*               1378               09.6495677472E+017.9298972815E+01+
*       5.0481174377E+02               0
GRID*               1379               09.6495691436E+017.9299060510E+01+
*       5.0687187162E+02               0
GRID*               1380               09.6499268336E+017.7520835506E+01+
*       5.0584216133E+02               0
GRID*               1381               09.7266021272E+018.0904713896E+01+
*       5.0790097075E+02               0
GRID*               1382               09.7266132488E+018.0904867778E+01+
*       5.0584112138E+02               0
GRID*               1383               09.7266113454E+018.0904857491E+01+
*       5.0378103325E+02               0
GRID*               1384               09.6499669554E+017.7519539846E+01+
*       5.1408424156E+02               0
GRID*               1385               09.6499563135E+017.7519889108E+01+
*       5.1202332131E+02               0
GRID*               1386               09.6499422110E+017.7520389485E+01+
*       5.0996295084E+02               0
GRID*               1387               09.6495515864E+017.9298364254E+01+
*       5.1305252769E+02               0
GRID*               1388               09.7265693124E+018.0904272565E+01+
*       5.1202110261E+02               0
GRID*               1389               09.6495636190E+017.9298869312E+01+
*       5.1099214746E+02               0
GRID*               1390               09.8664157582E+017.4810868174E+01+
*       5.1202695642E+02               0
GRID*               1391               09.7272855729E+017.5918230366E+01+
*       5.1305564406E+02               0
GRID*               1392               09.8664014330E+017.4810937165E+01+
*       5.1408861374E+02               0
GRID*               1393               09.7272810194E+017.5918288002E+01+
*       5.1511722331E+02               0
GRID*               1394               09.7272603600E+017.5918544982E+01+
*       5.1099471691E+02               0
GRID*               1395               09.7272453292E+017.5918732161E+01+
*       5.0893387603E+02               0
GRID*               1396               09.8663666153E+017.4811104196E+01+
*       5.0996573342E+02               0
GRID*               1397               09.8663558713E+017.4811155626E+01+
*       5.0790437884E+02               0
GRID*               1398               01.0212920337E+027.4810425787E+01+
*       5.4501778774E+02               0
GRID*               1399               01.0351993259E+027.5916361583E+01+
*       5.4398651874E+02               0
GRID*               1400               01.0429440859E+027.7517071212E+01+
*       5.4295528160E+02               0
GRID*               1401               01.0428165784E+027.9288692915E+01+
*       5.4192338542E+02               0
GRID*               1402               01.0353225364E+028.0899435560E+01+
*       5.4089260147E+02               0
GRID*               1403               01.0213906256E+028.2016708418E+01+
*       5.3986171637E+02               0
GRID*               1404               01.0040178820E+028.2415913708E+01+
*       5.3883066131E+02               0
GRID*               1405               09.8663029526E+018.2020480333E+01+
*       5.3779963299E+02               0
GRID*               1406               09.7266747170E+018.0905437082E+01+
*       5.3676856477E+02               0
GRID*               1407               09.6495730926E+017.9299682008E+01+
*       5.3573813077E+02               0
GRID*               1408               09.6499693662E+017.7520559697E+01+
*       5.3470768337E+02               0
GRID*               1409               09.7272499813E+017.5918679060E+01+
*       5.3367751513E+02               0
GRID*               1410               09.8663801141E+017.4811038514E+01+
*       5.3264751693E+02               0
GRID*               1411               01.0213887837E+028.2016797511E+01+
*       5.3779975066E+02               0
GRID*               1412               01.0353204820E+028.0899721107E+01+
*       5.3676867762E+02               0
GRID*               1413               01.0428436162E+027.9290058148E+01+
*       5.3573758638E+02               0
GRID*               1414               01.0429452571E+027.7517440220E+01+
*       5.3470747884E+02               0
GRID*               1415               01.0352031561E+027.5916844911E+01+
*       5.3367692810E+02               0
GRID*               1416               01.0212959538E+027.4810616533E+01+
*       5.3264651633E+02               0
GRID*               1417               01.0352022697E+027.5916732923E+01+
*       5.3573873916E+02               0
GRID*               1418               01.0352009505E+027.5916567016E+01+
*       5.3780063819E+02               0
GRID*               1419               01.0352003264E+027.5916488091E+01+
*       5.3986260629E+02               0
GRID*               1420               01.0352012851E+027.5916607082E+01+
*       5.4192452131E+02               0
GRID*               1421               01.0428327543E+027.9289560921E+01+
*       5.3779943253E+02               0
GRID*               1422               01.0428234091E+027.9289221195E+01+
*       5.3986134261E+02               0
GRID*               1423               01.0353192050E+028.0899869625E+01+
*       5.3883052525E+02               0
GRID*               1424               01.0429451389E+027.7517494206E+01+
*       5.4089319441E+02               0
GRID*               1425               01.0429455474E+027.7517637006E+01+
*       5.3883121169E+02               0
GRID*               1426               01.0429460780E+027.7517832124E+01+
*       5.3676930688E+02               0
GRID*               1427               01.0212948815E+027.4810563011E+01+
*       5.4295583576E+02               0
GRID*               1428               01.0212966548E+027.4810649840E+01+
*       5.3470832145E+02               0
GRID*               1429               01.0212955887E+027.4810597418E+01+
*       5.4089392533E+02               0
GRID*               1430               01.0212958102E+027.4810608480E+01+
*       5.3883203824E+02               0
GRID*               1431               01.0212970126E+027.4810666646E+01+
*       5.3677016569E+02               0
GRID*               1432               09.8658693638E+018.2018391153E+01+
*       5.2336402245E+02               0
GRID*               1433               09.7264392704E+018.0902548008E+01+
*       5.2439581480E+02               0
GRID*               1434               09.6495095523E+017.9296683746E+01+
*       5.2542798426E+02               0
GRID*               1435               09.6500046032E+017.7518587552E+01+
*       5.2645992581E+02               0
GRID*               1436               09.7273246999E+017.5917744145E+01+
*       5.2749181805E+02               0
GRID*               1437               09.8664167592E+017.4810863081E+01+
*       5.2852366127E+02               0
GRID*               1438               09.7273324781E+017.5917646662E+01+
*       5.2542939155E+02               0
GRID*               1439               09.7273418942E+017.5917528646E+01+
*       5.2336676308E+02               0
GRID*               1440               09.7273431074E+017.5917513120E+01+
*       5.2130399718E+02               0
GRID*               1441               09.7273276423E+017.5917706043E+01+
*       5.1924137700E+02               0
GRID*               1442               09.6495093280E+017.9296640903E+01+
*       5.2336486710E+02               0
GRID*               1443               09.6495118119E+017.9296719333E+01+
*       5.2130164177E+02               0
GRID*               1444               09.7264565170E+018.0902779692E+01+
*       5.2233250931E+02               0
GRID*               1445               09.6499883434E+017.7518952200E+01+
*       5.2027122435E+02               0
GRID*               1446               09.6499890870E+017.7519033452E+01+
*       5.2233424817E+02               0
GRID*               1447               09.6499886048E+017.7519167653E+01+
*       5.2439713122E+02               0
GRID*               1448               09.8664249218E+017.4810824434E+01+
*       5.1821245202E+02               0
GRID*               1449               09.8664195399E+017.4810849961E+01+
*       5.2646153944E+02               0
GRID*               1450               09.8664232757E+017.4810832347E+01+
*       5.2027472587E+02               0
GRID*               1451               09.8664227867E+017.4810834532E+01+
*       5.2439930441E+02               0
GRID*               1452               09.8664169544E+017.4810862673E+01+
*       5.2233702355E+02               0
GRID*               1453               01.0213841630E+028.2017020969E+01+
*       5.3573788664E+02               0
GRID*               1454               01.0213785314E+028.2017293221E+01+
*       5.3367611761E+02               0
GRID*               1455               01.0213710607E+028.2017654215E+01+
*       5.3161429536E+02               0
GRID*               1456               01.0213629668E+028.2018045110E+01+
*       5.2955225148E+02               0
GRID*               1457               01.0213558301E+028.2018389587E+01+
*       5.2748986736E+02               0
GRID*               1458               01.0213500199E+028.2018669908E+01+
*       5.2542710460E+02               0
GRID*               1459               01.0428537188E+027.9291277596E+01+
*       5.3367589376E+02               0
GRID*               1460               01.0428657122E+027.9292329868E+01+
*       5.3161421244E+02               0
GRID*               1461               01.0428783433E+027.9293502011E+01+
*       5.2955233785E+02               0
GRID*               1462               01.0428913097E+027.9294779611E+01+
*       5.2749011748E+02               0
GRID*               1463               01.0352075678E+027.5917399036E+01+
*       5.2955338835E+02               0
GRID*               1464               01.0429483476E+027.7518708525E+01+
*       5.3058393241E+02               0
GRID*               1465               01.0429499348E+027.7519360858E+01+
*       5.2852191476E+02               0
GRID*               1466               01.0212981292E+027.4810721381E+01+
*       5.3058471435E+02               0
GRID*               1467               01.0352081837E+027.5917474677E+01+
*       5.3161515246E+02               0
GRID*               1468               01.0429479249E+027.7518561878E+01+
*       5.3264570092E+02               0
GRID*               1469               01.0353096378E+028.0901118820E+01+
*       5.3264507056E+02               0
GRID*               1470               01.0353136087E+028.0900603463E+01+
*       5.3470680778E+02               0
GRID*               1471               01.0353039405E+028.0901852229E+01+
*       5.3058316050E+02               0
GRID*               1472               01.0352987185E+028.0902525427E+01+
*       5.2852099050E+02               0
GRID*               1473               01.0352943725E+028.0903087905E+01+
*       5.2645850545E+02               0
GRID*               1474               09.7264872067E+018.0903138994E+01+
*       5.2645865611E+02               0
GRID*               1475               09.7265322665E+018.0903693693E+01+
*       5.2852110507E+02               0
GRID*               1476               09.7265816520E+018.0904302983E+01+
*       5.3058318204E+02               0
GRID*               1477               09.7266285505E+018.0904880965E+01+
*       5.3264503432E+02               0
GRID*               1478               09.7266643357E+018.0905318986E+01+
*       5.3470680162E+02               0
GRID*               1479               09.6499872436E+017.7519452083E+01+
*       5.2852215627E+02               0
GRID*               1480               09.6499774376E+017.7519988981E+01+
*       5.3058413996E+02               0
GRID*               1481               09.6499658268E+017.7520603527E+01+
*       5.3264595156E+02               0
GRID*               1482               09.7272376195E+017.5918833668E+01+
*       5.3161571480E+02               0
GRID*               1483               09.8663745096E+017.4811065853E+01+
*       5.3058560043E+02               0
GRID*               1484               09.7272481146E+017.5918702232E+01+
*       5.2955377410E+02               0
GRID*               1485               09.6495622126E+017.9299121306E+01+
*       5.3161459386E+02               0
GRID*               1486               09.6495758691E+017.9299763413E+01+
*       5.3367637324E+02               0
GRID*               1487               09.6495501585E+017.9298551346E+01+
*       5.2955264706E+02               0
GRID*               1488               09.6495367786E+017.9297923894E+01+
*       5.2749042066E+02               0
GRID*               1489               09.8662202815E+018.2020082483E+01+
*       5.3367600852E+02               0
GRID*               1490               01.0040000378E+028.2415915402E+01+
*       5.3264508399E+02               0
GRID*               1491               01.0040068849E+028.2415914847E+01+
*       5.3470686627E+02               0
GRID*               1492               01.0040115986E+028.2415914396E+01+
*       5.3676867118E+02               0
GRID*               1493               09.8662558365E+018.2020253619E+01+
*       5.3573773341E+02               0
GRID*               1494               09.8661422843E+018.2019706919E+01+
*       5.3161413675E+02               0
GRID*               1495               01.0039905563E+028.2415915976E+01+
*       5.3058312034E+02               0
GRID*               1496               09.8660621986E+018.2019321085E+01+
*       5.2955209445E+02               0
GRID*               1497               01.0039818813E+028.2415916302E+01+
*       5.2852089918E+02               0
GRID*               1498               09.8659888679E+018.2018967602E+01+
*       5.2748974184E+02               0
GRID*               1499               09.8659277608E+018.2018672902E+01+
*       5.2542705522E+02               0
GRID*               1500               01.0039693968E+028.2415916438E+01+
*       5.2439545252E+02               0
GRID*               1501               01.0039750405E+028.2415916425E+01+
*       5.2645829073E+02               0
GRID*               1502               01.0352019785E+027.5916692495E+01+
*       5.4604816648E+02               0
GRID*               1503               01.0429454865E+027.7517743708E+01+
*       5.4707858042E+02               0
GRID*               1504               01.0428046183E+027.9289217902E+01+
*       5.4810826665E+02               0
GRID*               1505               01.0353154859E+028.0900281325E+01+
*       5.4913911602E+02               0
GRID*               1506               01.0213755536E+028.2017437184E+01+
*       5.5016993020E+02               0
GRID*               1507               01.0040003388E+028.2415915382E+01+
*       5.5120073279E+02               0
GRID*               1508               09.8661625507E+018.2019804659E+01+
*       5.5223177682E+02               0
GRID*               1509               09.7265604825E+018.0903908617E+01+
*       5.5326289371E+02               0
GRID*               1510               09.6514666539E+017.9291940463E+01+
*       5.5429444930E+02               0
GRID*               1511               09.6500076975E+017.7519851643E+01+
*       5.5532651885E+02               0
GRID*               1512               09.7272492033E+017.5918687074E+01+
*       5.5635871647E+02               0
GRID*               1513               09.8663342124E+017.4811245255E+01+
*       5.5739145312E+02               0
GRID*               1514               09.6515923923E+017.9291905306E+01+
*       5.5223264596E+02               0
GRID*               1515               09.6514009949E+017.9292989307E+01+
*       5.5017090164E+02               0
GRID*               1516               09.6509041634E+017.9295158132E+01+
*       5.4810922812E+02               0
GRID*               1517               09.6502106162E+017.9297963826E+01+
*       5.4604756936E+02               0
GRID*               1518               09.6496361707E+017.9300232761E+01+
*       5.4398581501E+02               0
GRID*               1519               09.6495879034E+017.9300475450E+01+
*       5.4192387253E+02               0
GRID*               1520               09.6495865874E+017.9300367557E+01+
*       5.3986190017E+02               0
GRID*               1521               09.6495837313E+017.9300195084E+01+
*       5.3779997262E+02               0
GRID*               1522               01.0040036998E+028.2415915122E+01+
*       5.4913926419E+02               0
GRID*               1523               01.0040085767E+028.2415914693E+01+
*       5.4707779821E+02               0
GRID*               1524               01.0040132661E+028.2415914224E+01+
*       5.4501618198E+02               0
GRID*               1525               01.0040163781E+028.2415913883E+01+
*       5.4295440842E+02               0
GRID*               1526               01.0040167473E+028.2415913840E+01+
*       5.4089250470E+02               0
GRID*               1527               01.0353171955E+028.0900075846E+01+
*       5.4707775175E+02               0
GRID*               1528               01.0353195982E+028.0899783209E+01+
*       5.4501622338E+02               0
GRID*               1529               01.0353202219E+028.0899716108E+01+
*       5.4295440035E+02               0
GRID*               1530               01.0428061001E+027.9289188362E+01+
*       5.4604669678E+02               0
GRID*               1531               01.0428097131E+027.9289160623E+01+
*       5.4398500608E+02               0
GRID*               1532               01.0429458927E+027.7517887900E+01+
*       5.4501681265E+02               0
GRID*               1533               01.0213816722E+028.2017141428E+01+
*       5.4604696423E+02               0
GRID*               1534               01.0213772106E+028.2017357099E+01+
*       5.4810839157E+02               0
GRID*               1535               01.0213843346E+028.2017012694E+01+
*       5.4398525323E+02               0
GRID*               1536               01.0213860200E+028.2016931185E+01+
*       5.4192343605E+02               0
GRID*               1537               09.7266590799E+018.0905181568E+01+
*       5.4707786807E+02               0
GRID*               1538               09.8662364755E+018.2020160516E+01+
*       5.4810858721E+02               0
GRID*               1539               09.7265993925E+018.0904408718E+01+
*       5.5120112305E+02               0
GRID*               1540               09.8661977337E+018.2019974043E+01+
*       5.5017009275E+02               0
GRID*               1541               09.7266331458E+018.0904844225E+01+
*       5.4913940398E+02               0
GRID*               1542               09.7266894923E+018.0905575773E+01+
*       5.4501612266E+02               0
GRID*               1543               09.8662798566E+018.2020369264E+01+
*       5.4604693064E+02               0
GRID*               1544               09.7267074798E+018.0905813747E+01+
*       5.4295428169E+02               0
GRID*               1545               09.8663109624E+018.2020518901E+01+
*       5.4398519391E+02               0
GRID*               1546               09.8663209838E+018.2020567095E+01+
*       5.4192336528E+02               0
GRID*               1547               09.8663133801E+018.2020530507E+01+
*       5.3986147828E+02               0
GRID*               1548               09.7267082754E+018.0905835468E+01+
*       5.4089231560E+02               0
GRID*               1549               09.7267026892E+018.0905777152E+01+
*       5.3883041624E+02               0
GRID*               1550               09.8663595277E+017.4811127433E+01+
*       5.5326746628E+02               0
GRID*               1551               09.7272370226E+017.5918839781E+01+
*       5.5429684313E+02               0
GRID*               1552               09.8663195726E+017.4811317759E+01+
*       5.5532941345E+02               0
GRID*               1553               09.7272177908E+017.5919081891E+01+
*       5.3573932551E+02               0
GRID*               1554               09.8663432511E+017.4811214707E+01+
*       5.3677131633E+02               0
GRID*               1555               09.8663409156E+017.4811226509E+01+
*       5.3470940510E+02               0
GRID*               1556               09.6499546346E+017.7521414277E+01+
*       5.3883140293E+02               0
GRID*               1557               09.7271865945E+017.5919472341E+01+
*       5.3780122702E+02               0
GRID*               1558               09.6499491954E+017.7521543749E+01+
*       5.3676954031E+02               0
GRID*               1559               09.7272333798E+017.5918885636E+01+
*       5.5223493657E+02               0
GRID*               1560               09.6499888061E+017.7520513620E+01+
*       5.5120283620E+02               0
GRID*               1561               09.6499896221E+017.7520560414E+01+
*       5.5326461722E+02               0
GRID*               1562               09.8663501800E+017.4811175534E+01+
*       5.4914333606E+02               0
GRID*               1563               09.7272133969E+017.5919135968E+01+
*       5.5017294781E+02               0
GRID*               1564               09.8663197284E+017.4811320525E+01+
*       5.5120535864E+02               0
GRID*               1565               09.7272085374E+017.5919197014E+01+
*       5.4811102256E+02               0
GRID*               1566               09.6499704520E+017.7521130390E+01+
*       5.4707912815E+02               0
GRID*               1567               09.6499716005E+017.7521172862E+01+
*       5.4914094134E+02               0
GRID*               1568               09.8663404481E+017.4811224817E+01+
*       5.4501929412E+02               0
GRID*               1569               09.7271905917E+017.5919421840E+01+
*       5.4604907182E+02               0
GRID*               1570               09.8663102776E+017.4811368776E+01+
*       5.4708130413E+02               0
GRID*               1571               09.7271877730E+017.5919457291E+01+
*       5.4398713088E+02               0
GRID*               1572               09.6499556245E+017.7521578456E+01+
*       5.4295532862E+02               0
GRID*               1573               09.6499544300E+017.7521729960E+01+
*       5.4501723256E+02               0
GRID*               1574               09.7271749315E+017.5919618187E+01+
*       5.4192514857E+02               0
GRID*               1575               09.7271676089E+017.5919709965E+01+
*       5.3986318995E+02               0
GRID*               1576               09.6499441398E+017.7521974975E+01+
*       5.4089336632E+02               0
GRID*               1577               09.8663035423E+017.4811404248E+01+
*       5.4089528157E+02               0
GRID*               1578               09.8662994428E+017.4811424743E+01+
*       5.3883329543E+02               0
GRID*               1579               09.8662976840E+017.4811431537E+01+
*       5.4295728798E+02               0
GRID*               1580               01.0212943499E+027.4810531232E+01+
*       5.6975762358E+02               0
GRID*               1581               01.0352023396E+027.5916736895E+01+
*       5.6872427049E+02               0
GRID*               1582               01.0429449756E+027.7517788674E+01+
*       5.6769143966E+02               0
GRID*               1583               01.0428633064E+027.9291264715E+01+
*       5.6665870083E+02               0
GRID*               1584               01.0353140280E+028.0900406605E+01+
*       5.6562739470E+02               0
GRID*               1585               01.0213703858E+028.2017686918E+01+
*       5.6459692006E+02               0
GRID*               1586               01.0039953429E+028.2415915716E+01+
*       5.6356677797E+02               0
GRID*               1587               09.8661354438E+018.2019674258E+01+
*       5.6253709664E+02               0
GRID*               1588               09.7265501630E+018.0903749143E+01+
*       5.6150750301E+02               0
GRID*               1589               09.6499288335E+017.9297510894E+01+
*       5.6047852907E+02               0
GRID*               1590               09.6500018932E+017.7520230885E+01+
*       5.5944939584E+02               0
GRID*               1591               09.7272229152E+017.5919015733E+01+
*       5.5842032163E+02               0
GRID*               1592               01.0428048967E+027.9289472128E+01+
*       5.5016942960E+02               0
GRID*               1593               01.0428074215E+027.9289411147E+01+
*       5.5223064553E+02               0
GRID*               1594               01.0428115752E+027.9289413403E+01+
*       5.5429187453E+02               0
GRID*               1595               01.0428172742E+027.9289408753E+01+
*       5.5635314439E+02               0
GRID*               1596               01.0428243291E+027.9289477504E+01+
*       5.5841441247E+02               0
GRID*               1597               01.0428325968E+027.9289672231E+01+
*       5.6047559319E+02               0
GRID*               1598               01.0428419442E+027.9290048210E+01+
*       5.6253664390E+02               0
GRID*               1599               01.0428522393E+027.9290847322E+01+
*       5.6459753389E+02               0
GRID*               1600               01.0039979466E+028.2415915550E+01+
*       5.5326203821E+02               0
GRID*               1601               01.0039970065E+028.2415915612E+01+
*       5.5532333472E+02               0
GRID*               1602               01.0039968382E+028.2415915623E+01+
*       5.5738447112E+02               0
GRID*               1603               01.0039968078E+028.2415915625E+01+
*       5.5944541579E+02               0
GRID*               1604               01.0039961950E+028.2415915664E+01+
*       5.6150611999E+02               0
GRID*               1605               09.7265592798E+018.0903884938E+01+
*       5.5532432211E+02               0
GRID*               1606               09.7265561495E+018.0903837681E+01+
*       5.5738559217E+02               0
GRID*               1607               09.7265611366E+018.0903893684E+01+
*       5.5944653870E+02               0
GRID*               1608               09.6511070723E+017.9293522267E+01+
*       5.5635581879E+02               0
GRID*               1609               09.6505596760E+017.9295615247E+01+
*       5.5841711067E+02               0
GRID*               1610               09.6499927683E+017.7520567997E+01+
*       5.5738781348E+02               0
GRID*               1611               09.8661426174E+018.2019708781E+01+
*       5.6047621331E+02               0
GRID*               1612               09.8661449005E+018.2019719711E+01+
*       5.5635431498E+02               0
GRID*               1613               09.8661499503E+018.2019744003E+01+
*       5.5429299499E+02               0
GRID*               1614               09.8661460822E+018.2019725435E+01+
*       5.5841526896E+02               0
GRID*               1615               01.0213716076E+028.2017627889E+01+
*       5.6253620953E+02               0
GRID*               1616               01.0353136896E+028.0900453530E+01+
*       5.6356646617E+02               0
GRID*               1617               01.0213720434E+028.2017606825E+01+
*       5.6047541837E+02               0
GRID*               1618               01.0353141479E+028.0900400781E+01+
*       5.6150560451E+02               0
GRID*               1619               01.0353133022E+028.0900547348E+01+
*       5.5120020720E+02               0
GRID*               1620               01.0213725966E+028.2017580073E+01+
*       5.5223106535E+02               0
GRID*               1621               01.0353128601E+028.0900593773E+01+
*       5.5326135751E+02               0
GRID*               1622               01.0213714434E+028.2017635793E+01+
*       5.5429225866E+02               0
GRID*               1623               01.0213719720E+028.2017610263E+01+
*       5.5635346063E+02               0
GRID*               1624               01.0213718495E+028.2017616187E+01+
*       5.5841447035E+02               0
GRID*               1625               01.0353141198E+028.0900417709E+01+
*       5.5738364806E+02               0
GRID*               1626               01.0353136234E+028.0900473348E+01+
*       5.5944461628E+02               0
GRID*               1627               01.0353125789E+028.0900620577E+01+
*       5.5532244818E+02               0
GRID*               1628               01.0352029062E+027.5916807483E+01+
*       5.6666248793E+02               0
GRID*               1629               01.0212948842E+027.4810557854E+01+
*       5.6563397188E+02               0
GRID*               1630               01.0212970758E+027.4810662646E+01+
*       5.6769565507E+02               0
GRID*               1631               01.0429440481E+027.7517317961E+01+
*       5.6150765440E+02               0
GRID*               1632               01.0352007445E+027.5916536950E+01+
*       5.6253969124E+02               0
GRID*               1633               01.0212952603E+027.4810576405E+01+
*       5.6357235941E+02               0
GRID*               1634               01.0352036282E+027.5916897534E+01+
*       5.6460097240E+02               0
GRID*               1635               01.0429453424E+027.7517903443E+01+
*       5.6356866800E+02               0
GRID*               1636               01.0429459860E+027.7518205598E+01+
*       5.6562984746E+02               0
GRID*               1637               01.0352013820E+027.5916616531E+01+
*       5.6047824793E+02               0
GRID*               1638               01.0212947921E+027.4810554899E+01+
*       5.5944911917E+02               0
GRID*               1639               01.0212967241E+027.4810647212E+01+
*       5.6151071037E+02               0
GRID*               1640               01.0429446506E+027.7517527780E+01+
*       5.5738505009E+02               0
GRID*               1641               01.0352025171E+027.5916758382E+01+
*       5.5841677637E+02               0
GRID*               1642               01.0429453922E+027.7517875824E+01+
*       5.5944627413E+02               0
GRID*               1643               01.0352030298E+027.5916822506E+01+
*       5.5635529390E+02               0
GRID*               1644               01.0212963053E+027.4810628572E+01+
*       5.5532582798E+02               0
GRID*               1645               01.0212977583E+027.4810697879E+01+
*       5.5738744879E+02               0
GRID*               1646               01.0429456395E+027.7517901070E+01+
*       5.5326240161E+02               0
GRID*               1647               01.0352044835E+027.5917004328E+01+
*       5.5429385319E+02               0
GRID*               1648               01.0429461874E+027.7518167305E+01+
*       5.5532365218E+02               0
GRID*               1649               01.0352050894E+027.5917080262E+01+
*       5.5223244333E+02               0
GRID*               1650               01.0212972978E+027.4810677223E+01+
*       5.5120262746E+02               0
GRID*               1651               01.0212991247E+027.4810764513E+01+
*       5.5326419933E+02               0
GRID*               1652               01.0212966555E+027.4810646844E+01+
*       5.4914104590E+02               0
GRID*               1653               01.0212965432E+027.4810641920E+01+
*       5.4707938300E+02               0
GRID*               1654               01.0352052843E+027.5917105247E+01+
*       5.4810958238E+02               0
GRID*               1655               01.0352063987E+027.5917244222E+01+
*       5.5017101542E+02               0
GRID*               1656               01.0429468487E+027.7518396571E+01+
*       5.5120107299E+02               0
GRID*               1657               01.0429470721E+027.7518463244E+01+
*       5.4913975119E+02               0
GRID*               1658               01.0352061000E+027.5917207278E+01+
*       5.7078676238E+02               0
GRID*               1659               01.0429473229E+027.7518847057E+01+
*       5.7181698225E+02               0
GRID*               1660               01.0428991547E+027.9294548835E+01+
*       5.7284772971E+02               0
GRID*               1661               01.0352938673E+028.0902950816E+01+
*       5.7387954049E+02               0
GRID*               1662               01.0213350193E+028.2019393266E+01+
*       5.7491163898E+02               0
GRID*               1663               01.0039540073E+028.2415916061E+01+
*       5.7594314984E+02               0
GRID*               1664               09.8658017988E+018.2018065394E+01+
*       5.7697448076E+02               0
GRID*               1665               09.7263767606E+018.0901554409E+01+
*       5.7800519048E+02               0
GRID*               1666               09.6512818798E+017.9291885384E+01+
*       5.7903606476E+02               0
GRID*               1667               09.6519873576E+017.7525904277E+01+
*       5.8006750153E+02               0
GRID*               1668               09.7271567638E+017.5919840052E+01+
*       5.8110083197E+02               0
GRID*               1669               09.8661378997E+017.4812179476E+01+
*       5.8213678236E+02               0
GRID*               1670               09.6510073737E+017.9291995791E+01+
*       5.7697157389E+02               0
GRID*               1671               09.6504940985E+017.9293504513E+01+
*       5.7490775017E+02               0
GRID*               1672               09.6498285288E+017.9295924217E+01+
*       5.7284492419E+02               0
GRID*               1673               09.6495488739E+017.9297284744E+01+
*       5.7078296337E+02               0
GRID*               1674               09.6495597606E+017.9297784892E+01+
*       5.6872169654E+02               0
GRID*               1675               09.6495698076E+017.9298280942E+01+
*       5.6666083884E+02               0
GRID*               1676               09.6495774752E+017.9298664021E+01+
*       5.6460010869E+02               0
GRID*               1677               09.6495839081E+017.9298953456E+01+
*       5.6253930759E+02               0
GRID*               1678               01.0039635991E+028.2415916367E+01+
*       5.7387645220E+02               0
GRID*               1679               01.0039734388E+028.2415916437E+01+
*       5.7181194613E+02               0
GRID*               1680               01.0039818484E+028.2415916304E+01+
*       5.6974935276E+02               0
GRID*               1681               01.0039879601E+028.2415916095E+01+
*       5.6768796614E+02               0
GRID*               1682               01.0039917661E+028.2415915917E+01+
*       5.6562717092E+02               0
GRID*               1683               01.0353015852E+028.0901974727E+01+
*       5.7181382429E+02               0
GRID*               1684               01.0353074423E+028.0901234755E+01+
*       5.6975036509E+02               0
GRID*               1685               01.0353102749E+028.0900878290E+01+
*       5.6768844173E+02               0
GRID*               1686               01.0428870195E+027.9293421431E+01+
*       5.7078326533E+02               0
GRID*               1687               01.0428750022E+027.9292503799E+01+
*       5.6872042361E+02               0
GRID*               1688               01.0429470784E+027.7518721853E+01+
*       5.6975366273E+02               0
GRID*               1689               01.0213541124E+028.2018472608E+01+
*       5.7078125214E+02               0
GRID*               1690               01.0213445720E+028.2018932795E+01+
*       5.7284547870E+02               0
GRID*               1691               01.0213602957E+028.2018174181E+01+
*       5.6871892118E+02               0
GRID*               1692               01.0213647385E+028.2017959674E+01+
*       5.6665758034E+02               0
GRID*               1693               09.7264355461E+018.0902288092E+01+
*       5.7181208021E+02               0
GRID*               1694               09.8659152683E+018.2018613005E+01+
*       5.7284356838E+02               0
GRID*               1695               09.7263787944E+018.0901575323E+01+
*       5.7593972589E+02               0
GRID*               1696               09.8658529615E+018.2018312365E+01+
*       5.7490839227E+02               0
GRID*               1697               09.7264043896E+018.0901895775E+01+
*       5.7387557832E+02               0
GRID*               1698               09.7264769802E+018.0902811639E+01+
*       5.6975031381E+02               0
GRID*               1699               09.8659873876E+018.2018960824E+01+
*       5.7078076585E+02               0
GRID*               1700               09.7265127560E+018.0903264977E+01+
*       5.6768922440E+02               0
GRID*               1701               09.8660477543E+018.2019251819E+01+
*       5.6871904170E+02               0
GRID*               1702               09.7265562662E+018.0903821095E+01+
*       5.6356790561E+02               0
GRID*               1703               09.7265423118E+018.0903640948E+01+
*       5.6562847515E+02               0
GRID*               1704               09.8660933406E+018.2019471477E+01+
*       5.6665801851E+02               0
GRID*               1705               09.8661234387E+018.2019616456E+01+
*       5.6459736578E+02               0
GRID*               1706               09.8663079701E+017.4811360736E+01+
*       5.7801233148E+02               0
GRID*               1707               09.7272333692E+017.5918881400E+01+
*       5.7903894061E+02               0
GRID*               1708               09.8662156114E+017.4811805159E+01+
*       5.8007500116E+02               0
GRID*               1709               09.8663281752E+017.4811263609E+01+
*       5.7594965509E+02               0
GRID*               1710               09.7273017759E+017.5918026273E+01+
*       5.7491349508E+02               0
GRID*               1711               09.6522706679E+017.7524951115E+01+
*       5.7387843758E+02               0
GRID*               1712               09.7272672608E+017.5918457674E+01+
*       5.7697629390E+02               0
GRID*               1713               09.6522422864E+017.7525677417E+01+
*       5.7800462028E+02               0
GRID*               1714               09.6523462546E+017.7525572524E+01+
*       5.7594145493E+02               0
GRID*               1715               09.8663379659E+017.4811217154E+01+
*       5.7182488471E+02               0
GRID*               1716               09.7272839860E+017.5918249165E+01+
*       5.7285130473E+02               0
GRID*               1717               09.8663069787E+017.4811365758E+01+
*       5.7388729276E+02               0
GRID*               1718               09.7272748258E+017.5918364123E+01+
*       5.7078929671E+02               0
GRID*               1719               09.6514119870E+017.7523329910E+01+
*       5.6975470635E+02               0
GRID*               1720               09.6519385864E+017.7524679325E+01+
*       5.7181638222E+02               0
GRID*               1721               09.8663201401E+017.4811304378E+01+
*       5.6770080128E+02               0
GRID*               1722               09.7272496385E+017.5918679616E+01+
*       5.6872763609E+02               0
GRID*               1723               09.8662971137E+017.4811414259E+01+
*       5.6976281430E+02               0
GRID*               1724               09.7272366275E+017.5918842786E+01+
*       5.6666614734E+02               0
GRID*               1725               09.6500850158E+017.7520524098E+01+
*       5.6563258918E+02               0
GRID*               1726               09.6506874238E+017.7522121125E+01+
*       5.6769355607E+02               0
GRID*               1727               09.8663056071E+017.4811376831E+01+
*       5.6357708352E+02               0
GRID*               1728               09.7272132753E+017.5919135393E+01+
*       5.6460472776E+02               0
GRID*               1729               09.8662808744E+017.4811494399E+01+
*       5.6563889639E+02               0
GRID*               1730               09.8663077962E+017.4811370068E+01+
*       5.5945333551E+02               0
GRID*               1731               09.8662970850E+017.4811419554E+01+
*       5.6151521880E+02               0
GRID*               1732               09.7272036204E+017.5919256912E+01+
*       5.6048184544E+02               0
GRID*               1733               09.7271981717E+017.5919324787E+01+
*       5.6254330628E+02               0
GRID*               1734               09.6499919408E+017.7520748150E+01+
*       5.6357151515E+02               0
GRID*               1735               09.6499883147E+017.7520869946E+01+
*       5.6151039598E+02               0
GRID*               1736               01.0352846872E+028.0904112418E+01+
*       5.7594815630E+02               0
GRID*               1737               01.0352748942E+028.0905352173E+01+
*       5.7801924513E+02               0
GRID*               1738               01.0352642331E+028.0906702135E+01+
*       5.8009209464E+02               0
GRID*               1739               01.0352504328E+028.0908447927E+01+
*       5.8216505965E+02               0
GRID*               1740               01.0352252769E+028.0911620194E+01+
*       5.8423557483E+02               0
GRID*               1741               01.0351663369E+028.0919015151E+01+
*       5.8629787664E+02               0
GRID*               1742               01.0350319778E+028.0935728992E+01+
*       5.8835053951E+02               0
GRID*               1743               01.0347415165E+028.0971249381E+01+
*       5.9038862377E+02               0
GRID*               1744               01.0342180907E+028.1033257160E+01+
*       5.9238531752E+02               0
GRID*               1745               09.6506935505E+017.7543258188E+01+
*       5.8624436537E+02               0
GRID*               1746               09.6514003131E+017.9311029026E+01+
*       5.8521916327E+02               0
GRID*               1747               09.7271846856E+018.0911755863E+01+
*       5.8419804911E+02               0
GRID*               1748               09.8663110099E+018.2020519447E+01+
*       5.8317679609E+02               0
GRID*               1749               01.0039559234E+028.2415916141E+01+
*       5.8215237849E+02               0
GRID*               1750               01.0213073605E+028.2020724747E+01+
*       5.8112331291E+02               0
GRID*               1751               09.7297937859E+018.0944197683E+01+
*       5.8830497222E+02               0
GRID*               1752               09.8681573560E+018.2029343456E+01+
*       5.8728813577E+02               0
GRID*               1753               01.0040104770E+028.2415914515E+01+
*       5.8627511785E+02               0
GRID*               1754               01.0212767564E+028.2022194958E+01+
*       5.8525623599E+02               0
GRID*               1755               01.0040873369E+028.2415899519E+01+
*       5.9033618036E+02               0
GRID*               1756               01.0210807059E+028.2031537511E+01+
*       5.8934494615E+02               0
GRID*               1757               01.0208207239E+028.2043726164E+01+
*       5.9134871597E+02               0
GRID*               1758               01.0040446791E+028.2415909676E+01+
*       5.8831361103E+02               0
GRID*               1759               01.0212113084E+028.2025328335E+01+
*       5.8730534812E+02               0
GRID*               1760               09.8701345970E+018.2038664854E+01+
*       5.8932060651E+02               0
GRID*               1761               09.8669990656E+018.2023821350E+01+
*       5.8523447420E+02               0
GRID*               1762               01.0212983904E+028.2021156003E+01+
*       5.8319119983E+02               0
GRID*               1763               01.0039789326E+028.2415916370E+01+
*       5.8421325755E+02               0
GRID*               1764               09.7281419774E+018.0923739601E+01+
*       5.8625197248E+02               0
GRID*               1765               09.6516523746E+017.9332261397E+01+
*       5.8727639679E+02               0
GRID*               1766               09.7269614001E+017.5922288159E+01+
*       5.8316064527E+02               0
GRID*               1767               09.7266576905E+017.5926101975E+01+
*       5.8521922208E+02               0
GRID*               1768               09.8659536813E+017.4813067390E+01+
*       5.8419807818E+02               0
GRID*               1769               09.6516114812E+017.7528695537E+01+
*       5.8212896291E+02               0
GRID*               1770               09.6511719613E+017.7534428287E+01+
*       5.8418824625E+02               0
GRID*               1771               09.6513724002E+017.9294772224E+01+
*       5.8110005035E+02               0
GRID*               1772               09.6513833197E+017.9301074593E+01+
*       5.8316130261E+02               0
GRID*               1773               09.7264933217E+018.0903033315E+01+
*       5.8007175484E+02               0
GRID*               1774               09.7267591994E+018.0906394781E+01+
*       5.8213592775E+02               0
GRID*               1775               09.8658408775E+018.2018254041E+01+
*       5.7904282480E+02               0
GRID*               1776               09.8660156924E+018.2019097295E+01+
*       5.8110995441E+02               0
GRID*               1777               01.0039497783E+028.2415915851E+01+
*       5.8008157672E+02               0
GRID*               1778               01.0213160291E+028.2020307725E+01+
*       5.7905097623E+02               0
GRID*               1779               01.0039496388E+028.2415915844E+01+
*       5.7801177035E+02               0
GRID*               1780               01.0213250554E+028.2019873224E+01+
*       5.7698035905E+02               0
GRID*               1781               01.0213026516E+027.4810928704E+01+
*       5.7594730907E+02               0
GRID*               1782               01.0352133107E+027.5918109757E+01+
*       5.7491559060E+02               0
GRID*               1783               01.0429497269E+027.7519909711E+01+
*       5.7388225398E+02               0
GRID*               1784               01.0213014426E+027.4810871057E+01+
*       5.7388324327E+02               0
GRID*               1785               01.0212997314E+027.4810789288E+01+
*       5.7182011803E+02               0
GRID*               1786               01.0352120823E+027.5917955745E+01+
*       5.7285041645E+02               0
GRID*               1787               01.0352195907E+027.5918895983E+01+
*       5.7698207107E+02               0
GRID*               1788               01.0429548460E+027.7522170251E+01+
*       5.7801876988E+02               0
GRID*               1789               01.0429329034E+027.9300321891E+01+
*       5.7905521008E+02               0
GRID*               1790               01.0429225167E+027.9298225778E+01+
*       5.7698370045E+02               0
GRID*               1791               01.0429111261E+027.9296506189E+01+
*       5.7491462127E+02               0
GRID*               1792               01.0429525533E+027.7521156184E+01+
*       5.7594903684E+02               0
GRID*               1793               01.0213254086E+027.4812021992E+01+
*       5.8214219468E+02               0
GRID*               1794               01.0352380870E+027.5921213631E+01+
*       5.8111760315E+02               0
GRID*               1795               01.0429592243E+027.7524095049E+01+
*       5.8008800271E+02               0
GRID*               1796               01.0352285288E+027.5920015536E+01+
*       5.7904858482E+02               0
GRID*               1797               01.0213106168E+027.4811311175E+01+
*       5.7801128350E+02               0
GRID*               1798               01.0213178084E+027.4811656652E+01+
*       5.8007593551E+02               0
GRID*               1799               01.0352584164E+027.5923764556E+01+
*       5.8318511670E+02               0
GRID*               1800               01.0429780759E+027.7532397378E+01+
*       5.8422853703E+02               0
GRID*               1801               01.0429391808E+027.9316279682E+01+
*       5.8526551318E+02               0
GRID*               1802               01.0429463358E+027.9307892097E+01+
*       5.8319643083E+02               0
GRID*               1803               01.0429414480E+027.9303301521E+01+
*       5.8112535250E+02               0
GRID*               1804               01.0429668392E+027.7527441764E+01+
*       5.8215582498E+02               0
GRID*               1805               01.0214537321E+027.4818226074E+01+
*       5.8832998585E+02               0
GRID*               1806               01.0353617391E+027.5936794191E+01+
*       5.8731521231E+02               0
GRID*               1807               01.0430034031E+027.7543661084E+01+
*       5.8629259686E+02               0
GRID*               1808               01.0213486584E+027.4813141688E+01+
*       5.8420509972E+02               0
GRID*               1809               01.0353008402E+027.5929101153E+01+
*       5.8524800313E+02               0
GRID*               1810               01.0213916406E+027.4815216897E+01+
*       5.8626705323E+02               0
GRID*               1811               01.0430316705E+027.7566527132E+01+
*       5.8836094518E+02               0
GRID*               1812               01.0427191384E+027.9370460916E+01+
*       5.8939107518E+02               0
GRID*               1813               01.0428476335E+027.9334609470E+01+
*       5.8732499996E+02               0
GRID*               1814               01.0354943250E+027.5953677276E+01+
*       5.8937876615E+02               0
GRID*               1815               01.0430777081E+027.7612177746E+01+
*       5.9044816489E+02               0
GRID*               1816               01.0425512799E+027.9456670354E+01+
*       5.9146151273E+02               0
GRID*               1817               01.0216167602E+027.4826190651E+01+
*       5.9038700457E+02               0
GRID*               1818               01.0356550279E+027.5974392585E+01+
*       5.9143899098E+02               0
GRID*               1819               01.0432314715E+027.7677221173E+01+
*       5.9268318838E+02               0
GRID*               1820               01.0420105731E+027.9654189495E+01+
*       5.9344809720E+02               0
GRID*               1821               01.0366930326E+027.6115356381E+01+
*       5.9469267667E+02               0
GRID*               1822               01.0238408720E+027.4944316959E+01+
*       5.9459502219E+02               0
GRID*               1823               01.0415436134E+027.7044368128E+01+
*       5.9784992226E+02               0
GRID*               1824               01.0433741213E+027.7735943316E+01+
*       5.9824177504E+02               0
GRID*               1825               01.0385142582E+027.6399019727E+01+
*       5.9735223495E+02               0
GRID*               1826               01.0382882918E+027.6360812350E+01+
*       5.9824950109E+02               0
GRID*               1827               01.0337555298E+027.5745921494E+01+
*       5.9874724722E+02               0
GRID*               1828               01.0382152262E+027.6384651336E+01+
*       5.9919571428E+02               0
GRID*               1829               01.0276783137E+027.5194154425E+01+
*       5.9824351665E+02               0
GRID*               1830               01.0276585585E+027.5192701630E+01+
*       5.9919222583E+02               0
GRID*               1831               01.0124431053E+027.4506659247E+01+
*       6.0017553626E+02               0
GRID*               1832               01.0124518038E+027.4506847850E+01+
*       6.0120525686E+02               0
GRID*               1833               01.0205375165E+027.4775140421E+01+
*       5.9969344272E+02               0
GRID*               1834               01.0277013031E+027.5195847374E+01+
*       6.0018844238E+02               0
GRID*               1835               01.0124545954E+027.4506908433E+01+
*       5.9917653553E+02               0
GRID*               1836               09.6669119150E+017.6957532937E+01+
*       5.9478440680E+02               0
GRID*               1837               09.6483054360E+017.7600344760E+01+
*       5.9431765478E+02               0
GRID*               1838               09.6988071728E+017.6323500821E+01+
*       5.9459211423E+02               0
GRID*               1839               09.7342323190E+017.5833712662E+01+
*       5.9414180447E+02               0
GRID*               1840               09.6984135488E+017.6329928694E+01+
*       5.9375768298E+02               0
GRID*               1841               09.6918180984E+017.6441851390E+01+
*       5.9517112823E+02               0
GRID*               1842               09.9515425303E+017.4514304271E+01+
*       5.9293857785E+02               0
GRID*               1843               09.8663078891E+017.4811364624E+01+
*       5.9338271629E+02               0
GRID*               1844               09.9500954913E+017.4517602832E+01+
*       5.9391600804E+02               0
GRID*               1845               09.9515425289E+017.4514304276E+01+
*       5.9190765002E+02               0
GRID*               1846               09.7948949742E+017.5252641442E+01+
*       5.9384103904E+02               0
GRID*               1847               09.7941078435E+017.5258749395E+01+
*       5.9465846859E+02               0
GRID*               1848               09.7957977679E+017.5245674521E+01+
*       5.9286640499E+02               0
GRID*               1849               09.8048420145E+018.1653694891E+01+
*       5.9380554726E+02               0
GRID*               1850               09.7415100696E+018.1081893001E+01+
*       5.9332905431E+02               0
GRID*               1851               09.8021653050E+018.1634104280E+01+
*       5.9283004007E+02               0
GRID*               1852               09.8771331082E+018.2070607872E+01+
*       5.9425818964E+02               0
GRID*               1853               09.9569092224E+018.2329252546E+01+
*       5.9378287842E+02               0
GRID*               1854               09.9571682440E+018.2329799404E+01+
*       5.9474092509E+02               0
GRID*               1855               09.8062099953E+018.1663576400E+01+
*       5.9475781078E+02               0
GRID*               1856               09.8063498719E+018.1664581657E+01+
*       5.9567145947E+02               0
GRID*               1857               09.7446028131E+018.1116096849E+01+
*       5.9520676376E+02               0
GRID*               1858               09.9507646916E+017.4516070358E+01+
*       5.8986552827E+02               0
GRID*               1859               09.9507646936E+017.4516070351E+01+
*       5.9089645611E+02               0
GRID*               1860               09.9505278580E+017.4516611332E+01+
*       5.8883383545E+02               0
GRID*               1861               09.9505278558E+017.4516611340E+01+
*       5.8780290761E+02               0
GRID*               1862               09.8659860352E+017.4812912784E+01+
*       5.8935120557E+02               0
GRID*               1863               09.7896565135E+017.5293888970E+01+
*       5.8883089694E+02               0
GRID*               1864               09.7898487537E+017.5292350112E+01+
*       5.8986025659E+02               0
GRID*               1865               09.7265671565E+017.5927240085E+01+
*       5.9037840191E+02               0
GRID*               1866               09.6776308556E+017.6715627196E+01+
*       5.8987227948E+02               0
GRID*               1867               09.6779777052E+017.6708270731E+01+
*       5.9090691924E+02               0
GRID*               1868               09.7905161113E+017.5287023085E+01+
*       5.9089800625E+02               0
GRID*               1869               09.8669274787E+017.4808390983E+01+
*       5.9139409226E+02               0
GRID*               1870               09.7911923966E+017.5281648516E+01+
*       5.9190622205E+02               0
GRID*               1871               09.6917194758E+018.0388540178E+01+
*       5.9291397243E+02               0
GRID*               1872               09.6564935307E+017.9546452718E+01+
*       5.9243580021E+02               0
GRID*               1873               09.6864772654E+018.0293244093E+01+
*       5.9189671034E+02               0
GRID*               1874               09.6945537547E+018.0437592068E+01+
*       5.9387797327E+02               0
GRID*               1875               09.6948389900E+018.0442421606E+01+
*       5.9485624089E+02               0
GRID*               1876               09.6992897211E+018.0516140681E+01+
*       5.9573624081E+02               0
GRID*               1877               09.6623707177E+017.9740850432E+01+
*       5.9437152467E+02               0
GRID*               1878               09.7309730929E+017.5872779717E+01+
*       5.9237121859E+02               0
GRID*               1879               09.6398843966E+017.8544319701E+01+
*       5.9205001506E+02               0
GRID*               1880               09.6403933179E+017.8639983671E+01+
*       5.9306095225E+02               0
GRID*               1881               09.6487058498E+017.7609580738E+01+
*       5.9153832221E+02               0
GRID*               1882               09.6771240916E+017.6726478714E+01+
*       5.9204128574E+02               0
GRID*               1883               09.6397834541E+017.8522209796E+01+
*       5.9091471939E+02               0
GRID*               1884               09.6447341138E+017.9039652644E+01+
*       5.9400776236E+02               0
GRID*               1885               09.6798836493E+017.6668503491E+01+
*       5.9299441406E+02               0
GRID*               1886               09.6571423976E+017.7258116206E+01+
*       5.9341498662E+02               0
GRID*               1887               09.6414646600E+017.8045831469E+01+
*       5.9365220661E+02               0
GRID*               1888               09.6994395248E+018.0518553008E+01+
*       5.9655290206E+02               0
GRID*               1889               09.8540755306E+017.4872789196E+01+
*       5.9754189124E+02               0
GRID*               1890               09.7834625108E+017.5344525784E+01+
*       5.9712220269E+02               0
GRID*               1891               09.7935675955E+017.5262959770E+01+
*       5.9821737967E+02               0
GRID*               1892               09.9507503517E+017.4516103054E+01+
*       5.9811341953E+02               0
GRID*               1893               09.9507503532E+017.4516103049E+01+
*       5.9914434737E+02               0
GRID*               1894               09.9376273019E+017.4548382940E+01+
*       5.9702405303E+02               0
GRID*               1895               09.9376273042E+017.4548382933E+01+
*       5.9599312519E+02               0
GRID*               1896               09.9500954934E+017.4517602825E+01+
*       5.9494693588E+02               0
GRID*               1897               09.8534792573E+017.4875918790E+01+
*       5.9540633542E+02               0
GRID*               1898               09.6874419097E+017.6520927713E+01+
*       5.9664937897E+02               0
GRID*               1899               09.6905020098E+017.6465195944E+01+
*       5.9736694709E+02               0
GRID*               1900               09.7232687318E+017.5969318631E+01+
*       5.9707575272E+02               0
GRID*               1901               09.6889627364E+017.6492964292E+01+
*       5.9581701056E+02               0
GRID*               1902               09.7255438607E+017.5940170853E+01+
*       5.9561790410E+02               0
GRID*               1903               09.7724800237E+017.5439585924E+01+
*       5.9638208611E+02               0
GRID*               1904               09.7846896263E+017.5334329100E+01+
*       5.9571770665E+02               0
GRID*               1905               09.7420381070E+018.1087794468E+01+
*       5.9705120414E+02               0
GRID*               1906               09.6932219824E+018.0414633018E+01+
*       5.9740092376E+02               0
GRID*               1907               09.8051850722E+018.1656180626E+01+
*       5.9663236415E+02               0
GRID*               1908               09.8759485972E+018.2065315467E+01+
*       5.9616227619E+02               0
GRID*               1909               09.8013974556E+018.1628420786E+01+
*       5.9751982752E+02               0
GRID*               1910               09.8700154688E+018.2038106961E+01+
*       5.9809881567E+02               0
GRID*               1911               09.7962017258E+018.1589214092E+01+
*       5.9850343815E+02               0
GRID*               1912               09.9506399912E+018.2315470926E+01+
*       5.9860411176E+02               0
GRID*               1913               01.0040796745E+028.2415901685E+01+
*       5.9915246526E+02               0
GRID*               1914               09.9504376332E+018.2315008495E+01+
*       5.9963087707E+02               0
GRID*               1915               09.9555176475E+018.2326284779E+01+
*       5.9761519462E+02               0
GRID*               1916               09.9556806047E+018.2326634951E+01+
*       5.9664032693E+02               0
GRID*               1917               01.0040584553E+028.2415906899E+01+
*       5.9715047874E+02               0
GRID*               1918               09.9572665278E+018.2330006496E+01+
*       5.9569831388E+02               0
GRID*               1919               01.0040699072E+028.2415904224E+01+
*       5.9521965913E+02               0
GRID*               1920               01.0279280462E+027.5212680831E+01+
*       6.0117511681E+02               0
GRID*               1921               01.0340280366E+027.5776646359E+01+
*       6.0067387078E+02               0
GRID*               1922               01.0206513625E+027.4780340614E+01+
*       6.0170490365E+02               0
GRID*               1923               01.0125513956E+027.4509021758E+01+
*       6.0222047750E+02               0
GRID*               1924               01.0280153677E+027.5219230200E+01+
*       6.0218877583E+02               0
GRID*               1925               01.0282663601E+027.5238264750E+01+
*       6.0320476074E+02               0
GRID*               1926               01.0344165128E+027.5821569340E+01+
*       6.0267366812E+02               0
GRID*               1927               01.0127689440E+027.4513863213E+01+
*       6.0634085395E+02               0
GRID*               1928               01.0127688608E+027.4513861341E+01+
*       6.0737103914E+02               0
GRID*               1929               01.0126730303E+027.4511712997E+01+
*       6.0530688191E+02               0
GRID*               1930               01.0126729261E+027.4511710672E+01+
*       6.0427700981E+02               0
GRID*               1931               01.0210571639E+027.4799228476E+01+
*       6.0580405235E+02               0
GRID*               1932               01.0286320624E+027.5266563029E+01+
*       6.0629558163E+02               0
GRID*               1933               01.0285565971E+027.5260667958E+01+
*       6.0526286856E+02               0
GRID*               1934               01.0125530773E+027.4509058697E+01+
*       6.0324998627E+02               0
GRID*               1935               01.0208581590E+027.4789896972E+01+
*       6.0374474587E+02               0
GRID*               1936               01.0283620690E+027.5245605598E+01+
*       6.0423030144E+02               0
GRID*               1937               01.0347742612E+027.5864159123E+01+
*       6.0472121741E+02               0
GRID*               1938               01.0123831925E+028.2326458622E+01+
*       5.9570269906E+02               0
GRID*               1939               01.0124210516E+028.2325643092E+01+
*       5.9474506925E+02               0
GRID*               1940               01.0204879852E+028.2058995661E+01+
*       5.9616940708E+02               0
GRID*               1941               01.0125301338E+028.2323270817E+01+
*       5.9664304696E+02               0
GRID*               1942               01.0131181383E+028.2309932181E+01+
*       5.9963150694E+02               0
GRID*               1943               01.0219565511E+028.1988778336E+01+
*       6.0015735479E+02               0
GRID*               1944               01.0134444981E+028.2302123300E+01+
*       6.0070201872E+02               0
GRID*               1945               01.0130620880E+028.2311243998E+01+
*       5.9860486333E+02               0
GRID*               1946               01.0125514830E+028.2322802641E+01+
*       5.9761811998E+02               0
GRID*               1947               01.0210949984E+028.2030860849E+01+
*       5.9810250108E+02               0
GRID*               1948               01.0387410444E+027.6438358038E+01+
*       6.0013413937E+02               0
GRID*               1949               01.0418994336E+027.7152248030E+01+
*       5.9964736410E+02               0
GRID*               1950               01.0388758508E+027.6462223924E+01+
*       6.0112045921E+02               0
GRID*               1951               01.0392105938E+027.6523202638E+01+
*       6.0212329364E+02               0
GRID*               1952               01.0423022120E+027.7274596413E+01+
*       6.0158444059E+02               0
GRID*               1953               01.0393563653E+027.6550580282E+01+
*       6.0313865204E+02               0
GRID*               1954               01.0395798813E+027.6593594932E+01+
*       6.0417128302E+02               0
GRID*               1955               01.0396891068E+027.6615103772E+01+
*       6.0520323124E+02               0
GRID*               1956               01.0426081561E+027.7385454129E+01+
*       6.0361928851E+02               0
GRID*               1957               01.0434189139E+027.9073712110E+01+
*       6.0247039198E+02               0
GRID*               1958               01.0407273282E+027.9995456925E+01+
*       6.0293882724E+02               0
GRID*               1959               01.0410320308E+027.9922770927E+01+
*       6.0188495168E+02               0
GRID*               1960               01.0439339225E+027.8241388725E+01+
*       6.0305621762E+02               0
GRID*               1961               01.0439512130E+027.8289103061E+01+
*       6.0408871494E+02               0
GRID*               1962               01.0438855342E+027.8161476861E+01+
*       6.0200394816E+02               0
GRID*               1963               01.0438482619E+027.8094596433E+01+
*       6.0100263786E+02               0
GRID*               1964               01.0368678061E+028.0691110047E+01+
*       6.0116411102E+02               0
GRID*               1965               01.0413422974E+027.9844309582E+01+
*       6.0070192699E+02               0
GRID*               1966               01.0306592026E+028.1395424238E+01+
*       6.0060034622E+02               0
GRID*               1967               01.0303614896E+028.1421817409E+01+
*       5.9953354653E+02               0
GRID*               1968               01.0300220840E+028.1451269489E+01+
*       6.0178822769E+02               0
GRID*               1969               01.0284523453E+028.1579212676E+01+
*       5.9850603922E+02               0
GRID*               1970               01.0358795247E+028.0827542754E+01+
*       5.9895731935E+02               0
GRID*               1971               01.0279102131E+028.1620435931E+01+
*       5.9752442951E+02               0
GRID*               1972               01.0275182670E+028.1649348428E+01+
*       5.9663878074E+02               0
GRID*               1973               01.0274120428E+028.1657058420E+01+
*       5.9567886936E+02               0
GRID*               1974               01.0338069061E+028.1080191125E+01+
*       5.9705662906E+02               0
GRID*               1975               01.0437366567E+027.8839667475E+01+
*       6.0043689293E+02               0
GRID*               1976               01.0436686666E+027.7935497533E+01+
*       6.0002803669E+02               0
GRID*               1977               01.0418307031E+027.9698065224E+01+
*       5.9972164504E+02               0
GRID*               1978               01.0397930129E+028.0196042064E+01+
*       5.9917930971E+02               0
GRID*               1979               01.0385256361E+028.0430953072E+01+
*       5.9814368111E+02               0
GRID*               1980               01.0431501993E+027.9204487930E+01+
*       5.9893276798E+02               0
GRID*               1981               01.0386571037E+028.0408298257E+01+
*       5.9740342784E+02               0
GRID*               1982               01.0415548131E+027.9786307489E+01+
*       5.9768249363E+02               0
GRID*               1983               01.0380259910E+028.0514155249E+01+
*       5.9655696094E+02               0
GRID*               1984               01.0435990062E+027.7880450764E+01+
*       5.9909276147E+02               0
GRID*               1985               01.0439533350E+027.8536449144E+01+
*       5.9855638265E+02               0
GRID*               1986               01.0433714211E+027.9097650712E+01+
*       5.9809919612E+02               0
GRID*               1987               09.6899028207E+017.6475950415E+01+
*       6.0012600575E+02               0
GRID*               1988               09.6930708999E+017.6419953079E+01+
*       5.9918903546E+02               0
GRID*               1989               09.6591210695E+017.7187331038E+01+
*       5.9964460962E+02               0
GRID*               1990               09.7366299864E+017.5805603660E+01+
*       6.0066052684E+02               0
GRID*               1991               09.7983597610E+017.5226125407E+01+
*       6.0115456834E+02               0
GRID*               1992               09.7991658728E+017.5220041703E+01+
*       6.0016656471E+02               0
GRID*               1993               09.6894649113E+017.6483859833E+01+
*       6.0111187885E+02               0
GRID*               1994               09.6558948904E+017.7294505157E+01+
*       6.0157671100E+02               0
GRID*               1995               09.6865185836E+017.6538204331E+01+
*       6.0211335075E+02               0
GRID*               1996               09.8713086481E+017.4787742809E+01+
*       6.0167695429E+02               0
GRID*               1997               09.9534023566E+017.4510147619E+01+
*       6.0220774941E+02               0
GRID*               1998               09.9536121831E+017.4509684507E+01+
*       6.0118849748E+02               0
GRID*               1999               09.7981714377E+017.5227551286E+01+
*       6.0217042081E+02               0
GRID*               2000               09.7344094999E+017.5831616090E+01+
*       6.0266025855E+02               0
GRID*               2001               09.7961847398E+017.5242700674E+01+
*       6.0318836288E+02               0
GRID*               2002               09.6854197861E+017.6559010697E+01+
*       6.0312853171E+02               0
GRID*               2003               09.6530236707E+017.7397757547E+01+
*       6.0361325717E+02               0
GRID*               2004               09.6831878735E+017.6602217822E+01+
*       6.0416412705E+02               0
GRID*               2005               09.9500970214E+017.4517599291E+01+
*       6.0840560314E+02               0
GRID*               2006               09.9500970222E+017.4517599288E+01+
*       6.0943653098E+02               0
GRID*               2007               09.9512319243E+017.4515007526E+01+
*       6.0736497152E+02               0
GRID*               2008               09.9512319236E+017.4515007528E+01+
*       6.0633404368E+02               0
GRID*               2009               09.8660286947E+017.4812713371E+01+
*       6.0786571488E+02               0
GRID*               2010               09.7906293539E+017.5286121219E+01+
*       6.0732772305E+02               0
GRID*               2011               09.7897230213E+017.5293356067E+01+
*       6.0836751653E+02               0
GRID*               2012               09.9523435736E+017.4512502541E+01+
*       6.0529874081E+02               0
GRID*               2013               09.8681118118E+017.4802749116E+01+
*       6.0578978044E+02               0
GRID*               2014               09.9523435730E+017.4512502543E+01+
*       6.0426781297E+02               0
GRID*               2015               09.9534023570E+017.4510147618E+01+
*       6.0323867725E+02               0
GRID*               2016               09.8701283999E+017.4793243118E+01+
*       6.0372534190E+02               0
GRID*               2017               09.7280956559E+017.5908123899E+01+
*       6.0678760277E+02               0
GRID*               2018               09.6803662544E+017.6658806568E+01+
*       6.0624448294E+02               0
GRID*               2019               09.6794406761E+017.6677354305E+01+
*       6.0728504315E+02               0
GRID*               2020               09.7922953683E+017.5272933730E+01+
*       6.0628564955E+02               0
GRID*               2021               09.7931845975E+017.5265953605E+01+
*       6.0525165849E+02               0
GRID*               2022               09.6820053125E+017.6625661480E+01+
*       6.0519831369E+02               0
GRID*               2023               09.7311227974E+017.5870961122E+01+
*       6.0471127440E+02               0
GRID*               2024               09.6509093124E+017.7480286371E+01+
*       6.0569443498E+02               0
GRID*               2025               09.7953340619E+017.5249247726E+01+
*       6.0421536574E+02               0
GRID*               2026               09.7210415353E+018.0833084052E+01+
*       6.0343224014E+02               0
GRID*               2027               09.7836244078E+018.1488621612E+01+
*       6.0287391061E+02               0
GRID*               2028               09.7879637136E+018.1524267475E+01+
*       6.0395715435E+02               0
GRID*               2029               09.6756400730E+018.0074014491E+01+
*       6.0401985041E+02               0
GRID*               2030               09.6778424671E+018.0121366078E+01+
*       6.0507587692E+02               0
GRID*               2031               09.6481741969E+017.9229195311E+01+
*       6.0458046963E+02               0
GRID*               2032               09.6733615359E+018.0023241831E+01+
*       6.0293853764E+02               0
GRID*               2033               09.6456176592E+017.9097698301E+01+
*       6.0246864574E+02               0
GRID*               2034               09.6701618934E+017.9948486535E+01+
*       6.0188147108E+02               0
GRID*               2035               09.6404517223E+017.8179450687E+01+
*       6.0199807889E+02               0
GRID*               2036               09.6407684980E+017.8120133814E+01+
*       6.0099689867E+02               0
GRID*               2037               09.6400055911E+017.8261410889E+01+
*       6.0305252979E+02               0
GRID*               2038               09.6397509608E+017.8361098593E+01+
*       6.0514304668E+02               0
GRID*               2039               09.6397175484E+017.8397485166E+01+
*       6.0618870613E+02               0
GRID*               2040               09.6398571157E+017.8308755749E+01+
*       6.0408794286E+02               0
GRID*               2041               01.0041619526E+028.2415870765E+01+
*       6.0124717180E+02               0
GRID*               2042               01.0135220404E+028.2300225395E+01+
*       6.0176906629E+02               0
GRID*               2043               09.9478699099E+018.2309043777E+01+
*       6.0069921796E+02               0
GRID*               2044               09.8622899599E+018.2000897983E+01+
*       6.0015393623E+02               0
GRID*               2045               09.9483310408E+018.2310128185E+01+
*       6.0176647413E+02               0
GRID*               2046               09.9507538436E+018.2315730846E+01+
*       6.0285637526E+02               0
GRID*               2047               09.8618598604E+018.1998766176E+01+
*       6.0231014411E+02               0
GRID*               2048               09.7774344100E+018.1435970034E+01+
*       5.9953002209E+02               0
GRID*               2049               09.7217589651E+018.0842385229E+01+
*       5.9895268573E+02               0
GRID*               2050               09.7750035594E+018.1414692498E+01+
*       6.0059532218E+02               0
GRID*               2051               09.7818300751E+018.1473581043E+01+
*       6.0178468851E+02               0
GRID*               2052               09.7124379412E+018.0715302277E+01+
*       6.0116114491E+02               0
GRID*               2053               09.6429876361E+017.7915577529E+01+
*       5.9909005742E+02               0
GRID*               2054               09.6424221997E+017.7962888829E+01+
*       6.0002374960E+02               0
GRID*               2055               09.6452276289E+017.7763152602E+01+
*       5.9824180787E+02               0
GRID*               2056               09.6399643368E+017.8553664193E+01+
*       5.9855585390E+02               0
GRID*               2057               09.6640341927E+017.9791980575E+01+
*       5.9767899264E+02               0
GRID*               2058               09.6947880605E+018.0441474458E+01+
*       5.9813930337E+02               0
GRID*               2059               09.6459152877E+017.9104959291E+01+
*       5.9809726173E+02               0
GRID*               2060               09.6482283644E+017.9223982047E+01+
*       5.9892925791E+02               0
GRID*               2061               09.6671319128E+017.9865197991E+01+
*       6.0069732388E+02               0
GRID*               2062               09.6422429695E+017.8863287182E+01+
*       6.0043353861E+02               0
GRID*               2063               09.6615852478E+017.9721752144E+01+
*       5.9971706965E+02               0
GRID*               2064               09.6823493554E+018.0213070115E+01+
*       5.9917471944E+02               0
GRID*               2065               01.0132445732E+027.4524893001E+01+
*       6.1262666603E+02               0
GRID*               2066               01.0132451212E+027.4524906065E+01+
*       6.1365715796E+02               0
GRID*               2067               01.0217597280E+027.4833249065E+01+
*       6.1212562291E+02               0
GRID*               2068               01.0293393760E+027.5323255716E+01+
*       6.1265384362E+02               0
GRID*               2069               01.0291111490E+027.5304674458E+01+
*       6.1155609866E+02               0
GRID*               2070               01.0129590293E+027.4518197886E+01+
*       6.1152798579E+02               0
GRID*               2071               01.0129588745E+027.4518194314E+01+
*       6.1049747230E+02               0
GRID*               2072               01.0128446962E+027.4515578973E+01+
*       6.0944371836E+02               0
GRID*               2073               01.0128447067E+027.4515579207E+01+
*       6.0841332678E+02               0
GRID*               2074               01.0213903450E+027.4815151451E+01+
*       6.0997408533E+02               0
GRID*               2075               01.0353626455E+027.5936911400E+01+
*       6.1101765686E+02               0
GRID*               2076               01.0401095203E+027.6701866631E+01+
*       6.1153647276E+02               0
GRID*               2077               01.0400508125E+027.6688944479E+01+
*       6.1047047039E+02               0
GRID*               2078               01.0289992839E+027.5295668161E+01+
*       6.1048932694E+02               0
GRID*               2079               01.0289083108E+027.5288392467E+01+
*       6.0943648472E+02               0
GRID*               2080               01.0212150875E+027.4806728714E+01+
*       6.0787905018E+02               0
GRID*               2081               01.0288255071E+027.5281807746E+01+
*       6.0838094788E+02               0
GRID*               2082               01.0352079084E+027.5917439983E+01+
*       6.0889607051E+02               0
GRID*               2083               01.0287658383E+027.5277084830E+01+
*       6.0733970131E+02               0
GRID*               2084               01.0429931073E+027.7538364499E+01+
*       6.0991719670E+02               0
GRID*               2085               01.0439675221E+027.8470896143E+01+
*       6.1042074455E+02               0
GRID*               2086               01.0439677474E+027.8469222539E+01+
*       6.0934948000E+02               0
GRID*               2087               01.0400435739E+027.6687541779E+01+
*       6.0939877714E+02               0
GRID*               2088               01.0399995526E+027.6678180470E+01+
*       6.0834392317E+02               0
GRID*               2089               01.0428431791E+027.9357436423E+01+
*       6.0877853127E+02               0
GRID*               2090               01.0439712102E+027.8425603334E+01+
*       6.0827510345E+02               0
GRID*               2091               01.0396428697E+028.0226735296E+01+
*       6.0922748775E+02               0
GRID*               2092               01.0398374194E+028.0187558434E+01+
*       6.0815324055E+02               0
GRID*               2093               01.0350359792E+027.5896092133E+01+
*       6.0679713831E+02               0
GRID*               2094               01.0399105889E+027.6657344837E+01+
*       6.0728860997E+02               0
GRID*               2095               01.0398269952E+027.6642729318E+01+
*       6.0624513009E+02               0
GRID*               2096               01.0429359881E+027.7514548275E+01+
*       6.0779060460E+02               0
GRID*               2097               01.0439711170E+027.8402910490E+01+
*       6.0722009390E+02               0
GRID*               2098               01.0428079514E+027.7462160995E+01+
*       6.0569368783E+02               0
GRID*               2099               01.0439679170E+027.8363705677E+01+
*       6.0617534012E+02               0
GRID*               2100               01.0430287767E+027.9276520939E+01+
*       6.0665942569E+02               0
GRID*               2101               01.0439627225E+027.8332981779E+01+
*       6.0513356754E+02               0
GRID*               2102               01.0351383511E+028.0922864708E+01+
*       6.0758592475E+02               0
GRID*               2103               01.0289339848E+028.1541347444E+01+
*       6.0804391435E+02               0
GRID*               2104               01.0293582976E+028.1506986288E+01+
*       6.0702755465E+02               0
GRID*               2105               01.0400758913E+028.0138537188E+01+
*       6.0713704127E+02               0
GRID*               2106               01.0402443735E+028.0102930968E+01+
*       6.0609214577E+02               0
GRID*               2107               01.0431985591E+027.9194974141E+01+
*       6.0456937325E+02               0
GRID*               2108               01.0403841984E+028.0072695952E+01+
*       6.0505408795E+02               0
GRID*               2109               01.0356855656E+028.0853185431E+01+
*       6.0553124816E+02               0
GRID*               2110               01.0405644103E+028.0032673797E+01+
*       6.0400865523E+02               0
GRID*               2111               01.0220362464E+028.1984755503E+01+
*       6.0648765901E+02               0
GRID*               2112               01.0138651674E+028.2291629486E+01+
*       6.0700261025E+02               0
GRID*               2113               01.0138666527E+028.2291591139E+01+
*       6.0600462796E+02               0
GRID*               2114               01.0293555414E+028.1507212755E+01+
*       6.0602973360E+02               0
GRID*               2115               01.0296129769E+028.1485897481E+01+
*       6.0499111816E+02               0
GRID*               2116               09.9524478045E+018.2319553853E+01+
*       6.0392081514E+02               0
GRID*               2117               01.0044057466E+028.2415679283E+01+
*       6.0337872869E+02               0
GRID*               2118               09.8680998012E+018.2029070045E+01+
*       6.0446382388E+02               0
GRID*               2119               09.7914730923E+018.1552362396E+01+
*       6.0502111017E+02               0
GRID*               2120               09.9569361173E+018.2329310310E+01+
*       6.0498536272E+02               0
GRID*               2121               01.0048971617E+028.2414839727E+01+
*       6.0548151067E+02               0
GRID*               2122               09.9599486768E+018.2335556941E+01+
*       6.0602374274E+02               0
GRID*               2123               01.0222211623E+028.1975335208E+01+
*       6.0230703787E+02               0
GRID*               2124               01.0299760704E+028.1455210999E+01+
*       6.0286919469E+02               0
GRID*               2125               01.0134530326E+028.2301915901E+01+
*       6.0285072418E+02               0
GRID*               2126               01.0136339324E+028.2297458029E+01+
*       6.0391516847E+02               0
GRID*               2127               01.0135605988E+028.2299276338E+01+
*       6.0496616911E+02               0
GRID*               2128               01.0220988835E+028.1981578058E+01+
*       6.0443896950E+02               0
GRID*               2129               01.0361353885E+028.0793462585E+01+
*       6.0342212916E+02               0
GRID*               2130               01.0296647301E+028.1481568738E+01+
*       6.0394052074E+02               0
GRID*               2131               09.9485443200E+017.4521201564E+01+
*       6.1049071586E+02               0
GRID*               2132               09.9485443208E+017.4521201561E+01+
*       6.1152164370E+02               0
GRID*               2133               09.7254100518E+017.5941869069E+01+
*       6.0888420662E+02               0
GRID*               2134               09.7879979404E+017.5307246085E+01+
*       6.0942346947E+02               0
GRID*               2135               09.6781492873E+017.6705544172E+01+
*       6.0834519318E+02               0
GRID*               2136               09.6772117498E+017.6725201899E+01+
*       6.0939996113E+02               0
GRID*               2137               09.8635420333E+017.4824802017E+01+
*       6.0996053131E+02               0
GRID*               2138               09.7867617347E+017.5317297069E+01+
*       6.1047708501E+02               0
GRID*               2139               09.6493423325E+017.7546567123E+01+
*       6.0779999183E+02               0
GRID*               2140               09.6397247219E+017.8445996860E+01+
*       6.0725317877E+02               0
GRID*               2141               09.6397601069E+017.8476837470E+01+
*       6.0831264227E+02               0
GRID*               2142               09.7282282798E+018.0925101264E+01+
*       6.0557995086E+02               0
GRID*               2143               09.6804461203E+018.0175365349E+01+
*       6.0614076061E+02               0
GRID*               2144               09.7962085035E+018.1589266080E+01+
*       6.0608678417E+02               0
GRID*               2145               09.6503278985E+017.9327521068E+01+
*       6.0670054675E+02               0
GRID*               2146               09.6826069833E+018.0218666801E+01+
*       6.0720537243E+02               0
GRID*               2147               09.9454623410E+017.4528545395E+01+
*       6.1262207403E+02               0
GRID*               2148               09.9454623419E+017.4528545392E+01+
*       6.1365300186E+02               0
GRID*               2149               09.7224712532E+017.5979667983E+01+
*       6.1100335606E+02               0
GRID*               2150               09.7847663764E+017.5333693956E+01+
*       6.1154136886E+02               0
GRID*               2151               09.6766252179E+017.6738129428E+01+
*       6.1046046399E+02               0
GRID*               2152               09.6755771503E+017.6761311740E+01+
*       6.1152371599E+02               0
GRID*               2153               09.8592677263E+017.4846080800E+01+
*       6.1211514645E+02               0
GRID*               2154               09.7823300462E+017.5354009619E+01+
*       6.1264137832E+02               0
GRID*               2155               09.8783247882E+018.2075885815E+01+
*       6.0657439947E+02               0
GRID*               2156               09.8015645975E+018.1629659284E+01+
*       6.0713297173E+02               0
GRID*               2157               09.9665862973E+018.2348471389E+01+
*       6.0707025582E+02               0
GRID*               2158               09.7364121988E+018.1023621703E+01+
*       6.0772282031E+02               0
GRID*               2159               09.6856874446E+018.0278267291E+01+
*       6.0828284113E+02               0
GRID*               2160               09.8069796403E+018.1669094740E+01+
*       6.0821064302E+02               0
GRID*               2161               09.6483579287E+017.7590658785E+01+
*       6.0991990502E+02               0
GRID*               2162               09.6398217547E+017.8508709562E+01+
*       6.0939532676E+02               0
GRID*               2163               09.6398572501E+017.8522867430E+01+
*       6.1045511769E+02               0
GRID*               2164               09.6522083170E+017.9405531390E+01+
*       6.0884756257E+02               0
GRID*               2165               09.6871831372E+018.0306324197E+01+
*       6.0936525220E+02               0
GRID*               2166               09.8163841869E+018.1734378407E+01+
*       6.0925993784E+02               0
GRID*               2167               09.8951024643E+018.2145358791E+01+
*       6.0867005053E+02               0
GRID*               2168               09.8226453477E+018.1775680985E+01+
*       6.1043850064E+02               0
GRID*               2169               09.9237982126E+018.2244280755E+01+
*       6.1076185724E+02               0
GRID*               2170               09.8387996595E+018.1874728977E+01+
*       6.1148104260E+02               0
GRID*               2171               09.7458877861E+018.1130073889E+01+
*       6.0997898325E+02               0
GRID*               2172               09.6908056862E+018.0372241934E+01+
*       6.1054394021E+02               0
GRID*               2173               09.6521269646E+017.9404025329E+01+
*       6.1098600925E+02               0
GRID*               2174               09.6397810677E+017.8489309418E+01+
*       6.1151131094E+02               0
GRID*               2175               09.8744513194E+018.2058559531E+01+
*       6.1234734158E+02               0
GRID*               2176               09.9499595717E+018.2313911881E+01+
*       6.1295235969E+02               0
GRID*               2177               09.8818930888E+018.2091413024E+01+
*       6.1349537703E+02               0
GRID*               2178               09.6891808592E+018.0342939935E+01+
*       6.1159966023E+02               0
GRID*               2179               09.7298833982E+018.0945737908E+01+
*       6.1205386495E+02               0
GRID*               2180               09.6750047227E+018.0058751700E+01+
*       6.1249604758E+02               0
GRID*               2181               09.7802561670E+018.1460241124E+01+
*       6.1202397034E+02               0
GRID*               2182               09.7568598558E+018.1244234845E+01+
*       6.1292032842E+02               0
GRID*               2183               09.6690639132E+017.9919833611E+01+
*       6.1518391943E+02               0
GRID*               2184               09.6427715598E+017.8909193731E+01+
*       6.1518380069E+02               0
GRID*               2185               09.6923090227E+018.0398623257E+01+
*       6.1431367416E+02               0
GRID*               2186               09.7229058714E+018.0857874741E+01+
*       6.1528220063E+02               0
GRID*               2187               09.7331554853E+018.0985350879E+01+
*       6.1368122793E+02               0
GRID*               2188               09.7841559333E+018.1493043549E+01+
*       6.1365121404E+02               0
GRID*               2189               09.6755123606E+018.0069926559E+01+
*       6.1358265137E+02               0
GRID*               2190               09.7969526761E+018.1594962670E+01+
*       6.1528203650E+02               0
GRID*               2191               09.8969847607E+018.2152602581E+01+
*       6.1512624307E+02               0
GRID*               2192               09.9986034615E+018.2394690972E+01+
*       6.1512627000E+02               0
GRID*               2193               09.8503361279E+018.1939215191E+01+
*       6.1425628686E+02               0
GRID*               2194               09.6421919366E+017.7971422257E+01+
*       6.1545303971E+02               0
GRID*               2195               09.6672383379E+017.6957918000E+01+
*       6.1545295143E+02               0
GRID*               2196               09.6397432604E+017.8464748294E+01+
*       6.1448455459E+02               0
GRID*               2197               09.6398138674E+017.8505373516E+01+
*       6.1362925831E+02               0
GRID*               2198               09.6487153324E+017.7572392883E+01+
*       6.1389809906E+02               0
GRID*               2199               09.6516011261E+017.9383610175E+01+
*       6.1312874650E+02               0
GRID*               2200               09.6397883230E+017.8493161009E+01+
*       6.1254220085E+02               0
GRID*               2201               09.6479694769E+017.7608348474E+01+
*       6.1201130728E+02               0
GRID*               2202               09.6754070094E+017.6764781410E+01+
*       6.1255533875E+02               0
GRID*               2203               09.7174100318E+017.6047026365E+01+
*       6.1314251537E+02               0
GRID*               2204               09.7778925413E+017.5391866359E+01+
*       6.1371720467E+02               0
GRID*               2205               09.6730097361E+017.6818519998E+01+
*       6.1363016180E+02               0
GRID*               2206               09.6746425502E+017.6781412314E+01+
*       6.1448596244E+02               0
GRID*               2207               09.7032791855E+017.6252347917E+01+
*       6.1518523316E+02               0
GRID*               2208               09.7707502855E+017.5455207505E+01+
*       6.1518492544E+02               0
GRID*               2209               09.9362376875E+017.4552077701E+01+
*       6.1512135488E+02               0
GRID*               2210               09.8480054869E+017.4905256876E+01+
*       6.1468392972E+02               0
GRID*               2211               01.0059153202E+028.2411171911E+01+
*       6.0750359097E+02               0
GRID*               2212               01.0145507541E+028.2273480571E+01+
*       6.0798633413E+02               0
GRID*               2213               09.9735293159E+018.2360741703E+01+
*       6.0805390967E+02               0
GRID*               2214               09.9848724932E+018.2378096323E+01+
*       6.0910330790E+02               0
GRID*               2215               01.0219787903E+028.1987657987E+01+
*       6.0832198407E+02               0
GRID*               2216               01.0144863715E+028.2275240570E+01+
*       6.0882279446E+02               0
GRID*               2217               01.0288836029E+028.1545364278E+01+
*       6.0888034380E+02               0
GRID*               2218               01.0085548292E+028.2389522654E+01+
*       6.0946033256E+02               0
GRID*               2219               01.0163441169E+028.2219748669E+01+
*       6.0979591196E+02               0
GRID*               2220               01.0004151371E+028.2400038173E+01+
*       6.1007637220E+02               0
GRID*               2221               01.0023067457E+028.2412438154E+01+
*       6.1111888324E+02               0
GRID*               2222               01.0049263798E+028.2414770790E+01+
*       6.1218118640E+02               0
GRID*               2223               01.0057396653E+028.2411990491E+01+
*       6.1332920867E+02               0
GRID*               2224               01.0332686641E+028.1139278163E+01+
*       6.0974046628E+02               0
GRID*               2225               01.0385391654E+028.0428516505E+01+
*       6.1036576861E+02               0
GRID*               2226               01.0130476555E+028.2311577391E+01+
*       6.1149568182E+02               0
GRID*               2227               01.0270437133E+028.1683387203E+01+
*       6.1001852103E+02               0
GRID*               2228               01.0218652168E+028.1993361276E+01+
*       6.1065600895E+02               0
GRID*               2229               01.0241643576E+028.1868807736E+01+
*       6.1171832344E+02               0
GRID*               2230               01.0261049230E+028.1747713781E+01+
*       6.1299630591E+02               0
GRID*               2231               01.0332604395E+028.1140162666E+01+
*       6.1215658491E+02               0
GRID*               2232               01.0121939216E+028.2330473264E+01+
*       6.1542910481E+02               0
GRID*               2233               01.0220407360E+028.1984528208E+01+
*       6.1542907068E+02               0
GRID*               2234               01.0081290688E+028.2394205241E+01+
*       6.1440326221E+02               0
GRID*               2235               01.0178423821E+028.2167705699E+01+
*       6.1363193567E+02               0
GRID*               2236               01.0280580698E+028.1609337139E+01+
*       6.1407031718E+02               0
GRID*               2237               01.0306662907E+028.1394784085E+01+
*       6.1542912831E+02               0
GRID*               2238               01.0368093721E+028.0699876185E+01+
*       6.1479329482E+02               0
GRID*               2239               01.0386520586E+028.0409026189E+01+
*       6.1148492673E+02               0
GRID*               2240               01.0397321726E+028.0208152612E+01+
*       6.1276297701E+02               0
GRID*               2241               01.0427942814E+027.9378137214E+01+
*       6.1097209535E+02               0
GRID*               2242               01.0439700142E+027.8448232504E+01+
*       6.1154020142E+02               0
GRID*               2243               01.0404114148E+028.0065563300E+01+
*       6.1385535604E+02               0
GRID*               2244               01.0431908403E+027.9202163558E+01+
*       6.1318378917E+02               0
GRID*               2245               01.0416691328E+027.9753376080E+01+
*       6.1521428710E+02               0
GRID*               2246               01.0438460628E+027.8731796049E+01+
*       6.1521420249E+02               0
GRID*               2247               01.0439710318E+027.8431279466E+01+
*       6.1258457480E+02               0
GRID*               2248               01.0439459461E+027.8273463328E+01+
*       6.1367717157E+02               0
GRID*               2249               01.0429611271E+027.7523406016E+01+
*       6.1203324999E+02               0
GRID*               2250               01.0400364666E+027.6686355904E+01+
*       6.1258131463E+02               0
GRID*               2251               01.0439330751E+027.8241041960E+01+
*       6.1452461374E+02               0
GRID*               2252               01.0428492073E+027.7475338165E+01+
*       6.1392537816E+02               0
GRID*               2253               01.0436702546E+027.7926113370E+01+
*       6.1546266719E+02               0
GRID*               2254               01.0410494292E+027.6915347018E+01+
*       6.1546261741E+02               0
GRID*               2255               01.0403188502E+027.6746314958E+01+
*       6.1365417032E+02               0
GRID*               2256               01.0401832832E+027.6716989033E+01+
*       6.1450183796E+02               0
GRID*               2257               01.0358542893E+027.6000471038E+01+
*       6.1315729972E+02               0
GRID*               2258               01.0298447725E+027.5365412344E+01+
*       6.1372747221E+02               0
GRID*               2259               01.0374788474E+027.6231356373E+01+
*       6.1519137491E+02               0
GRID*               2260               01.0306797202E+027.5438239505E+01+
*       6.1519123181E+02               0
GRID*               2261               01.0143093414E+027.4551820103E+01+
*       6.1512240749E+02               0
GRID*               2262               01.0229997229E+027.4897516933E+01+
*       6.1468838696E+02               0
GRID*               2263               09.6630587284E+017.7069138974E+01+
*       5.9785613870E+02               0
GRID*               2264               09.6919967342E+017.6438710830E+01+
*       5.9825731222E+02               0
GRID*               2265               09.7353334636E+017.5820737890E+01+
*       5.9874312008E+02               0
GRID*               2266               09.7970935404E+017.5235746354E+01+
*       5.9915769492E+02               0
GRID*               2267               09.9536121828E+017.4509684508E+01+
*       6.0015756964E+02               0
GRID*               2268               09.8688390416E+017.4799303678E+01+
*       5.9964448017E+02               0
GRID*               2269               01.0380296873E+028.0513565122E+01+
*       5.9573970447E+02               0
GRID*               2270               01.0335456543E+028.1109173082E+01+
*       5.9521728200E+02               0
GRID*               2271               01.0384912389E+028.0436915109E+01+
*       5.9486360976E+02               0
GRID*               2272               01.0274378118E+028.1655192779E+01+
*       5.9476940508E+02               0
GRID*               2273               01.0204122648E+028.2062419143E+01+
*       5.9426994112E+02               0
GRID*               2274               01.0276058860E+028.1642948356E+01+
*       5.9382071525E+02               0
GRID*               2275               01.0124789897E+028.2324387373E+01+
*       5.9379048812E+02               0
GRID*               2276               01.0041004285E+028.2415895486E+01+
*       5.9329160739E+02               0
GRID*               2277               01.0125281748E+028.2323314180E+01+
*       5.9282005875E+02               0
GRID*               2278               09.8003863516E+018.1620894891E+01+
*       5.9184977031E+02               0
GRID*               2279               09.8748135606E+018.2060200736E+01+
*       5.9231636438E+02               0
GRID*               2280               09.7355148647E+018.1013026013E+01+
*       5.9135414724E+02               0
GRID*               2281               09.7971760544E+018.1596667650E+01+
*       5.9084096780E+02               0
GRID*               2282               09.9567305433E+018.2328874233E+01+
*       5.9281237422E+02               0
GRID*               2283               09.9552644706E+018.2325738673E+01+
*       5.9182773545E+02               0
GRID*               2284               09.6845812435E+018.0257189390E+01+
*       5.9088929910E+02               0
GRID*               2285               09.6528115788E+017.9409227037E+01+
*       5.9038315362E+02               0
GRID*               2286               09.6827070746E+018.0220624065E+01+
*       5.8984327362E+02               0
GRID*               2287               09.6396733499E+017.8480894437E+01+
*       5.8987181067E+02               0
GRID*               2288               09.6497319361E+017.7573877449E+01+
*       5.8935498018E+02               0
GRID*               2289               09.6396419367E+017.8465312746E+01+
*       5.8882085284E+02               0
GRID*               2290               09.6782534172E+017.6702426976E+01+
*       5.8882226994E+02               0
GRID*               2291               09.7262033134E+017.5931825680E+01+
*       5.8830842311E+02               0
GRID*               2292               09.6783742167E+017.6699874477E+01+
*       5.8778837941E+02               0
GRID*               2293               09.9505591483E+017.4516539777E+01+
*       5.8677116875E+02               0
GRID*               2294               09.8657947629E+017.4813834707E+01+
*       5.8728777392E+02               0
GRID*               2295               09.9505591460E+017.4516539785E+01+
*       5.8574024092E+02               0
GRID*               2296               09.7898092154E+017.5292666493E+01+
*       5.8779516089E+02               0
GRID*               2297               09.7898389894E+017.5292428296E+01+
*       5.8676480227E+02               0
GRID*               2298               01.0124342853E+027.4506468221E+01+
*       5.9814348406E+02               0
GRID*               2299               01.0208199629E+027.4788121738E+01+
*       5.9770576551E+02               0
GRID*               2300               01.0128121366E+027.4514839566E+01+
*       5.9715695609E+02               0
GRID*               2301               01.0383479153E+027.6370799793E+01+
*       5.9650474889E+02               0
GRID*               2302               01.0340670909E+027.5781100002E+01+
*       5.9693098181E+02               0
GRID*               2303               01.0384277587E+027.6384278921E+01+
*       5.9568324222E+02               0
GRID*               2304               01.0278585045E+027.5207491984E+01+
*       5.9725904379E+02               0
GRID*               2305               01.0283908781E+027.5247823859E+01+
*       5.9637900992E+02               0
GRID*               2306               09.7265849625E+018.0904873593E+01+
*       4.3264410691E+02               0
GRID*               2307               09.6790561450E+018.0145845266E+01+
*       4.3316036509E+02               0
GRID*               2308               09.6790205160E+018.0145096100E+01+
*       4.3212824262E+02               0
GRID*               2309               09.7898638384E+018.1539560998E+01+
*       4.3315997727E+02               0
GRID*               2310               09.8657325421E+018.2017730788E+01+
*       4.3367583753E+02               0
GRID*               2311               09.7899817235E+018.1540503560E+01+
*       4.3419208424E+02               0
GRID*               2312               09.7897974842E+018.1539030078E+01+
*       4.3212785545E+02               0
GRID*               2313               09.7896420744E+018.1537785873E+01+
*       4.3109529760E+02               0
GRID*               2314               09.8654172769E+018.2016206233E+01+
*       4.3161117295E+02               0
GRID*               2315               09.9497539418E+018.2313441939E+01+
*       4.3109520819E+02               0
GRID*               2316               09.9499481864E+018.2313889718E+01+
*       4.3212776580E+02               0
GRID*               2317               09.9492028917E+018.2312166387E+01+
*       4.3006210620E+02               0
GRID*               2318               01.0038373875E+028.2415893889E+01+
*       4.3057869987E+02               0
GRID*               2319               09.9503345774E+018.2314777291E+01+
*       4.3419212124E+02               0
GRID*               2320               01.0039537975E+028.2415916056E+01+
*       4.3470809475E+02               0
GRID*               2321               09.9504392292E+018.2315016958E+01+
*       4.3522391695E+02               0
GRID*               2322               09.9501870768E+018.2314438943E+01+
*       4.3316001450E+02               0
GRID*               2323               01.0039185199E+028.2415912937E+01+
*       4.3264405046E+02               0
GRID*               2324               01.0127155248E+028.2319160769E+01+
*       4.3006270963E+02               0
GRID*               2325               01.0127707444E+028.2317920406E+01+
*       4.3109581154E+02               0
GRID*               2326               01.0126272374E+028.2321126828E+01+
*       4.2903021475E+02               0
GRID*               2327               01.0211147486E+028.2029924703E+01+
*       4.2954732688E+02               0
GRID*               2328               01.0287094483E+028.1559147506E+01+
*       4.2903189788E+02               0
GRID*               2329               01.0285942780E+028.1568177268E+01+
*       4.2799906902E+02               0
GRID*               2330               01.0350363223E+028.0935748530E+01+
*       4.2851614714E+02               0
GRID*               2331               01.0287804464E+028.1553547057E+01+
*       4.3006439280E+02               0
GRID*               2332               01.0128184287E+028.2316842681E+01+
*       4.3212816695E+02               0
GRID*               2333               01.0128423508E+028.2316299673E+01+
*       4.3316041556E+02               0
GRID*               2334               01.0212402346E+028.2023945372E+01+
*       4.3161217718E+02               0
GRID*               2335               01.0288379878E+028.1548988977E+01+
*       4.3109666397E+02               0
GRID*               2336               01.0351742987E+028.0918635193E+01+
*       4.3058124831E+02               0
GRID*               2337               01.0288762417E+028.1545949202E+01+
*       4.3212901943E+02               0
GRID*               2338               01.0128739883E+028.2315579122E+01+
*       4.3522417090E+02               0
GRID*               2339               01.0213336287E+028.2019460413E+01+
*       4.3574020877E+02               0
GRID*               2340               01.0128852417E+028.2315322151E+01+
*       4.3625592756E+02               0
GRID*               2341               01.0128635189E+028.2315817884E+01+
*       4.3419237529E+02               0
GRID*               2342               01.0213037351E+028.2020899197E+01+
*       4.3367649234E+02               0
GRID*               2343               01.0288982080E+028.1544200204E+01+
*       4.3316093538E+02               0
GRID*               2344               01.0289151593E+028.1542848774E+01+
*       4.3419289516E+02               0
GRID*               2345               01.0352378106E+028.0910688770E+01+
*       4.3264543571E+02               0
GRID*               2346               01.0289312292E+028.1541566116E+01+
*       4.3625635292E+02               0
GRID*               2347               01.0352697234E+028.0906665308E+01+
*       4.3677237605E+02               0
GRID*               2348               01.0289345152E+028.1541303603E+01+
*       4.3728797552E+02               0
GRID*               2349               01.0289222345E+028.1542284206E+01+
*       4.3522459620E+02               0
GRID*               2350               01.0352611627E+028.0907750965E+01+
*       4.3470905257E+02               0
GRID*               2351               01.0400306061E+028.0147185441E+01+
*       4.3728829456E+02               0
GRID*               2352               01.0429787255E+027.9301339644E+01+
*       4.3780417327E+02               0
GRID*               2353               01.0400328388E+028.0146723647E+01+
*       4.3831991944E+02               0
GRID*               2354               01.0400286656E+028.0147586349E+01+
*       4.3625667149E+02               0
GRID*               2355               01.0400272298E+028.0147882207E+01+
*       4.3522511890E+02               0
GRID*               2356               01.0429769377E+027.9302158021E+01+
*       4.3574099458E+02               0
GRID*               2357               01.0439711454E+027.8410671838E+01+
*       4.3522534833E+02               0
GRID*               2358               01.0439711253E+027.8410357611E+01+
*       4.3625690166E+02               0
GRID*               2359               01.0439711686E+027.8411335479E+01+
*       4.3419380145E+02               0
GRID*               2360               01.0429587584E+027.7521667919E+01+
*       4.3470969870E+02               0
GRID*               2361               01.0439710827E+027.8409771446E+01+
*       4.3831994689E+02               0
GRID*               2362               01.0429563851E+027.7520666317E+01+
*       4.3883551717E+02               0
GRID*               2363               01.0439710616E+027.8409584905E+01+
*       4.3935137755E+02               0
GRID*               2364               01.0439711073E+027.8410269981E+01+
*       4.3728832124E+02               0
GRID*               2365               01.0429570410E+027.7520934975E+01+
*       4.3677266603E+02               0
GRID*               2366               01.0439711990E+027.8413087256E+01+
*       4.3316209668E+02               0
GRID*               2367               01.0439712211E+027.8414920734E+01+
*       4.3213047668E+02               0
GRID*               2368               01.0429643599E+027.7524099824E+01+
*       4.3264653100E+02               0
GRID*               2369               01.0429723841E+027.9304184681E+01+
*       4.3367773684E+02               0
GRID*               2370               01.0400231942E+028.0148719222E+01+
*       4.3419341741E+02               0
GRID*               2371               01.0400155336E+028.0150309508E+01+
*       4.3316171341E+02               0
GRID*               2372               01.0439712185E+027.8419482789E+01+
*       4.3109857452E+02               0
GRID*               2373               01.0439711685E+027.8423769058E+01+
*       4.3006672166E+02               0
GRID*               2374               01.0429779663E+027.7530058246E+01+
*       4.3058305738E+02               0
GRID*               2375               01.0429583625E+027.9310339802E+01+
*       4.3161413035E+02               0
GRID*               2376               01.0400032459E+028.0152858485E+01+
*       4.3212979708E+02               0
GRID*               2377               01.0399833574E+028.0156976274E+01+
*       4.3109789575E+02               0
GRID*               2378               01.0439692821E+027.8455739675E+01+
*       4.2696730354E+02               0
GRID*               2379               01.0439704047E+027.8442095796E+01+
*       4.2800118792E+02               0
GRID*               2380               01.0428719422E+027.9347246949E+01+
*       4.2748284528E+02               0
GRID*               2381               01.0439678787E+027.8467973743E+01+
*       4.2593242433E+02               0
GRID*               2382               01.0430505972E+027.7562653452E+01+
*       4.2645075619E+02               0
GRID*               2383               01.0439708616E+027.8433632024E+01+
*       4.2903397187E+02               0
GRID*               2384               01.0429259217E+027.9324384556E+01+
*       4.2954947890E+02               0
GRID*               2385               01.0430059817E+027.7542476458E+01+
*       4.2851841991E+02               0
GRID*               2386               01.0398434865E+028.0185613063E+01+
*       4.2800004658E+02               0
GRID*               2387               01.0399080339E+028.0172468588E+01+
*       4.2903287552E+02               0
GRID*               2388               01.0397829028E+028.0197840966E+01+
*       4.2696616332E+02               0
GRID*               2389               01.0399512660E+028.0163597051E+01+
*       4.3006562432E+02               0
GRID*               2390               01.0128552474E+027.4515819219E+01+
*       4.4141086789E+02               0
GRID*               2391               01.0213033605E+027.4810951260E+01+
*       4.4089603755E+02               0
GRID*               2392               01.0128569980E+027.4515859100E+01+
*       4.4037972053E+02               0
GRID*               2393               01.0128552469E+027.4515819209E+01+
*       4.4244179510E+02               0
GRID*               2394               01.0399863568E+027.6675506165E+01+
*       4.3935086716E+02               0
GRID*               2395               01.0352108773E+027.5917813416E+01+
*       4.3986610235E+02               0
GRID*               2396               01.0399854681E+027.6675320321E+01+
*       4.4038217316E+02               0
GRID*               2397               01.0399871785E+027.6675678131E+01+
*       4.3831943567E+02               0
GRID*               2398               01.0288773276E+027.5285924815E+01+
*       4.4038115017E+02               0
GRID*               2399               01.0288759245E+027.5285813191E+01+
*       4.4141229645E+02               0
GRID*               2400               01.0288787958E+027.5286041635E+01+
*       4.3934984317E+02               0
GRID*               2401               01.0128569985E+027.4515859108E+01+
*       4.3934879327E+02               0
GRID*               2402               01.0213057432E+027.4811066492E+01+
*       4.3883376245E+02               0
GRID*               2403               01.0128579333E+027.4515880407E+01+
*       4.3831766439E+02               0
GRID*               2404               01.0399878531E+027.6675819635E+01+
*       4.3728812293E+02               0
GRID*               2405               01.0352128673E+027.5918062040E+01+
*       4.3780348259E+02               0
GRID*               2406               01.0399882457E+027.6675902732E+01+
*       4.3625670255E+02               0
GRID*               2407               01.0288795437E+027.5286101134E+01+
*       4.3831871530E+02               0
GRID*               2408               01.0288806251E+027.5286187187E+01+
*       4.3728740161E+02               0
GRID*               2409               01.0130018943E+027.4519188861E+01+
*       4.2387654970E+02               0
GRID*               2410               01.0130018943E+027.4519188859E+01+
*       4.2284562213E+02               0
GRID*               2411               01.0129411944E+027.4517787046E+01+
*       4.2491214357E+02               0
GRID*               2412               01.0215162966E+027.4821268188E+01+
*       4.2438898791E+02               0
GRID*               2413               01.0401667925E+027.6713383765E+01+
*       4.2593473467E+02               0
GRID*               2414               01.0401145494E+027.6702316183E+01+
*       4.2696961454E+02               0
GRID*               2415               01.0402008155E+027.6720639141E+01+
*       4.2490006631E+02               0
GRID*               2416               01.0354360652E+027.5946237770E+01+
*       4.2541893269E+02               0
GRID*               2417               01.0291179657E+027.5305225484E+01+
*       4.2490442239E+02               0
GRID*               2418               01.0291664240E+027.5309149205E+01+
*       4.2386882919E+02               0
GRID*               2419               01.0290558433E+027.5300213605E+01+
*       4.2593909166E+02               0
GRID*               2420               01.0129411944E+027.4517787047E+01+
*       4.2594307107E+02               0
GRID*               2421               01.0129061059E+027.4516981248E+01+
*       4.2697564103E+02               0
GRID*               2422               01.0214277356E+027.4816960157E+01+
*       4.2645715099E+02               0
GRID*               2423               01.0400879030E+027.6696704008E+01+
*       4.2800262929E+02               0
GRID*               2424               01.0400514411E+027.6689061053E+01+
*       4.2903541391E+02               0
GRID*               2425               01.0353482734E+027.5935092898E+01+
*       4.2748661685E+02               0
GRID*               2426               01.0290277671E+027.5297955192E+01+
*       4.2697166089E+02               0
GRID*               2427               01.0289795363E+027.5294085273E+01+
*       4.2800467652E+02               0
GRID*               2428               01.0128579337E+027.4515880414E+01+
*       4.3728673710E+02               0
GRID*               2429               01.0213075223E+027.4811152748E+01+
*       4.3677150772E+02               0
GRID*               2430               01.0128590370E+027.4515905555E+01+
*       4.3625561018E+02               0
GRID*               2431               01.0399898261E+027.6676231794E+01+
*       4.3522537382E+02               0
GRID*               2432               01.0352158508E+027.5918435015E+01+
*       4.3574084014E+02               0
GRID*               2433               01.0399927234E+027.6676833732E+01+
*       4.3419382618E+02               0
GRID*               2434               01.0288815084E+027.5286257476E+01+
*       4.3625627564E+02               0
GRID*               2435               01.0288842155E+027.5286472954E+01+
*       4.3522494601E+02               0
GRID*               2436               01.0129061058E+027.4516981247E+01+
*       4.2800656848E+02               0
GRID*               2437               01.0128837212E+027.4516468927E+01+
*       4.2903825528E+02               0
GRID*               2438               01.0213746037E+027.4814388202E+01+
*       4.2852140693E+02               0
GRID*               2439               01.0400343121E+027.6685484023E+01+
*       4.3006740576E+02               0
GRID*               2440               01.0400157408E+027.6681616071E+01+
*       4.3109925932E+02               0
GRID*               2441               01.0352852962E+027.5927147909E+01+
*       4.2955162445E+02               0
GRID*               2442               01.0289615961E+027.5292648924E+01+
*       4.2903636255E+02               0
GRID*               2443               01.0289308142E+027.5290188351E+01+
*       4.3006835527E+02               0
GRID*               2444               01.0128613932E+027.4515959258E+01+
*       4.3419355228E+02               0
GRID*               2445               01.0128613935E+027.4515959263E+01+
*       4.3316262493E+02               0
GRID*               2446               01.0128590373E+027.4515905561E+01+
*       4.3522468285E+02               0
GRID*               2447               01.0213106173E+027.4811302299E+01+
*       4.3470925126E+02               0
GRID*               2448               01.0288861049E+027.5286623368E+01+
*       4.3419381634E+02               0
GRID*               2449               01.0128710621E+027.4516179798E+01+
*       4.3110050850E+02               0
GRID*               2450               01.0128710619E+027.4516179795E+01+
*       4.3213143588E+02               0
GRID*               2451               01.0128837210E+027.4516468925E+01+
*       4.3006918269E+02               0
GRID*               2452               01.0213422370E+027.4812825880E+01+
*       4.3058441866E+02               0
GRID*               2453               01.0289206591E+027.5289377696E+01+
*       4.3109968027E+02               0
GRID*               2454               01.0213216522E+027.4811833849E+01+
*       4.3264693261E+02               0
GRID*               2455               01.0399989710E+027.6678130576E+01+
*       4.3316241054E+02               0
GRID*               2456               01.0352268431E+027.5919810708E+01+
*       4.3367809481E+02               0
GRID*               2457               01.0400069432E+027.6679786592E+01+
*       4.3213078980E+02               0
GRID*               2458               01.0352482152E+027.5922489240E+01+
*       4.3161514774E+02               0
GRID*               2459               01.0289049604E+027.5288125564E+01+
*       4.3213121161E+02               0
GRID*               2460               01.0288972006E+027.5287507126E+01+
*       4.3316239981E+02               0
GRID*               2461               09.9510582127E+017.4515401944E+01+
*       4.2800463745E+02               0
GRID*               2462               09.8666363423E+017.4809793291E+01+
*       4.2851886107E+02               0
GRID*               2463               09.9509235021E+017.4515708389E+01+
*       4.2903764061E+02               0
GRID*               2464               09.9510582089E+017.4515401956E+01+
*       4.2697370962E+02               0
GRID*               2465               09.9512482128E+017.4514970556E+01+
*       4.2594024530E+02               0
GRID*               2466               09.9512482095E+017.4514970568E+01+
*       4.2490931746E+02               0
GRID*               2467               09.8669372116E+017.4808351118E+01+
*       4.2645239363E+02               0
GRID*               2468               09.7262638504E+018.0900829609E+01+
*       4.3057694811E+02               0
GRID*               2469               09.7893030444E+018.1535067362E+01+
*       4.3006026089E+02               0
GRID*               2470               09.6789269342E+018.0143136688E+01+
*       4.3109447918E+02               0
GRID*               2471               09.6495478960E+017.9297412184E+01+
*       4.3161070703E+02               0
GRID*               2472               09.6787407958E+018.0139237254E+01+
*       4.3005944173E+02               0
GRID*               2473               09.6494341930E+017.9292352987E+01+
*       4.2954178639E+02               0
GRID*               2474               09.6786112851E+018.0136516431E+01+
*       4.2902428514E+02               0
GRID*               2475               09.6397166727E+017.8401334811E+01+
*       4.2902579521E+02               0
GRID*               2476               09.6500537507E+017.7512390314E+01+
*       4.2850908212E+02               0
GRID*               2477               09.6397178707E+017.8398111918E+01+
*       4.2798991971E+02               0
GRID*               2478               09.6397158011E+017.8404360552E+01+
*       4.3006095207E+02               0
GRID*               2479               09.6397154102E+017.8406341202E+01+
*       4.3109485708E+02               0
GRID*               2480               09.6397150889E+017.8408525318E+01+
*       4.3212862072E+02               0
GRID*               2481               09.6499371677E+017.7517459359E+01+
*       4.3057886455E+02               0
GRID*               2482               09.7909226854E+017.5283788496E+01+
*       4.2903256576E+02               0
GRID*               2483               09.7275420490E+017.5915018006E+01+
*       4.2954756857E+02               0
GRID*               2484               09.7907522855E+017.5285142798E+01+
*       4.3006686703E+02               0
GRID*               2485               09.7910308910E+017.5282929303E+01+
*       4.2799956301E+02               0
GRID*               2486               09.7912487061E+017.5281201567E+01+
*       4.2696486281E+02               0
GRID*               2487               09.7914014889E+017.5279991158E+01+
*       4.2593139888E+02               0
GRID*               2488               09.7278523628E+017.5911149238E+01+
*       4.2747856790E+02               0
GRID*               2489               09.6797152408E+017.6672458207E+01+
*       4.3006339769E+02               0
GRID*               2490               09.6796299757E+017.6674229577E+01+
*       4.3109730403E+02               0
GRID*               2491               09.6798084365E+017.6670526125E+01+
*       4.2902909742E+02               0
GRID*               2492               09.6799483201E+017.6667635885E+01+
*       4.2799322073E+02               0
GRID*               2493               09.6800683064E+017.6665161057E+01+
*       4.2695852145E+02               0
GRID*               2494               09.6783521862E+018.0131062751E+01+
*       4.2798627855E+02               0
GRID*               2495               09.7256204455E+018.0892692046E+01+
*       4.2850390543E+02               0
GRID*               2496               09.6492477329E+017.9283995596E+01+
*       4.2746451001E+02               0
GRID*               2497               09.6781149673E+018.0126050911E+01+
*       4.2694415939E+02               0
GRID*               2498               09.8644823734E+018.2011665186E+01+
*       4.2954300109E+02               0
GRID*               2499               09.9483830617E+018.2310253539E+01+
*       4.2902649221E+02               0
GRID*               2500               09.7886470790E+018.1529790442E+01+
*       4.2902464664E+02               0
GRID*               2501               09.7881751993E+018.1525980294E+01+
*       4.2798664084E+02               0
GRID*               2502               09.9513196620E+017.4514808590E+01+
*       4.2386956018E+02               0
GRID*               2503               09.8671795267E+017.4807191850E+01+
*       4.2437917206E+02               0
GRID*               2504               09.9513196591E+017.4514808600E+01+
*       4.2283863234E+02               0
GRID*               2505               09.7917308143E+017.5277386171E+01+
*       4.2488800122E+02               0
GRID*               2506               09.7282903050E+017.5905705810E+01+
*       4.2540047080E+02               0
GRID*               2507               09.7917882896E+017.5276932145E+01+
*       4.2384824429E+02               0
GRID*               2508               09.6397206394E+017.8392557260E+01+
*       4.2694780003E+02               0
GRID*               2509               09.6502576095E+017.7503620202E+01+
*       4.2642874992E+02               0
GRID*               2510               09.6397243524E+017.8386775454E+01+
*       4.2590334476E+02               0
GRID*               2511               09.6803211928E+017.6659967412E+01+
*       4.2591406524E+02               0
GRID*               2512               09.6805042808E+017.6656218049E+01+
*       4.2487066840E+02               0
GRID*               2513               01.0036492440E+028.2415786060E+01+
*       4.2851299626E+02               0
GRID*               2514               01.0124987556E+028.2323950516E+01+
*       4.2799761312E+02               0
GRID*               2515               09.9471032908E+018.2307231182E+01+
*       4.2799389049E+02               0
GRID*               2516               09.8632541234E+018.2005653564E+01+
*       4.2747369909E+02               0
GRID*               2517               09.9465895328E+018.2306005224E+01+
*       4.2696020275E+02               0
GRID*               2518               09.6782146428E+018.0128153116E+01+
*       4.2590328066E+02               0
GRID*               2519               09.7253898515E+018.0889765591E+01+
*       4.2642502118E+02               0
GRID*               2520               09.6491970658E+017.9281706075E+01+
*       4.2537182325E+02               0
GRID*               2521               09.6783518060E+018.0131042648E+01+
*       4.2485271363E+02               0
GRID*               2522               09.7877647961E+018.1522656904E+01+
*       4.2695295282E+02               0
GRID*               2523               09.7879440997E+018.1524109788E+01+
*       4.2591207466E+02               0
GRID*               2524               09.9503923674E+017.4516921455E+01+
*       4.2178853490E+02               0
GRID*               2525               09.8663856017E+017.4810996975E+01+
*       4.2228931737E+02               0
GRID*               2526               09.9503923653E+017.4516921462E+01+
*       4.2075760706E+02               0
GRID*               2527               09.7914896973E+017.5279292975E+01+
*       4.2279711564E+02               0
GRID*               2528               09.7283146879E+017.5905403542E+01+
*       4.2330594520E+02               0
GRID*               2529               09.7907438953E+017.5285209830E+01+
*       4.2174701853E+02               0
GRID*               2530               09.6397220627E+017.8389952623E+01+
*       4.2485277815E+02               0
GRID*               2531               09.6503786291E+017.7498450643E+01+
*       4.2433076705E+02               0
GRID*               2532               09.6397216806E+017.8390422172E+01+
*       4.2379925242E+02               0
GRID*               2533               09.6804825890E+017.6656656112E+01+
*       4.2381714118E+02               0
GRID*               2534               09.6803134444E+017.6660111130E+01+
*       4.2276601373E+02               0
GRID*               2535               01.0208301773E+028.2043287025E+01+
*       4.2748385102E+02               0
GRID*               2536               01.0122790899E+028.2328675648E+01+
*       4.2696663211E+02               0
GRID*               2537               01.0396573084E+028.0222864458E+01+
*       4.2593121334E+02               0
GRID*               2538               01.0395561546E+028.0242706304E+01+
*       4.2489049110E+02               0
GRID*               2539               01.0427868331E+027.9382121103E+01+
*       4.2540823788E+02               0
GRID*               2540               01.0347661132E+028.0968708820E+01+
*       4.2644836538E+02               0
GRID*               2541               01.0284168280E+028.1581957903E+01+
*       4.2696808799E+02               0
GRID*               2542               01.0281945771E+028.1598994662E+01+
*       4.2593313777E+02               0
GRID*               2543               01.0131220915E+027.4521994134E+01+
*       4.2179832333E+02               0
GRID*               2544               01.0131220917E+027.4521994137E+01+
*       4.2076739568E+02               0
GRID*               2545               01.0216834142E+027.4829470651E+01+
*       4.2230609591E+02               0
GRID*               2546               01.0292693011E+027.5317520848E+01+
*       4.2282566967E+02               0
GRID*               2547               01.0355670102E+027.5963012970E+01+
*       4.2334110465E+02               0
GRID*               2548               01.0293648721E+027.5325348915E+01+
*       4.2177837149E+02               0
GRID*               2549               01.0439643503E+027.8490248996E+01+
*       4.2489170066E+02               0
GRID*               2550               01.0439613525E+027.8504903390E+01+
*       4.2384946091E+02               0
GRID*               2551               01.0431069936E+027.7588900898E+01+
*       4.2437363668E+02               0
GRID*               2552               01.0402626882E+027.6733930129E+01+
*       4.2385782581E+02               0
GRID*               2553               01.0403184153E+027.6746010858E+01+
*       4.2281466730E+02               0
GRID*               2554               01.0134083245E+027.4528832305E+01+
*       4.1967381849E+02               0
GRID*               2555               01.0134083255E+027.4528832328E+01+
*       4.1864289089E+02               0
GRID*               2556               01.0220579696E+027.4848206547E+01+
*       4.2016522051E+02               0
GRID*               2557               01.0403329141E+027.6749171770E+01+
*       4.2177408337E+02               0
GRID*               2558               01.0431440298E+027.7606620876E+01+
*       4.2229081317E+02               0
GRID*               2559               01.0404168363E+027.6767608363E+01+
*       4.2072319251E+02               0
GRID*               2560               01.0357714931E+027.5989581336E+01+
*       4.2124705390E+02               0
GRID*               2561               01.0295206539E+027.5338214944E+01+
*       4.2072747954E+02               0
GRID*               2562               01.0297465991E+027.5357112704E+01+
*       4.1963390296E+02               0
GRID*               2563               01.0034110957E+028.2415522068E+01+
*       4.2645662342E+02               0
GRID*               2564               09.9455533778E+018.2303511015E+01+
*       4.2593643151E+02               0
GRID*               2565               01.0121747703E+028.2330874473E+01+
*       4.2594286102E+02               0
GRID*               2566               01.0119268968E+028.2335982744E+01+
*       4.2492225515E+02               0
GRID*               2567               01.0203967803E+028.2063116889E+01+
*       4.2543226423E+02               0
GRID*               2568               01.0279927120E+028.1614256840E+01+
*       4.2491253193E+02               0
GRID*               2569               01.0277271473E+028.1634032790E+01+
*       4.2386856870E+02               0
GRID*               2570               01.0343728247E+028.1015429765E+01+
*       4.2436944790E+02               0
GRID*               2571               01.0439584592E+027.8517053093E+01+
*       4.2279471626E+02               0
GRID*               2572               01.0439575681E+027.8520527429E+01+
*       4.2175413329E+02               0
GRID*               2573               01.0427024399E+027.9415438771E+01+
*       4.2331276913E+02               0
GRID*               2574               01.0394037827E+028.0272091443E+01+
*       4.2384652825E+02               0
GRID*               2575               01.0393472040E+028.0282852402E+01+
*       4.2279178487E+02               0
GRID*               2576               09.9469292596E+017.4525017801E+01+
*       4.1966432650E+02               0
GRID*               2577               09.8623228085E+017.4830807606E+01+
*       4.2014593942E+02               0
GRID*               2578               09.9469292588E+017.4525017804E+01+
*       4.1863339866E+02               0
GRID*               2579               09.6799968853E+017.6666604357E+01+
*       4.2170569184E+02               0
GRID*               2580               09.7266646066E+017.5926012230E+01+
*       4.2119779379E+02               0
GRID*               2581               09.6790137714E+017.6686970624E+01+
*       4.2064867057E+02               0
GRID*               2582               09.6502031462E+017.7505916749E+01+
*       4.2221691802E+02               0
GRID*               2583               09.7889836016E+017.5299290406E+01+
*       4.2068999506E+02               0
GRID*               2584               09.7862199482E+017.5321727881E+01+
*       4.1959671481E+02               0
GRID*               2585               09.6397140494E+017.8409012433E+01+
*       4.2272916608E+02               0
GRID*               2586               09.6397133963E+017.8416202001E+01+
*       4.2166884625E+02               0
GRID*               2587               09.6496758022E+017.9303032989E+01+
*       4.2325116749E+02               0
GRID*               2588               09.6804913367E+018.0175412862E+01+
*       4.2273089178E+02               0
GRID*               2589               09.6796755771E+018.0158660018E+01+
*       4.2380098022E+02               0
GRID*               2590               09.8642719797E+018.2010639116E+01+
*       4.2541356601E+02               0
GRID*               2591               09.9471720109E+018.2307393830E+01+
*       4.2490998643E+02               0
GRID*               2592               09.7274375762E+018.0915569351E+01+
*       4.2433240845E+02               0
GRID*               2593               09.7892401722E+018.1534562008E+01+
*       4.2488562928E+02               0
GRID*               2594               09.7916362338E+018.1553653299E+01+
*       4.2383389566E+02               0
GRID*               2595               01.0273414195E+028.1662157083E+01+
*       4.2287175311E+02               0
GRID*               2596               01.0197293460E+028.2092445944E+01+
*       4.2341484272E+02               0
GRID*               2597               01.0269258449E+028.1691680906E+01+
*       4.2173947006E+02               0
GRID*               2598               01.0176478993E+028.2174838765E+01+
*       4.2145736930E+02               0
GRID*               2599               01.0254581881E+028.1789798055E+01+
*       4.2077881259E+02               0
GRID*               2600               01.0338196438E+028.1078774022E+01+
*       4.2219319649E+02               0
GRID*               2601               01.0391065598E+028.0327762026E+01+
*       4.2165950268E+02               0
GRID*               2602               01.0427751905E+027.9386803347E+01+
*       4.2122910763E+02               0
GRID*               2603               01.0439663535E+027.8478780015E+01+
*       4.2072521455E+02               0
GRID*               2604               01.0220616046E+028.1983470792E+01+
*       4.1994762778E+02               0
GRID*               2605               01.0148776177E+028.2264366458E+01+
*       4.1937703898E+02               0
GRID*               2606               01.0210295124E+028.2033955650E+01+
*       4.1882795686E+02               0
GRID*               2607               01.0393039114E+028.0291031892E+01+
*       4.2063058395E+02               0
GRID*               2608               01.0354193110E+028.0887787804E+01+
*       4.2018883426E+02               0
GRID*               2609               01.0406097266E+028.0020953306E+01+
*       4.1975847773E+02               0
GRID*               2610               01.0307000286E+028.1391758043E+01+
*       4.2022972872E+02               0
GRID*               2611               01.0328558626E+028.1183021909E+01+
*       4.1935763091E+02               0
GRID*               2612               01.0410715941E+027.9911109692E+01+
*       4.1710901481E+02               0
GRID*               2613               01.0436769624E+027.8899912177E+01+
*       4.1710902435E+02               0
GRID*               2614               01.0190119196E+028.2122371675E+01+
*       4.1720482396E+02               0
GRID*               2615               01.0089064401E+028.2385308238E+01+
*       4.1720482305E+02               0
GRID*               2616               01.0388935286E+028.0366404958E+01+
*       4.1797812536E+02               0
GRID*               2617               01.0358179534E+028.0836206733E+01+
*       4.1702135121E+02               0
GRID*               2618               01.0349826033E+028.0942367945E+01+
*       4.1860358035E+02               0
GRID*               2619               01.0301755458E+028.1438031271E+01+
*       4.1864447918E+02               0
GRID*               2620               01.0405455602E+028.0035520758E+01+
*       4.1869126751E+02               0
GRID*               2621               01.0284683817E+028.1577970773E+01+
*       4.1702135975E+02               0
GRID*               2622               01.0238746953E+028.1885585690E+01+
*       4.1807389165E+02               0
GRID*               2623               01.0437227099E+027.7970628115E+01+
*       4.1684335334E+02               0
GRID*               2624               01.0412160433E+027.6957165969E+01+
*       4.1684335347E+02               0
GRID*               2625               01.0439694863E+027.8454193706E+01+
*       4.1780009923E+02               0
GRID*               2626               01.0439637263E+027.8493694500E+01+
*       4.1864460042E+02               0
GRID*               2627               01.0430655003E+027.7569486790E+01+
*       4.1837892465E+02               0
GRID*               2628               01.0428371002E+027.9361707473E+01+
*       4.1913297697E+02               0
GRID*               2629               01.0439665141E+027.8477780375E+01+
*       4.1971181356E+02               0
GRID*               2630               01.0431490366E+027.7609043575E+01+
*       4.2023682806E+02               0
GRID*               2631               01.0404127188E+027.6766698459E+01+
*       4.1970979052E+02               0
GRID*               2632               01.0362281850E+027.6050629408E+01+
*       4.1913259787E+02               0
GRID*               2633               01.0301715330E+027.5393430315E+01+
*       4.1857033829E+02               0
GRID*               2634               01.0406400619E+027.6817893580E+01+
*       4.1864622721E+02               0
GRID*               2635               01.0404804669E+027.6781754591E+01+
*       4.1780172579E+02               0
GRID*               2636               01.0376223615E+027.6253521441E+01+
*       4.1711065810E+02               0
GRID*               2637               01.0308750132E+027.5455871517E+01+
*       4.1711065794E+02               0
GRID*               2638               01.0143188837E+027.4552075523E+01+
*       4.1718320966E+02               0
GRID*               2639               01.0231528902E+027.4905841523E+01+
*       4.1761196281E+02               0
GRID*               2640               01.0034391099E+028.2415560524E+01+
*       4.2444609785E+02               0
GRID*               2641               09.9484825609E+018.2310485145E+01+
*       4.2392323189E+02               0
GRID*               2642               01.0120588069E+028.2333284715E+01+
*       4.2393550085E+02               0
GRID*               2643               01.0115907016E+028.2342650706E+01+
*       4.2293868510E+02               0
GRID*               2644               09.8723973265E+018.2049170695E+01+
*       4.2336673311E+02               0
GRID*               2645               09.9556540679E+018.2326579957E+01+
*       4.2290284431E+02               0
GRID*               2646               09.7974437930E+018.1598707034E+01+
*       4.2281350772E+02               0
GRID*               2647               01.0118761032E+028.2337009478E+01+
*       4.2209424880E+02               0
GRID*               2648               01.0101381499E+028.2368049869E+01+
*       4.2113359079E+02               0
GRID*               2649               01.0038646352E+028.2415902134E+01+
*       4.2261490699E+02               0
GRID*               2650               09.9585008424E+018.2332586069E+01+
*       4.2205840772E+02               0
GRID*               2651               09.7345624303E+018.1002080986E+01+
*       4.2216914209E+02               0
GRID*               2652               09.6841484903E+018.0248202236E+01+
*       4.2161936297E+02               0
GRID*               2653               01.0049567713E+028.2414697314E+01+
*       4.2026184904E+02               0
GRID*               2654               01.0038052198E+028.2415881762E+01+
*       4.1914217602E+02               0
GRID*               2655               09.8039802831E+018.1647422279E+01+
*       4.2170197732E+02               0
GRID*               2656               09.9896279002E+018.2384387632E+01+
*       4.2089872897E+02               0
GRID*               2657               09.9084075076E+018.2194255248E+01+
*       4.2118666624E+02               0
GRID*               2658               09.8301841574E+018.1823219027E+01+
*       4.2054229816E+02               0
GRID*               2659               09.8355785061E+018.1855814876E+01+
*       4.1922825343E+02               0
GRID*               2660               09.7441009761E+018.1110601891E+01+
*       4.1974356464E+02               0
GRID*               2661               09.9864939899E+018.2380306598E+01+
*       4.1696481775E+02               0
GRID*               2662               09.8857069843E+018.2107554989E+01+
*       4.1696481803E+02               0
GRID*               2663               01.0035812324E+028.2415725216E+01+
*       4.1801735820E+02               0
GRID*               2664               09.9363814709E+018.2280147577E+01+
*       4.1890217054E+02               0
GRID*               2665               09.7913991212E+018.1551777135E+01+
*       4.1729090473E+02               0
GRID*               2666               09.7186981279E+018.0802283182E+01+
*       4.1729090186E+02               0
GRID*               2667               09.8336556463E+018.1844329196E+01+
*       4.1810343809E+02               0
GRID*               2668               09.6843397356E+018.0251907273E+01+
*       4.2051857556E+02               0
GRID*               2669               09.6872748536E+018.0307646535E+01+
*       4.1920453153E+02               0
GRID*               2670               09.6501882267E+017.9325278686E+01+
*       4.2108029152E+02               0
GRID*               2671               09.6397135982E+017.8420346672E+01+
*       4.2056805958E+02               0
GRID*               2672               09.6814337493E+018.0194519590E+01+
*       4.1815490166E+02               0
GRID*               2673               09.6475727797E+017.9204812581E+01+
*       4.1892987275E+02               0
GRID*               2674               09.6633022389E+017.9769209836E+01+
*       4.1701626048E+02               0
GRID*               2675               09.6411035950E+017.8748674908E+01+
*       4.1701626060E+02               0
GRID*               2676               09.6397133345E+017.8416717144E+01+
*       4.1954365146E+02               0
GRID*               2677               09.6399131469E+017.8289571817E+01+
*       4.1849400908E+02               0
GRID*               2678               09.6501219397E+017.7509390341E+01+
*       4.2013218711E+02               0
GRID*               2679               09.6791704913E+017.6683701275E+01+
*       4.1962426154E+02               0
GRID*               2680               09.6400095442E+017.8262081619E+01+
*       4.1767339705E+02               0
GRID*               2681               09.6508395362E+017.7479075784E+01+
*       4.1828716940E+02               0
GRID*               2682               09.6426704900E+017.7930488601E+01+
*       4.1680939836E+02               0
GRID*               2683               09.6687629792E+017.6919535393E+01+
*       4.1680942630E+02               0
GRID*               2684               09.6761711063E+017.6747585367E+01+
*       4.1856683867E+02               0
GRID*               2685               09.6773292650E+017.6722567764E+01+
*       4.1774622864E+02               0
GRID*               2686               09.7209527332E+017.5999569960E+01+
*       4.1908334327E+02               0
GRID*               2687               09.7808124314E+017.5366831099E+01+
*       4.1853928683E+02               0
GRID*               2688               09.7045385884E+017.6232894696E+01+
*       4.1708909923E+02               0
GRID*               2689               09.7724970886E+017.5439433342E+01+
*       4.1708909889E+02               0
GRID*               2690               09.9362376874E+017.4552077702E+01+
*       4.1718321055E+02               0
GRID*               2691               09.8493347854E+017.4898032490E+01+
*       4.1760247081E+02               0
GRID*               2692               01.0352113951E+027.5917878484E+01+
*       4.4192837345E+02               0
GRID*               2693               01.0288779760E+027.5285976454E+01+
*       4.4244326155E+02               0
GRID*               2694               01.0399884878E+027.6675941737E+01+
*       4.4244408954E+02               0
GRID*               2695               01.0399880593E+027.6675851121E+01+
*       4.4347523881E+02               0
GRID*               2696               01.0429576645E+027.7521261929E+01+
*       4.4296000099E+02               0
GRID*               2697               01.0399874153E+027.6675721543E+01+
*       4.4141312550E+02               0
GRID*               2698               01.0429569264E+027.7520920529E+01+
*       4.4089790023E+02               0
GRID*               2699               01.0439709920E+027.8410273758E+01+
*       4.4347580332E+02               0
GRID*               2700               01.0439710143E+027.8410370744E+01+
*       4.4244465500E+02               0
GRID*               2701               01.0439709713E+027.8410347196E+01+
*       4.4450678102E+02               0
GRID*               2702               01.0429787815E+027.9301420178E+01+
*       4.4399142345E+02               0
GRID*               2703               01.0439710469E+027.8409858291E+01+
*       4.4038254944E+02               0
GRID*               2704               01.0429794874E+027.9301066057E+01+
*       4.3986696915E+02               0
GRID*               2705               01.0439710337E+027.8410308008E+01+
*       4.4141350088E+02               0
GRID*               2706               01.0429789667E+027.9301349623E+01+
*       4.4192929316E+02               0
GRID*               2707               01.0400305459E+028.0147224107E+01+
*       4.4450700209E+02               0
GRID*               2708               01.0400307821E+028.0147170842E+01+
*       4.4347602525E+02               0
GRID*               2709               01.0400299077E+028.0147361203E+01+
*       4.4553776024E+02               0
GRID*               2710               01.0352706042E+028.0906534385E+01+
*       4.4502231206E+02               0
GRID*               2711               01.0400313763E+028.0147043089E+01+
*       4.4244498908E+02               0
GRID*               2712               01.0400315678E+028.0146999356E+01+
*       4.4141383578E+02               0
GRID*               2713               01.0352711721E+028.0906310561E+01+
*       4.4296052177E+02               0
GRID*               2714               01.0400325996E+028.0146776990E+01+
*       4.3935132965E+02               0
GRID*               2715               01.0352722522E+028.0906334343E+01+
*       4.3883540835E+02               0
GRID*               2716               01.0400314964E+028.0147010490E+01+
*       4.4038250076E+02               0
GRID*               2717               01.0352722681E+028.0906315358E+01+
*       4.4089815282E+02               0
GRID*               2718               01.0289293057E+028.1541718655E+01+
*       4.4553753626E+02               0
GRID*               2719               01.0289306979E+028.1541607625E+01+
*       4.4450677869E+02               0
GRID*               2720               01.0289283703E+028.1541793208E+01+
*       4.4656828994E+02               0
GRID*               2721               01.0213392713E+028.2019188539E+01+
*       4.4605276540E+02               0
GRID*               2722               01.0128814978E+028.2315406920E+01+
*       4.4656810631E+02               0
GRID*               2723               01.0128797162E+028.2315447508E+01+
*       4.4759866089E+02               0
GRID*               2724               01.0039615740E+028.2415916323E+01+
*       4.4708324966E+02               0
GRID*               2725               01.0128826209E+028.2315381357E+01+
*       4.4553735273E+02               0
GRID*               2726               01.0289317282E+028.1541525481E+01+
*       4.4347581428E+02               0
GRID*               2727               01.0289330364E+028.1541421141E+01+
*       4.4244477866E+02               0
GRID*               2728               01.0213414410E+028.2019083942E+01+
*       4.4399104742E+02               0
GRID*               2729               01.0128839766E+028.2315350479E+01+
*       4.4450648415E+02               0
GRID*               2730               01.0039647747E+028.2415916389E+01+
*       4.4502182642E+02               0
GRID*               2731               01.0128852195E+028.2315322168E+01+
*       4.4347551983E+02               0
GRID*               2732               01.0289336513E+028.1541372155E+01+
*       4.4141357235E+02               0
GRID*               2733               01.0289337516E+028.1541364258E+01+
*       4.4038223785E+02               0
GRID*               2734               01.0213432468E+028.2018996875E+01+
*       4.4192887680E+02               0
GRID*               2735               01.0128861043E+028.2315302031E+01+
*       4.4244437402E+02               0
GRID*               2736               01.0039670567E+028.2415916420E+01+
*       4.4295981195E+02               0
GRID*               2737               01.0128868307E+028.2315285510E+01+
*       4.4141316779E+02               0
GRID*               2738               01.0289343559E+028.1541316218E+01+
*       4.3831944118E+02               0
GRID*               2739               01.0213438573E+028.2018967418E+01+
*       4.3780343107E+02               0
GRID*               2740               01.0289336982E+028.1541368635E+01+
*       4.3935085088E+02               0
GRID*               2741               01.0213438114E+028.2018969641E+01+
*       4.3986628362E+02               0
GRID*               2742               01.0128871852E+028.2315277484E+01+
*       4.4038183195E+02               0
GRID*               2743               01.0128870798E+028.2315279962E+01+
*       4.3935044506E+02               0
GRID*               2744               01.0039683129E+028.2415916431E+01+
*       4.4089733023E+02               0
GRID*               2745               01.0128865313E+028.2315292627E+01+
*       4.3728749914E+02               0
GRID*               2746               01.0039658694E+028.2415916405E+01+
*       4.3677146202E+02               0
GRID*               2747               01.0128863692E+028.2315296265E+01+
*       4.3831896473E+02               0
GRID*               2748               01.0039679338E+028.2415916428E+01+
*       4.3883451399E+02               0
GRID*               2749               09.9504257545E+018.2314978549E+01+
*       4.4759838110E+02               0
GRID*               2750               09.9504425829E+018.2315017950E+01+
*       4.4656782634E+02               0
GRID*               2751               09.9504015010E+018.2314922207E+01+
*       4.4862894724E+02               0
GRID*               2752               09.8658492864E+018.2018294444E+01+
*       4.4811352487E+02               0
GRID*               2753               09.6790151311E+018.0145126717E+01+
*       4.4965913718E+02               0
GRID*               2754               09.6789986854E+018.0144794311E+01+
*       4.5068951553E+02               0
GRID*               2755               09.6495729309E+017.9298631335E+01+
*       4.5017422140E+02               0
GRID*               2756               09.6790333503E+018.0145496256E+01+
*       4.4862863347E+02               0
GRID*               2757               09.7265840380E+018.0904811742E+01+
*       4.4914389776E+02               0
GRID*               2758               09.7899564708E+018.1540303959E+01+
*       4.4862873895E+02               0
GRID*               2759               09.7899771242E+018.1540468851E+01+
*       4.4759817248E+02               0
GRID*               2760               09.7899256447E+018.1540057729E+01+
*       4.4965924176E+02               0
GRID*               2761               09.9504569686E+018.2315051834E+01+
*       4.4553701607E+02               0
GRID*               2762               09.9504693753E+018.2315081272E+01+
*       4.4450614731E+02               0
GRID*               2763               09.8658866243E+018.2018474634E+01+
*       4.4605214823E+02               0
GRID*               2764               09.6790434700E+018.0145697036E+01+
*       4.4759796052E+02               0
GRID*               2765               09.6495866171E+017.9299221055E+01+
*       4.4811316918E+02               0
GRID*               2766               09.6790534672E+018.0145895469E+01+
*       4.4656719936E+02               0
GRID*               2767               09.7266250813E+018.0905339234E+01+
*       4.4708263349E+02               0
GRID*               2768               09.7899931161E+018.1540596474E+01+
*       4.4656741216E+02               0
GRID*               2769               09.7900059806E+018.1540699098E+01+
*       4.4553660160E+02               0
GRID*               2770               09.9504774288E+018.2315100760E+01+
*       4.4347510464E+02               0
GRID*               2771               09.9504852772E+018.2315119624E+01+
*       4.4244395866E+02               0
GRID*               2772               09.8659092556E+018.2018583829E+01+
*       4.4399029510E+02               0
GRID*               2773               09.6790596711E+018.0146015032E+01+
*       4.4553626051E+02               0
GRID*               2774               09.6495950675E+017.9299579727E+01+
*       4.4605155653E+02               0
GRID*               2775               09.6790656089E+018.0146129285E+01+
*       4.4450527985E+02               0
GRID*               2776               09.7266498596E+018.0905660708E+01+
*       4.4502089222E+02               0
GRID*               2777               09.7900146670E+018.1540768334E+01+
*       4.4450562174E+02               0
GRID*               2778               09.7900225322E+018.1540831007E+01+
*       4.4347457882E+02               0
GRID*               2779               09.9504886932E+018.2315128193E+01+
*       4.4141272918E+02               0
GRID*               2780               09.9504915440E+018.2315135329E+01+
*       4.4038139319E+02               0
GRID*               2781               09.8659215746E+018.2018643263E+01+
*       4.4192802277E+02               0
GRID*               2782               09.6790691469E+018.0146193759E+01+
*       4.4347418234E+02               0
GRID*               2783               09.6496001505E+017.9299790231E+01+
*       4.4398951937E+02               0
GRID*               2784               09.6790727275E+018.0146259380E+01+
*       4.4244303268E+02               0
GRID*               2785               09.7266643588E+018.0905851039E+01+
*       4.4295876257E+02               0
GRID*               2786               09.7900269885E+018.1540866445E+01+
*       4.4244342992E+02               0
GRID*               2787               09.7900308747E+018.1540897330E+01+
*       4.4141220019E+02               0
GRID*               2788               09.9504862526E+018.2315123708E+01+
*       4.3935002867E+02               0
GRID*               2789               09.9504787213E+018.2315106843E+01+
*       4.3831854821E+02               0
GRID*               2790               09.8659210393E+018.2018640685E+01+
*       4.3986542857E+02               0
GRID*               2791               09.9504561649E+018.2315055647E+01+
*       4.3625549375E+02               0
GRID*               2792               09.8658841566E+018.2018462750E+01+
*       4.3573952128E+02               0
GRID*               2793               09.9504692667E+018.2315085469E+01+
*       4.3728706544E+02               0
GRID*               2794               09.8659081630E+018.2018578572E+01+
*       4.3780258106E+02               0
GRID*               2795               09.7899999174E+018.1540649085E+01+
*       4.3522364110E+02               0
GRID*               2796               09.7266506835E+018.0905697871E+01+
*       4.3470778596E+02               0
GRID*               2797               09.7900129720E+018.1540753536E+01+
*       4.3625521813E+02               0
GRID*               2798               09.7900162637E+018.1540779982E+01+
*       4.3728669618E+02               0
GRID*               2799               09.7266660376E+018.0905887782E+01+
*       4.3677082130E+02               0
GRID*               2800               09.6790739590E+018.0146244089E+01+
*       4.3728651285E+02               0
GRID*               2801               09.6790732170E+018.0146221298E+01+
*       4.3625503414E+02               0
GRID*               2802               09.6790736770E+018.0146245830E+01+
*       4.3831787899E+02               0
GRID*               2803               09.6496036038E+017.9299905380E+01+
*       4.3780206154E+02               0
GRID*               2804               09.6790652719E+018.0146041947E+01+
*       4.3419200596E+02               0
GRID*               2805               09.6496003087E+017.9299739293E+01+
*       4.3367611195E+02               0
GRID*               2806               09.6790742622E+018.0146236069E+01+
*       4.3522356347E+02               0
GRID*               2807               09.6496043645E+017.9299928237E+01+
*       4.3573922410E+02               0
GRID*               2808               09.6790739102E+018.0146275281E+01+
*       4.4141183353E+02               0
GRID*               2809               09.6790767513E+018.0146326023E+01+
*       4.4038054622E+02               0
GRID*               2810               09.7266735825E+018.0905973455E+01+
*       4.4089632635E+02               0
GRID*               2811               09.6496026624E+017.9299887900E+01+
*       4.4192722197E+02               0
GRID*               2812               09.6790767616E+018.0146318039E+01+
*       4.3934924934E+02               0
GRID*               2813               09.7266726072E+018.0905966331E+01+
*       4.3883366950E+02               0
GRID*               2814               09.6496033660E+017.9299906505E+01+
*       4.3986472523E+02               0
GRID*               2815               09.7900340215E+018.1540922310E+01+
*       4.4038091360E+02               0
GRID*               2816               09.7900306869E+018.1540895515E+01+
*       4.3934954884E+02               0
GRID*               2817               09.7900231410E+018.1540835078E+01+
*       4.3831817919E+02               0
GRID*               2818               09.9508887554E+017.4515787427E+01+
*       4.5068861126E+02               0
GRID*               2819               09.9508887539E+017.4515787432E+01+
*       4.4965768343E+02               0
GRID*               2820               09.9508777017E+017.4515812603E+01+
*       4.5171929516E+02               0
GRID*               2821               09.9508777023E+017.4515812601E+01+
*       4.5275022299E+02               0
GRID*               2822               09.8664417677E+017.4810730880E+01+
*       4.5120407674E+02               0
GRID*               2823               09.7907025765E+017.5285537341E+01+
*       4.5068883218E+02               0
GRID*               2824               09.7906937305E+017.5285607701E+01+
*       4.5171951519E+02               0
GRID*               2825               09.9508992271E+017.4515763576E+01+
*       4.5378090149E+02               0
GRID*               2826               09.9508992266E+017.4515763578E+01+
*       4.5481182933E+02               0
GRID*               2827               09.8664521129E+017.4810681597E+01+
*       4.5326543911E+02               0
GRID*               2828               09.7907154962E+017.5285434549E+01+
*       4.5274999530E+02               0
GRID*               2829               09.7907327979E+017.5285296931E+01+
*       4.5378067285E+02               0
GRID*               2830               09.7273941178E+017.5916861598E+01+
*       4.5223474979E+02               0
GRID*               2831               09.6796555621E+017.6674044324E+01+
*       4.5171951667E+02               0
GRID*               2832               09.6796680719E+017.6673819339E+01+
*       4.5274999508E+02               0
GRID*               2833               09.9508816565E+017.4515803669E+01+
*       4.3213094848E+02               0
GRID*               2834               09.9508816521E+017.4515803684E+01+
*       4.3110002064E+02               0
GRID*               2835               09.9508731854E+017.4515822960E+01+
*       4.3316225549E+02               0
GRID*               2836               09.9508731898E+017.4515822945E+01+
*       4.3419318333E+02               0
GRID*               2837               09.8664266050E+017.4810800758E+01+
*       4.3264607557E+02               0
GRID*               2838               09.7906897874E+017.5285639819E+01+
*       4.3213001242E+02               0
GRID*               2839               09.7906830780E+017.5285693149E+01+
*       4.3316131897E+02               0
GRID*               2840               09.9509235062E+017.4515708375E+01+
*       4.3006856844E+02               0
GRID*               2841               09.8664729326E+017.4810577967E+01+
*       4.3058331639E+02               0
GRID*               2842               09.7907187501E+017.5285409469E+01+
*       4.3109831880E+02               0
GRID*               2843               09.7273830469E+017.5917003980E+01+
*       4.3161356261E+02               0
GRID*               2844               09.6796157649E+017.6674533163E+01+
*       4.3212899651E+02               0
GRID*               2845               09.7273471708E+017.5917452177E+01+
*       4.3367666096E+02               0
GRID*               2846               09.7906665488E+017.5285824614E+01+
*       4.3419272461E+02               0
GRID*               2847               09.6795939979E+017.6674993862E+01+
*       4.3316072815E+02               0
GRID*               2848               09.6498816231E+017.7519902067E+01+
*       4.3264450198E+02               0
GRID*               2849               09.6795867450E+017.6675154990E+01+
*       4.3419213260E+02               0
GRID*               2850               09.6498725691E+017.7520328876E+01+
*       4.3470773233E+02               0
GRID*               2851               09.6795917977E+017.6675062165E+01+
*       4.3522363185E+02               0
GRID*               2852               09.6397155116E+017.8409192463E+01+
*       4.3522348934E+02               0
GRID*               2853               09.6397157236E+017.8409187028E+01+
*       4.3625496001E+02               0
GRID*               2854               09.6397152999E+017.8409282159E+01+
*       4.3419199172E+02               0
GRID*               2855               09.6397151591E+017.8409051700E+01+
*       4.3316035084E+02               0
GRID*               2856               09.6397196783E+017.8408596286E+01+
*       4.4862823499E+02               0
GRID*               2857               09.6397201296E+017.8408524342E+01+
*       4.4965881393E+02               0
GRID*               2858               09.6498893546E+017.7519920403E+01+
*       4.4914323545E+02               0
GRID*               2859               09.6397192158E+017.8408817837E+01+
*       4.4759756183E+02               0
GRID*               2860               09.6397206617E+017.8408156587E+01+
*       4.5068919256E+02               0
GRID*               2861               09.6397212632E+017.8407579838E+01+
*       4.5171968243E+02               0
GRID*               2862               09.6499045547E+017.7519317641E+01+
*       4.5120430772E+02               0
GRID*               2863               09.7273684829E+017.5917182479E+01+
*       4.5017362871E+02               0
GRID*               2864               09.7906932641E+017.5285611441E+01+
*       4.4965818950E+02               0
GRID*               2865               09.6796312196E+017.6674521347E+01+
*       4.5068902408E+02               0
GRID*               2866               09.6796252647E+017.6674619508E+01+
*       4.4965838295E+02               0
GRID*               2867               09.6796224789E+017.6674653249E+01+
*       4.4862780154E+02               0
GRID*               2868               09.9508634350E+017.4515845109E+01+
*       4.4862678517E+02               0
GRID*               2869               09.9508634327E+017.4515845117E+01+
*       4.4759585734E+02               0
GRID*               2870               09.8664279288E+017.4810796968E+01+
*       4.4914249463E+02               0
GRID*               2871               09.7906728785E+017.5285773653E+01+
*       4.4862729204E+02               0
GRID*               2872               09.9508767919E+017.4515814686E+01+
*       4.4656497205E+02               0
GRID*               2873               09.9508767890E+017.4515814696E+01+
*       4.4553404422E+02               0
GRID*               2874               09.8664162542E+017.4810852678E+01+
*       4.4708071111E+02               0
GRID*               2875               09.7906592414E+017.5285882190E+01+
*       4.4759642718E+02               0
GRID*               2876               09.7906699081E+017.5285797344E+01+
*       4.4656554264E+02               0
GRID*               2877               09.7273493657E+017.5917421929E+01+
*       4.4811212273E+02               0
GRID*               2878               09.6796137927E+017.6674810076E+01+
*       4.4759693818E+02               0
GRID*               2879               09.6397179973E+017.8409205784E+01+
*       4.4450476244E+02               0
GRID*               2880               09.6397183461E+017.8409283913E+01+
*       4.4553572718E+02               0
GRID*               2881               09.6498731692E+017.7520517028E+01+
*       4.4501989399E+02               0
GRID*               2882               09.6397176398E+017.8409273629E+01+
*       4.4347366481E+02               0
GRID*               2883               09.6397187516E+017.8409153468E+01+
*       4.4656666619E+02               0
GRID*               2884               09.6498795831E+017.7520290224E+01+
*       4.4708175755E+02               0
GRID*               2885               09.7273362846E+017.5917585931E+01+
*       4.4605032691E+02               0
GRID*               2886               09.7906681187E+017.5285811615E+01+
*       4.4553461021E+02               0
GRID*               2887               09.6795992087E+017.6675089966E+01+
*       4.4656604022E+02               0
GRID*               2888               09.6795968423E+017.6675118119E+01+
*       4.4553510926E+02               0
GRID*               2889               09.6795999521E+017.6675033917E+01+
*       4.4450414239E+02               0
GRID*               2890               09.9508556614E+017.4515862875E+01+
*       4.3522429497E+02               0
GRID*               2891               09.9508556659E+017.4515862860E+01+
*       4.3625522281E+02               0
GRID*               2892               09.8664028659E+017.4810915081E+01+
*       4.3470849420E+02               0
GRID*               2893               09.7906525666E+017.5285935825E+01+
*       4.3522383577E+02               0
GRID*               2894               09.9508640567E+017.4515843737E+01+
*       4.3728630460E+02               0
GRID*               2895               09.9508640611E+017.4515843722E+01+
*       4.3831723243E+02               0
GRID*               2896               09.8663947943E+017.4810954143E+01+
*       4.3677068760E+02               0
GRID*               2897               09.7906494929E+017.5285960234E+01+
*       4.3625509015E+02               0
GRID*               2898               09.7906563309E+017.5285905768E+01+
*       4.3728617141E+02               0
GRID*               2899               09.7273320451E+017.5917640964E+01+
*       4.3573932001E+02               0
GRID*               2900               09.6795920361E+017.6675069701E+01+
*       4.3625488499E+02               0
GRID*               2901               09.7273230380E+017.5917753232E+01+
*       4.3780174237E+02               0
GRID*               2902               09.7906474007E+017.5285976783E+01+
*       4.3831734042E+02               0
GRID*               2903               09.6795807138E+017.6675317239E+01+
*       4.3728619432E+02               0
GRID*               2904               09.6498689526E+017.7520522551E+01+
*       4.3677054031E+02               0
GRID*               2905               09.6795776575E+017.6675394465E+01+
*       4.3831736204E+02               0
GRID*               2906               09.6498680676E+017.7520600708E+01+
*       4.3883310248E+02               0
GRID*               2907               09.6795878204E+017.6675198866E+01+
*       4.3934861556E+02               0
GRID*               2908               09.6397164362E+017.8409270292E+01+
*       4.3934888556E+02               0
GRID*               2909               09.6397167086E+017.8409286440E+01+
*       4.4038018250E+02               0
GRID*               2910               09.6397161407E+017.8409482263E+01+
*       4.3831763385E+02               0
GRID*               2911               09.6397159004E+017.8409471151E+01+
*       4.3728626768E+02               0
GRID*               2912               09.6397169581E+017.8409528342E+01+
*       4.4141134198E+02               0
GRID*               2913               09.6498681138E+017.7520641636E+01+
*       4.4089551654E+02               0
GRID*               2914               09.6397172696E+017.8409516146E+01+
*       4.4244254121E+02               0
GRID*               2915               09.6498688207E+017.7520657036E+01+
*       4.4295780257E+02               0
GRID*               2916               09.6795933942E+017.6675150662E+01+
*       4.4347310583E+02               0
GRID*               2917               09.6795822947E+017.6675362306E+01+
*       4.4244198021E+02               0
GRID*               2918               09.7273269711E+017.5917702827E+01+
*       4.4398835785E+02               0
GRID*               2919               09.6795862192E+017.6675247542E+01+
*       4.4037974260E+02               0
GRID*               2920               09.7273115782E+017.5917896171E+01+
*       4.3986403865E+02               0
GRID*               2921               09.6795764476E+017.6675466138E+01+
*       4.4141090394E+02               0
GRID*               2922               09.7273132043E+017.5917875426E+01+
*       4.4192624349E+02               0
GRID*               2923               09.9508526251E+017.4515869764E+01+
*       4.4141021154E+02               0
GRID*               2924               09.9508526291E+017.4515869751E+01+
*       4.4244113938E+02               0
GRID*               2925               09.8663866871E+017.4810993401E+01+
*       4.3883280008E+02               0
GRID*               2926               09.9508464576E+017.4515883827E+01+
*       4.3934826315E+02               0
GRID*               2927               09.7906333569E+017.5286088500E+01+
*       4.3934837058E+02               0
GRID*               2928               09.7906271686E+017.5286137704E+01+
*       4.4037949896E+02               0
GRID*               2929               09.9508464618E+017.4515883813E+01+
*       4.4037919099E+02               0
GRID*               2930               09.8663765475E+017.4811042451E+01+
*       4.4089485134E+02               0
GRID*               2931               09.7906322104E+017.5286097531E+01+
*       4.4141051892E+02               0
GRID*               2932               09.7906396015E+017.5286038664E+01+
*       4.4244159656E+02               0
GRID*               2933               09.9508520197E+017.4515871135E+01+
*       4.4347213064E+02               0
GRID*               2934               09.8663821948E+017.4811015641E+01+
*       4.4295686312E+02               0
GRID*               2935               09.9508520232E+017.4515871123E+01+
*       4.4450305847E+02               0
GRID*               2936               09.8664051204E+017.4810905811E+01+
*       4.4501884010E+02               0
GRID*               2937               09.7906391966E+017.5286041844E+01+
*       4.4347258717E+02               0
GRID*               2938               09.7906481513E+017.5285970541E+01+
*       4.4450362516E+02               0
GRID*               2939               09.7273621485E+017.5917259105E+01+
*       4.8109875103E+02               0
GRID*               2940               09.7906802204E+017.5285717580E+01+
*       4.8161478675E+02               0
GRID*               2941               09.7906727393E+017.5285777004E+01+
*       4.8058370159E+02               0
GRID*               2942               09.6795770415E+017.6674998212E+01+
*       4.8161396479E+02               0
GRID*               2943               09.6499248889E+017.7519714395E+01+
*       4.8212926213E+02               0
GRID*               2944               09.6795866788E+017.6674712416E+01+
*       4.8264507626E+02               0
GRID*               2945               09.6795947977E+017.6675161214E+01+
*       4.8058287954E+02               0
GRID*               2946               09.6796347833E+017.6675013710E+01+
*       4.7955165611E+02               0
GRID*               2947               09.6499196540E+017.7519784208E+01+
*       4.8006693894E+02               0
GRID*               2948               09.6399051806E+017.8407875060E+01+
*       4.7955100244E+02               0
GRID*               2949               09.6398471702E+017.8408275604E+01+
*       4.8058222179E+02               0
GRID*               2950               09.6399464362E+017.8407550031E+01+
*       4.7851978870E+02               0
GRID*               2951               09.6495573860E+017.9298215545E+01+
*       4.7903518615E+02               0
GRID*               2952               09.6397568330E+017.8408304384E+01+
*       4.8264460289E+02               0
GRID*               2953               09.6495597944E+017.9298367139E+01+
*       4.8316013619E+02               0
GRID*               2954               09.6397586819E+017.8408102637E+01+
*       4.8367582410E+02               0
GRID*               2955               09.6397883417E+017.8408540805E+01+
*       4.8161349348E+02               0
GRID*               2956               09.6495635107E+017.9298509011E+01+
*       4.8109765343E+02               0
GRID*               2957               09.6789745848E+018.0144645257E+01+
*       4.7851938190E+02               0
GRID*               2958               09.6789832987E+018.0144841761E+01+
*       4.7955058632E+02               0
GRID*               2959               09.6789646749E+018.0144423823E+01+
*       4.7748819387E+02               0
GRID*               2960               09.7265201409E+018.0903865294E+01+
*       4.7800353350E+02               0
GRID*               2961               09.6789874387E+018.0144942880E+01+
*       4.8058185355E+02               0
GRID*               2962               09.6789908754E+018.0145029365E+01+
*       4.8161311311E+02               0
GRID*               2963               09.7265418302E+018.0904127181E+01+
*       4.8006598136E+02               0
GRID*               2964               09.6789851398E+018.0144939445E+01+
*       4.8367570687E+02               0
GRID*               2965               09.7265599131E+018.0904331688E+01+
*       4.8419132676E+02               0
GRID*               2966               09.6789820265E+018.0144889417E+01+
*       4.8470705298E+02               0
GRID*               2967               09.6789956904E+018.0145144641E+01+
*       4.8264448726E+02               0
GRID*               2968               09.7265561325E+018.0904295798E+01+
*       4.8212861486E+02               0
GRID*               2969               09.7899075000E+018.1539915079E+01+
*       4.7748794316E+02               0
GRID*               2970               09.7899287892E+018.1540085215E+01+
*       4.7851912868E+02               0
GRID*               2971               09.7898795417E+018.1539691581E+01+
*       4.7645659571E+02               0
GRID*               2972               09.8657827970E+018.2017973371E+01+
*       4.7697217422E+02               0
GRID*               2973               09.9503393005E+018.2314771593E+01+
*       4.7645652253E+02               0
GRID*               2974               09.9503067398E+018.2314697064E+01+
*       4.7542508014E+02               0
GRID*               2975               01.0039502961E+028.2415915885E+01+
*       4.7594077883E+02               0
GRID*               2976               09.9503741800E+018.2314851410E+01+
*       4.7748786862E+02               0
GRID*               2977               09.7899477300E+018.1540236543E+01+
*       4.7955044708E+02               0
GRID*               2978               09.7899587157E+018.1540324261E+01+
*       4.8058171159E+02               0
GRID*               2979               09.8658363749E+018.2018232025E+01+
*       4.7903483843E+02               0
GRID*               2980               09.9503998273E+018.2314910075E+01+
*       4.7851923886E+02               0
GRID*               2981               01.0039562557E+028.2415916156E+01+
*       4.7800359081E+02               0
GRID*               2982               09.9504233034E+018.2314963763E+01+
*       4.7955055577E+02               0
GRID*               2983               09.7899731879E+018.1540439819E+01+
*       4.8161306814E+02               0
GRID*               2984               09.7899855337E+018.1540538360E+01+
*       4.8264443932E+02               0
GRID*               2985               09.8658742081E+018.2018414608E+01+
*       4.8109751157E+02               0
GRID*               2986               09.9504451700E+018.2315013762E+01+
*       4.8058193095E+02               0
GRID*               2987               01.0039611229E+028.2415916312E+01+
*       4.8006633551E+02               0
GRID*               2988               09.9504629201E+018.2315054343E+01+
*       4.8161328586E+02               0
GRID*               2989               09.7899941176E+018.1540606665E+01+
*       4.8470716532E+02               0
GRID*               2990               09.8659179758E+018.2018625764E+01+
*       4.8522299822E+02               0
GRID*               2991               09.7899985643E+018.1540642025E+01+
*       4.8573853339E+02               0
GRID*               2992               09.7899959556E+018.1540621504E+01+
*       4.8367582243E+02               0
GRID*               2993               09.8659019948E+018.2018548674E+01+
*       4.8316024924E+02               0
GRID*               2994               09.9504815596E+018.2315096956E+01+
*       4.8264468142E+02               0
GRID*               2995               09.9504940969E+018.2315125618E+01+
*       4.8367606273E+02               0
GRID*               2996               01.0039652755E+028.2415916397E+01+
*       4.8212910547E+02               0
GRID*               2997               09.9505132169E+018.2315169342E+01+
*       4.8573883986E+02               0
GRID*               2998               01.0039712722E+028.2415916443E+01+
*       4.8625473237E+02               0
GRID*               2999               09.9505245258E+018.2315195207E+01+
*       4.8677025090E+02               0
GRID*               3000               09.9505083141E+018.2315158122E+01+
*       4.8470747377E+02               0
GRID*               3001               01.0039686478E+028.2415916434E+01+
*       4.8419191122E+02               0
GRID*               3002               01.0352856348E+028.0904445188E+01+
*       4.8831814080E+02               0
GRID*               3003               01.0289384969E+028.1540979437E+01+
*       4.8883377895E+02               0
GRID*               3004               01.0289371406E+028.1541087852E+01+
*       4.8780233613E+02               0
GRID*               3005               01.0400420497E+028.0145028880E+01+
*       4.8883401216E+02               0
GRID*               3006               01.0429959653E+027.9298823363E+01+
*       4.8934968776E+02               0
GRID*               3007               01.0400424694E+028.0144942943E+01+
*       4.8986542355E+02               0
GRID*               3008               01.0400411498E+028.0145214381E+01+
*       4.8780256737E+02               0
GRID*               3009               01.0400411034E+028.0145221545E+01+
*       4.8677123222E+02               0
GRID*               3010               01.0429920125E+027.9298974477E+01+
*       4.8728695134E+02               0
GRID*               3011               01.0128908483E+028.2315188630E+01+
*       4.8677060649E+02               0
GRID*               3012               01.0213498665E+028.2018677385E+01+
*       4.8728650735E+02               0
GRID*               3013               01.0128924301E+028.2315152332E+01+
*       4.8780203424E+02               0
GRID*               3014               01.0128897238E+028.2315214470E+01+
*       4.8573919613E+02               0
GRID*               3015               01.0128891100E+028.2315228635E+01+
*       4.8470781712E+02               0
GRID*               3016               01.0213478010E+028.2018777027E+01+
*       4.8522370018E+02               0
GRID*               3017               01.0400393058E+028.0145586007E+01+
*       4.8367723929E+02               0
GRID*               3018               01.0400396786E+028.0145512139E+01+
*       4.8470856808E+02               0
GRID*               3019               01.0352814099E+028.0905001495E+01+
*       4.8419262990E+02               0
GRID*               3020               01.0400384920E+028.0145751425E+01+
*       4.8264597084E+02               0
GRID*               3021               01.0429835175E+027.9299522597E+01+
*       4.8316179145E+02               0
GRID*               3022               01.0400402588E+028.0145394602E+01+
*       4.8573985652E+02               0
GRID*               3023               01.0352831166E+028.0904774583E+01+
*       4.8625532755E+02               0
GRID*               3024               01.0429877279E+027.9299164735E+01+
*       4.8522433884E+02               0
GRID*               3025               01.0289341677E+028.1541325550E+01+
*       4.8470815410E+02               0
GRID*               3026               01.0289346500E+028.1541286943E+01+
*       4.8573953376E+02               0
GRID*               3027               01.0289338206E+028.1541353353E+01+
*       4.8367682694E+02               0
GRID*               3028               01.0289358785E+028.1541188746E+01+
*       4.8677090767E+02               0
GRID*               3029               01.0400373708E+028.0145980525E+01+
*       4.8161463334E+02               0
GRID*               3030               01.0400364002E+028.0146177941E+01+
*       4.8058336300E+02               0
GRID*               3031               01.0429803829E+027.9299954590E+01+
*       4.8109925803E+02               0
GRID*               3032               01.0352793469E+028.0905272940E+01+
*       4.8212997006E+02               0
GRID*               3033               01.0128876967E+028.2315261069E+01+
*       4.8367640670E+02               0
GRID*               3034               01.0128855979E+028.2315309152E+01+
*       4.8264502811E+02               0
GRID*               3035               01.0213452588E+028.2018899644E+01+
*       4.8316094220E+02               0
GRID*               3036               01.0289321522E+028.1541486693E+01+
*       4.8264544775E+02               0
GRID*               3037               01.0289304726E+028.1541620914E+01+
*       4.8161411175E+02               0
GRID*               3038               01.0128837444E+028.2315351625E+01+
*       4.8161363312E+02               0
GRID*               3039               01.0128816265E+028.2315400123E+01+
*       4.8058226187E+02               0
GRID*               3040               01.0213413307E+028.2019089055E+01+
*       4.8109819200E+02               0
GRID*               3041               01.0400353243E+028.0146397225E+01+
*       4.7955200898E+02               0
GRID*               3042               01.0400344390E+028.0146576716E+01+
*       4.7852068049E+02               0
GRID*               3043               01.0429793652E+027.9300376640E+01+
*       4.7903665835E+02               0
GRID*               3044               01.0352762895E+028.0905669154E+01+
*       4.8006728508E+02               0
GRID*               3045               01.0289287921E+028.1541755194E+01+
*       4.8058273996E+02               0
GRID*               3046               01.0289271945E+028.1541882842E+01+
*       4.7955138776E+02               0
GRID*               3047               01.0128794522E+028.2315449895E+01+
*       4.7955088721E+02               0
GRID*               3048               01.0128771642E+028.2315502250E+01+
*       4.7851950306E+02               0
GRID*               3049               01.0213372273E+028.2019286862E+01+
*       4.7903543629E+02               0
GRID*               3050               01.0128693884E+028.2315680013E+01+
*       4.7542523630E+02               0
GRID*               3051               01.0128726281E+028.2315606003E+01+
*       4.7645667826E+02               0
GRID*               3052               01.0128668260E+028.2315738557E+01+
*       4.7439365549E+02               0
GRID*               3053               01.0213290081E+028.2019682910E+01+
*       4.7490956068E+02               0
GRID*               3054               01.0128746138E+028.2315560575E+01+
*       4.7748813331E+02               0
GRID*               3055               01.0213332447E+028.2019478798E+01+
*       4.7697259681E+02               0
GRID*               3056               01.0400333676E+028.0146794899E+01+
*       4.7748927886E+02               0
GRID*               3057               01.0400325381E+028.0146962645E+01+
*       4.7645787482E+02               0
GRID*               3058               01.0429797614E+027.9300726985E+01+
*       4.7697392400E+02               0
GRID*               3059               01.0352733039E+028.0906055946E+01+
*       4.7800453602E+02               0
GRID*               3060               01.0289253807E+028.1542027744E+01+
*       4.7852000313E+02               0
GRID*               3061               01.0289237832E+028.1542155365E+01+
*       4.7748860317E+02               0
GRID*               3062               01.0400305217E+028.0147367218E+01+
*       4.7336324984E+02               0
GRID*               3063               01.0400308067E+028.0147313009E+01+
*       4.7439489289E+02               0
GRID*               3064               01.0352686661E+028.0906660806E+01+
*       4.7387853399E+02               0
GRID*               3065               01.0400300179E+028.0147466944E+01+
*       4.7233167227E+02               0
GRID*               3066               01.0429800350E+027.9301244733E+01+
*       4.7284794565E+02               0
GRID*               3067               01.0400315364E+028.0147166190E+01+
*       4.7542639016E+02               0
GRID*               3068               01.0352704193E+028.0906429662E+01+
*       4.7594165591E+02               0
GRID*               3069               01.0429801949E+027.9301022436E+01+
*       4.7491102127E+02               0
GRID*               3070               01.0289187067E+028.1542560835E+01+
*       4.7439408336E+02               0
GRID*               3071               01.0289207353E+028.1542398841E+01+
*       4.7542566458E+02               0
GRID*               3072               01.0289185179E+028.1542576017E+01+
*       4.7336244175E+02               0
GRID*               3073               01.0289222145E+028.1542280682E+01+
*       4.7645714768E+02               0
GRID*               3074               01.0128567339E+027.4515853169E+01+
*       4.7233712144E+02               0
GRID*               3075               01.0128567310E+027.4515853108E+01+
*       4.7336804709E+02               0
GRID*               3076               01.0128591266E+027.4515907689E+01+
*       4.7130601670E+02               0
GRID*               3077               01.0128591291E+027.4515907744E+01+
*       4.7027509086E+02               0
GRID*               3078               01.0213060309E+027.4811084088E+01+
*       4.7182075516E+02               0
GRID*               3079               01.0288812133E+027.5286234946E+01+
*       4.7233551606E+02               0
GRID*               3080               01.0288831325E+027.5286387687E+01+
*       4.7130441506E+02               0
GRID*               3081               01.0128585319E+027.4515894130E+01+
*       4.6924397062E+02               0
GRID*               3082               01.0128585342E+027.4515894179E+01+
*       4.6821304461E+02               0
GRID*               3083               01.0213079751E+027.4811175727E+01+
*       4.6975853373E+02               0
GRID*               3084               01.0288827495E+027.5286357161E+01+
*       4.7027309150E+02               0
GRID*               3085               01.0288822664E+027.5286318679E+01+
*       4.6924197468E+02               0
GRID*               3086               01.0352167173E+027.5918549127E+01+
*       4.7078785633E+02               0
GRID*               3087               01.0399892789E+027.6676072034E+01+
*       4.7130268710E+02               0
GRID*               3088               01.0399890626E+027.6676027154E+01+
*       4.7027136656E+02               0
GRID*               3089               01.0128566642E+027.4515851640E+01+
*       4.9089497670E+02               0
GRID*               3090               01.0128566574E+027.4515851486E+01+
*       4.9192589963E+02               0
GRID*               3091               01.0128557291E+027.4515830332E+01+
*       4.8986389281E+02               0
GRID*               3092               01.0128557354E+027.4515830471E+01+
*       4.8883296947E+02               0
GRID*               3093               01.0213006565E+027.4810840115E+01+
*       4.9037979079E+02               0
GRID*               3094               01.0288774815E+027.5285938522E+01+
*       4.9089564629E+02               0
GRID*               3095               01.0288767318E+027.5285878835E+01+
*       4.8986457081E+02               0
GRID*               3096               01.0128548058E+027.4515809306E+01+
*       4.9295705189E+02               0
GRID*               3097               01.0128547982E+027.4515809137E+01+
*       4.9398797435E+02               0
GRID*               3098               01.0212996692E+027.4810793510E+01+
*       4.9244201788E+02               0
GRID*               3099               01.0288766577E+027.5285872999E+01+
*       4.9192693236E+02               0
GRID*               3100               01.0288751673E+027.5285754436E+01+
*       4.9295807541E+02               0
GRID*               3101               01.0352107827E+027.5917809244E+01+
*       4.9141171644E+02               0
GRID*               3102               01.0399741896E+027.6675405322E+01+
*       4.9192762121E+02               0
GRID*               3103               01.0399777248E+027.6675379884E+01+
*       4.9089634495E+02               0
GRID*               3104               01.0439700870E+027.8410537432E+01+
*       4.7439576935E+02               0
GRID*               3105               01.0439701276E+027.8410784640E+01+
*       4.7336436484E+02               0
GRID*               3106               01.0429572536E+027.7521512739E+01+
*       4.7388059205E+02               0
GRID*               3107               01.0439700471E+027.8410400134E+01+
*       4.7542726890E+02               0
GRID*               3108               01.0439701659E+027.8410870917E+01+
*       4.7233278516E+02               0
GRID*               3109               01.0439702001E+027.8410636459E+01+
*       4.7130129870E+02               0
GRID*               3110               01.0429573687E+027.7521527975E+01+
*       4.7181769833E+02               0
GRID*               3111               01.0352166227E+027.5918537624E+01+
*       4.7285047174E+02               0
GRID*               3112               01.0288806448E+027.5286189733E+01+
*       4.7336681122E+02               0
GRID*               3113               01.0399903626E+027.6676296626E+01+
*       4.7233417632E+02               0
GRID*               3114               01.0399885466E+027.6676305231E+01+
*       4.7336546575E+02               0
GRID*               3115               01.0399834867E+027.6676258706E+01+
*       4.7439686677E+02               0
GRID*               3116               01.0352120763E+027.5917970889E+01+
*       4.8934921832E+02               0
GRID*               3117               01.0288775413E+027.5285943222E+01+
*       4.8883335138E+02               0
GRID*               3118               01.0399831889E+027.6675474490E+01+
*       4.8986495818E+02               0
GRID*               3119               01.0429530609E+027.7519986468E+01+
*       4.9038089639E+02               0
GRID*               3120               01.0399872695E+027.6675419967E+01+
*       4.8883374834E+02               0
GRID*               3121               01.0429533619E+027.7520078435E+01+
*       4.8831824124E+02               0
GRID*               3122               01.0399875470E+027.6675158010E+01+
*       4.8780247831E+02               0
GRID*               3123               01.0439695396E+027.8408934435E+01+
*       4.8780265981E+02               0
GRID*               3124               01.0439695817E+027.8408916498E+01+
*       4.8677132040E+02               0
GRID*               3125               01.0439695000E+027.8409148420E+01+
*       4.8883392545E+02               0
GRID*               3126               01.0439694559E+027.8409076645E+01+
*       4.8986534144E+02               0
GRID*               3127               01.0439694079E+027.8408772747E+01+
*       4.9089672564E+02               0
GRID*               3128               01.0128586793E+027.4515897507E+01+
*       4.7439916206E+02               0
GRID*               3129               01.0128586762E+027.4515897439E+01+
*       4.7543008751E+02               0
GRID*               3130               01.0213052854E+027.4811050424E+01+
*       4.7388297100E+02               0
GRID*               3131               01.0288822127E+027.5286314567E+01+
*       4.7439792211E+02               0
GRID*               3132               01.0128566351E+027.4515850932E+01+
*       4.7646119340E+02               0
GRID*               3133               01.0128566317E+027.4515850856E+01+
*       4.7749211862E+02               0
GRID*               3134               01.0213048623E+027.4811032280E+01+
*       4.7594518760E+02               0
GRID*               3135               01.0288824946E+027.5286337034E+01+
*       4.7542918691E+02               0
GRID*               3136               01.0288808571E+027.5286206728E+01+
*       4.7646028832E+02               0
GRID*               3137               01.0352164444E+027.5918515630E+01+
*       4.7491302808E+02               0
GRID*               3138               01.0399786912E+027.6676482412E+01+
*       4.7542812003E+02               0
GRID*               3139               01.0439699258E+027.8410056191E+01+
*       4.7852130066E+02               0
GRID*               3140               01.0439699689E+027.8410345321E+01+
*       4.7749001349E+02               0
GRID*               3141               01.0429563431E+027.7521187776E+01+
*       4.7800596607E+02               0
GRID*               3142               01.0439698838E+027.8409885512E+01+
*       4.7955263182E+02               0
GRID*               3143               01.0439700098E+027.8410504455E+01+
*       4.7645860698E+02               0
GRID*               3144               01.0429568461E+027.7521370726E+01+
*       4.7594333761E+02               0
GRID*               3145               01.0352161529E+027.5918479464E+01+
*       4.7697549222E+02               0
GRID*               3146               01.0288801512E+027.5286150573E+01+
*       4.7749149161E+02               0
GRID*               3147               01.0399742191E+027.6676776959E+01+
*       4.7645945332E+02               0
GRID*               3148               01.0399693364E+027.6676863570E+01+
*       4.7749064537E+02               0
GRID*               3149               01.0399648578E+027.6676736977E+01+
*       4.7852193060E+02               0
GRID*               3150               01.0128575479E+027.4515871764E+01+
*       4.8780189513E+02               0
GRID*               3151               01.0128575535E+027.4515871890E+01+
*       4.8677097139E+02               0
GRID*               3152               01.0213016248E+027.4810885694E+01+
*       4.8831764083E+02               0
GRID*               3153               01.0288789986E+027.5286059162E+01+
*       4.8780228472E+02               0
GRID*               3154               01.0128567030E+027.4515852508E+01+
*       4.8573993110E+02               0
GRID*               3155               01.0128567082E+027.4515852622E+01+
*       4.8470900701E+02               0
GRID*               3156               01.0213026904E+027.4810935819E+01+
*       4.8625553373E+02               0
GRID*               3157               01.0288792349E+027.5286077936E+01+
*       4.8677111099E+02               0
GRID*               3158               01.0288785517E+027.5286023537E+01+
*       4.8574007772E+02               0
GRID*               3159               01.0352128936E+027.5918072955E+01+
*       4.8728683190E+02               0
GRID*               3160               01.0399857247E+027.6675246196E+01+
*       4.8677130787E+02               0
GRID*               3161               01.0352139508E+027.5918204986E+01+
*       4.8522453775E+02               0
GRID*               3162               01.0288796685E+027.5286112388E+01+
*       4.8470895115E+02               0
GRID*               3163               01.0399826744E+027.6675709397E+01+
*       4.8574004659E+02               0
GRID*               3164               01.0429537684E+027.7520216665E+01+
*       4.8625572116E+02               0
GRID*               3165               01.0399778889E+027.6676033469E+01+
*       4.8470891752E+02               0
GRID*               3166               01.0429543672E+027.7520439071E+01+
*       4.8419328222E+02               0
GRID*               3167               01.0399721912E+027.6676094186E+01+
*       4.8367772048E+02               0
GRID*               3168               01.0439697122E+027.8409243928E+01+
*       4.8367759359E+02               0
GRID*               3169               01.0439697556E+027.8409398205E+01+
*       4.8264632150E+02               0
GRID*               3170               01.0439696725E+027.8409371071E+01+
*       4.8470877848E+02               0
GRID*               3171               01.0439696292E+027.8409268201E+01+
*       4.8574007085E+02               0
GRID*               3172               01.0439698018E+027.8409781183E+01+
*       4.8161510805E+02               0
GRID*               3173               01.0429550342E+027.7520691704E+01+
*       4.8213087975E+02               0
GRID*               3174               01.0439698448E+027.8409970134E+01+
*       4.8058383470E+02               0
GRID*               3175               01.0429557943E+027.7520985461E+01+
*       4.8006845962E+02               0
GRID*               3176               01.0399679721E+027.6676389762E+01+
*       4.8264659879E+02               0
GRID*               3177               01.0352156355E+027.5918415513E+01+
*       4.8316229710E+02               0
GRID*               3178               01.0399658123E+027.6676862562E+01+
*       4.8161537569E+02               0
GRID*               3179               01.0399639055E+027.6676904388E+01+
*       4.8058426805E+02               0
GRID*               3180               01.0352162395E+027.5918490835E+01+
*       4.8110007261E+02               0
GRID*               3181               01.0399634053E+027.6676821529E+01+
*       4.7955306158E+02               0
GRID*               3182               01.0352158246E+027.5918438677E+01+
*       4.7903782929E+02               0
GRID*               3183               01.0128583494E+027.4515890010E+01+
*       4.8161603052E+02               0
GRID*               3184               01.0128583536E+027.4515890103E+01+
*       4.8058510581E+02               0
GRID*               3185               01.0213039527E+027.4810995259E+01+
*       4.8419346897E+02               0
GRID*               3186               01.0128587108E+027.4515898254E+01+
*       4.8367797568E+02               0
GRID*               3187               01.0288812771E+027.5286240388E+01+
*       4.8367792623E+02               0
GRID*               3188               01.0288823052E+027.5286322186E+01+
*       4.8264680651E+02               0
GRID*               3189               01.0128587155E+027.4515898357E+01+
*       4.8264705127E+02               0
GRID*               3190               01.0213056854E+027.4811077176E+01+
*       4.8213142314E+02               0
GRID*               3191               01.0288820100E+027.5286298661E+01+
*       4.8161579162E+02               0
GRID*               3192               01.0288817815E+027.5286280438E+01+
*       4.8058468168E+02               0
GRID*               3193               01.0128587806E+027.4515899831E+01+
*       4.7955407159E+02               0
GRID*               3194               01.0213059856E+027.4811090038E+01+
*       4.8006937385E+02               0
GRID*               3195               01.0128587844E+027.4515899915E+01+
*       4.7852314661E+02               0
GRID*               3196               01.0213046622E+027.4811024634E+01+
*       4.7800731679E+02               0
GRID*               3197               01.0288818827E+027.5286288425E+01+
*       4.7852251471E+02               0
GRID*               3198               01.0288821231E+027.5286307593E+01+
*       4.7955365281E+02               0
GRID*               3199               01.0429577297E+027.7521651105E+01+
*       4.6975487759E+02               0
GRID*               3200               01.0399905574E+027.6676336658E+01+
*       4.6924003227E+02               0
GRID*               3201               01.0439702816E+027.8411469888E+01+
*       4.6923859758E+02               0
GRID*               3202               01.0429763144E+027.9302323204E+01+
*       4.6872207602E+02               0
GRID*               3203               01.0439703171E+027.8411466830E+01+
*       4.6820703916E+02               0
GRID*               3204               01.0439702419E+027.8411111624E+01+
*       4.7026992933E+02               0
GRID*               3205               01.0429782630E+027.9301811875E+01+
*       4.7078500034E+02               0
GRID*               3206               01.0400284979E+028.0147778218E+01+
*       4.7130015814E+02               0
GRID*               3207               01.0400263197E+028.0148226415E+01+
*       4.7026879075E+02               0
GRID*               3208               01.0352661576E+028.0906986579E+01+
*       4.7181538218E+02               0
GRID*               3209               01.0400250817E+028.0148478844E+01+
*       4.6923733357E+02               0
GRID*               3210               01.0352622668E+028.0907485686E+01+
*       4.6975241584E+02               0
GRID*               3211               01.0400249738E+028.0148496067E+01+
*       4.6820577697E+02               0
GRID*               3212               01.0352598135E+028.0907803858E+01+
*       4.6768936608E+02               0
GRID*               3213               01.0400244519E+028.0148599434E+01+
*       4.6717417980E+02               0
GRID*               3214               01.0289162921E+028.1542753721E+01+
*       4.7233084711E+02               0
GRID*               3215               01.0289138591E+028.1542947929E+01+
*       4.7129933431E+02               0
GRID*               3216               01.0213240103E+028.2019923620E+01+
*       4.7284638535E+02               0
GRID*               3217               01.0289119553E+028.1543099898E+01+
*       4.7026773887E+02               0
GRID*               3218               01.0289100265E+028.1543253841E+01+
*       4.6923628293E+02               0
GRID*               3219               01.0213191527E+028.2020157493E+01+
*       4.7078319574E+02               0
GRID*               3220               01.0289083473E+028.1543387874E+01+
*       4.6820485310E+02               0
GRID*               3221               01.0213149220E+028.2020361123E+01+
*       4.6872017089E+02               0
GRID*               3222               01.0289077076E+028.1543439006E+01+
*       4.6717325708E+02               0
GRID*               3223               01.0213116870E+028.2020516784E+01+
*       4.6665727126E+02               0
GRID*               3224               01.0289066713E+028.1543521762E+01+
*       4.6614178690E+02               0
GRID*               3225               01.0128639376E+028.2315804512E+01+
*       4.7336221062E+02               0
GRID*               3226               01.0128611266E+028.2315868680E+01+
*       4.7233061635E+02               0
GRID*               3227               01.0039439899E+028.2415915501E+01+
*       4.7387789177E+02               0
GRID*               3228               09.9502707415E+018.2314614637E+01+
*       4.7439375342E+02               0
GRID*               3229               09.8657177200E+018.2017659070E+01+
*       4.7490950031E+02               0
GRID*               3230               09.9502416757E+018.2314548079E+01+
*       4.7336230815E+02               0
GRID*               3231               01.0128581639E+028.2315936280E+01+
*       4.7129908489E+02               0
GRID*               3232               01.0128557523E+028.2315991311E+01+
*       4.7026748979E+02               0
GRID*               3233               01.0039379676E+028.2415915041E+01+
*       4.7181491523E+02               0
GRID*               3234               09.9502036515E+018.2314460959E+01+
*       4.7233084922E+02               0
GRID*               3235               09.8656497809E+018.2017330792E+01+
*       4.7284671367E+02               0
GRID*               3236               09.9501738229E+018.2314392618E+01+
*       4.7129931740E+02               0
GRID*               3237               01.0128532631E+028.2316048093E+01+
*       4.6923598537E+02               0
GRID*               3238               01.0128511296E+028.2316096767E+01+
*       4.6820455584E+02               0
GRID*               3239               01.0039323546E+028.2415914529E+01+
*       4.6975187916E+02               0
GRID*               3240               09.9501407256E+018.2314316760E+01+
*       4.7026779054E+02               0
GRID*               3241               09.8655845500E+018.2017015450E+01+
*       4.7078372697E+02               0
GRID*               3242               09.9501156098E+018.2314259213E+01+
*       4.6923628578E+02               0
GRID*               3243               01.0128494904E+028.2316134183E+01+
*       4.6717316584E+02               0
GRID*               3244               01.0039280984E+028.2415914089E+01+
*       4.6768898456E+02               0
GRID*               3245               01.0128481568E+028.2316164641E+01+
*       4.6614169593E+02               0
GRID*               3246               01.0039241582E+028.2415913641E+01+
*       4.6562606384E+02               0
GRID*               3247               01.0128459757E+028.2316214362E+01+
*       4.6511016539E+02               0
GRID*               3248               09.9500418713E+018.2314090423E+01+
*       4.6511054924E+02               0
GRID*               3249               09.8654771581E+018.2016495984E+01+
*       4.6459523677E+02               0
GRID*               3250               09.9500272244E+018.2314056948E+01+
*       4.6407921897E+02               0
GRID*               3251               09.9500639594E+018.2314141009E+01+
*       4.6614208008E+02               0
GRID*               3252               09.9500914448E+018.2314203846E+01+
*       4.6820478977E+02               0
GRID*               3253               09.8655321214E+018.2016761894E+01+
*       4.6872070326E+02               0
GRID*               3254               09.9500748024E+018.2314165760E+01+
*       4.6717339946E+02               0
GRID*               3255               09.8655002316E+018.2016607624E+01+
*       4.6665788711E+02               0
GRID*               3256               09.7898353127E+018.1539337908E+01+
*       4.7439414965E+02               0
GRID*               3257               09.7264574762E+018.0903097773E+01+
*       4.7387882891E+02               0
GRID*               3258               09.7897996427E+018.1539052571E+01+
*       4.7336286262E+02               0
GRID*               3259               09.7898640697E+018.1539567884E+01+
*       4.7542547760E+02               0
GRID*               3260               09.7264946514E+018.0903555277E+01+
*       4.7594123200E+02               0
GRID*               3261               09.6789136332E+018.0143300298E+01+
*       4.7336370031E+02               0
GRID*               3262               09.6495179844E+017.9296404053E+01+
*       4.7284858084E+02               0
GRID*               3263               09.6788972030E+018.0142942810E+01+
*       4.7233247558E+02               0
GRID*               3264               09.6789316198E+018.0143690284E+01+
*       4.7439498950E+02               0
GRID*               3265               09.6789561658E+018.0144231658E+01+
*       4.7645719346E+02               0
GRID*               3266               09.6495486784E+017.9297807883E+01+
*       4.7697297831E+02               0
GRID*               3267               09.6789494040E+018.0144076012E+01+
*       4.7542607302E+02               0
GRID*               3268               09.6495353467E+017.9297195418E+01+
*       4.7491089162E+02               0
GRID*               3269               09.7897693565E+018.1538810238E+01+
*       4.7233140257E+02               0
GRID*               3270               09.7264113442E+018.0902527074E+01+
*       4.7181616231E+02               0
GRID*               3271               09.7897428809E+018.1538598342E+01+
*       4.7130002102E+02               0
GRID*               3272               09.6788842393E+018.0142657761E+01+
*       4.7130109206E+02               0
GRID*               3273               09.6495023530E+017.9295689191E+01+
*       4.7078600704E+02               0
GRID*               3274               09.6788698179E+018.0142342288E+01+
*       4.7026974530E+02               0
GRID*               3275               09.7897166234E+018.1538388144E+01+
*       4.7026849314E+02               0
GRID*               3276               09.7263761592E+018.0902093998E+01+
*       4.6975335080E+02               0
GRID*               3277               09.7896948568E+018.1538213852E+01+
*       4.6923706133E+02               0
GRID*               3278               09.6788593992E+018.0142110530E+01+
*       4.6923831167E+02               0
GRID*               3279               09.6494902790E+017.9295132206E+01+
*       4.6872324101E+02               0
GRID*               3280               09.6788499196E+018.0141898483E+01+
*       4.6820689451E+02               0
GRID*               3281               09.6788351620E+018.0141522541E+01+
*       4.6305048442E+02               0
GRID*               3282               09.7263184371E+018.0901396457E+01+
*       4.6356533880E+02               0
GRID*               3283               09.6788424281E+018.0141687690E+01+
*       4.6408173572E+02               0
GRID*               3284               09.6494890060E+017.9295016050E+01+
*       4.6253588303E+02               0
GRID*               3285               09.6788369920E+018.0141547781E+01+
*       4.6201952527E+02               0
GRID*               3286               09.7896332128E+018.1537719859E+01+
*       4.6408024578E+02               0
GRID*               3287               09.7896444627E+018.1537810053E+01+
*       4.6511157680E+02               0
GRID*               3288               09.7896174400E+018.1537593423E+01+
*       4.6304899593E+02               0
GRID*               3289               09.6788466117E+018.0141815583E+01+
*       4.6717554735E+02               0
GRID*               3290               09.7263549360E+018.0901836666E+01+
*       4.6769057519E+02               0
GRID*               3291               09.6494835401E+017.9294812438E+01+
*       4.6666045119E+02               0
GRID*               3292               09.6788426383E+018.0141718888E+01+
*       4.6614417663E+02               0
GRID*               3293               09.6788362393E+018.0141571593E+01+
*       4.6511285317E+02               0
GRID*               3294               09.6494847929E+017.9294848247E+01+
*       4.6459796124E+02               0
GRID*               3295               09.7263395312E+018.0901652502E+01+
*       4.6562790928E+02               0
GRID*               3296               09.7896758299E+018.1538061461E+01+
*       4.6820556440E+02               0
GRID*               3297               09.7896670403E+018.1537991014E+01+
*       4.6717421893E+02               0
GRID*               3298               09.7896587554E+018.1537924596E+01+
*       4.6614289870E+02               0
GRID*               3299               09.9509343893E+017.4515683543E+01+
*       4.6202750991E+02               0
GRID*               3300               09.9509343832E+017.4515683563E+01+
*       4.6305843774E+02               0
GRID*               3301               09.9509165630E+017.4515724120E+01+
*       4.6099665573E+02               0
GRID*               3302               09.9509165674E+017.4515724105E+01+
*       4.5996572789E+02               0
GRID*               3303               09.8665235366E+017.4810340350E+01+
*       4.6151105747E+02               0
GRID*               3304               09.7908008775E+017.5284755773E+01+
*       4.6099451714E+02               0
GRID*               3305               09.7908151019E+017.5284642757E+01+
*       4.6202536999E+02               0
GRID*               3306               09.9509293586E+017.4515694979E+01+
*       4.5893491963E+02               0
GRID*               3307               09.9509293617E+017.4515694969E+01+
*       4.5790399179E+02               0
GRID*               3308               09.7274994708E+017.5915543756E+01+
*       4.6047808829E+02               0
GRID*               3309               09.6797387683E+017.6672374061E+01+
*       4.5996166120E+02               0
GRID*               3310               09.6797675738E+017.6672441611E+01+
*       4.6099239707E+02               0
GRID*               3311               09.7907983439E+017.5284775865E+01+
*       4.5996377435E+02               0
GRID*               3312               09.8665181500E+017.4810365751E+01+
*       4.5944939505E+02               0
GRID*               3313               09.7908086805E+017.5284693651E+01+
*       4.5893296731E+02               0
GRID*               3314               09.7274997004E+017.5915540587E+01+
*       4.6253979276E+02               0
GRID*               3315               09.7908118902E+017.5284668355E+01+
*       4.6305633421E+02               0
GRID*               3316               09.6797796670E+017.6672765618E+01+
*       4.6202332413E+02               0
GRID*               3317               09.6499638334E+017.7516899917E+01+
*       4.6150694705E+02               0
GRID*               3318               09.6797877326E+017.6672828142E+01+
*       4.6305428370E+02               0
GRID*               3319               09.6499655651E+017.7516811451E+01+
*       4.6356883344E+02               0
GRID*               3320               09.6797914612E+017.6672470105E+01+
*       4.6408524546E+02               0
GRID*               3321               09.6397285686E+017.8404871340E+01+
*       4.6408329490E+02               0
GRID*               3322               09.6397370248E+017.8404782504E+01+
*       4.6511441249E+02               0
GRID*               3323               09.6397279225E+017.8405196106E+01+
*       4.6305233726E+02               0
GRID*               3324               09.6397273616E+017.8405176227E+01+
*       4.6202137676E+02               0
GRID*               3325               09.6397268698E+017.8404894961E+01+
*       4.6099044847E+02               0
GRID*               3326               09.9509163451E+017.4515724645E+01+
*       4.6512037619E+02               0
GRID*               3327               09.9509163528E+017.4515724619E+01+
*       4.6408944835E+02               0
GRID*               3328               09.9509294782E+017.4515694755E+01+
*       4.6615141287E+02               0
GRID*               3329               09.9509294686E+017.4515694788E+01+
*       4.6718234070E+02               0
GRID*               3330               09.8665202801E+017.4810356940E+01+
*       4.6563496948E+02               0
GRID*               3331               09.7907978737E+017.5284779942E+01+
*       4.6511845614E+02               0
GRID*               3332               09.7908082595E+017.5284697477E+01+
*       4.6614949124E+02               0
GRID*               3333               09.8665240784E+017.4810338221E+01+
*       4.6357292222E+02               0
GRID*               3334               09.7907972861E+017.5284784526E+01+
*       4.6408734336E+02               0
GRID*               3335               09.7274983577E+017.5915557094E+01+
*       4.6460186698E+02               0
GRID*               3336               09.6797644695E+017.6672381407E+01+
*       4.6511635899E+02               0
GRID*               3337               09.7274897457E+017.5915664438E+01+
*       4.6666413737E+02               0
GRID*               3338               09.7907959923E+017.5284795102E+01+
*       4.6718065188E+02               0
GRID*               3339               09.6797179551E+017.6672669236E+01+
*       4.6614761380E+02               0
GRID*               3340               09.6499651378E+017.7516844145E+01+
*       4.6563104007E+02               0
GRID*               3341               09.6796963787E+017.6672786191E+01+
*       4.6717877327E+02               0
GRID*               3342               09.6499610931E+017.7517069888E+01+
*       4.6769357226E+02               0
GRID*               3343               09.6797136157E+017.6672711862E+01+
*       4.6821005546E+02               0
GRID*               3344               09.6398332422E+017.8404787159E+01+
*       4.6820829531E+02               0
GRID*               3345               09.6398220701E+017.8405044721E+01+
*       4.6923971632E+02               0
GRID*               3346               09.6398145965E+017.8405043778E+01+
*       4.6717701732E+02               0
GRID*               3347               09.6397746733E+017.8405062753E+01+
*       4.6614565285E+02               0
GRID*               3348               09.9509049830E+017.4515750547E+01+
*       4.6821337425E+02               0
GRID*               3349               09.9509049716E+017.4515750586E+01+
*       4.6924430208E+02               0
GRID*               3350               09.8665105037E+017.4810404371E+01+
*       4.6769703967E+02               0
GRID*               3351               09.7907761380E+017.5284953066E+01+
*       4.6821168368E+02               0
GRID*               3352               09.9509090908E+017.4515741221E+01+
*       4.7027535647E+02               0
GRID*               3353               09.9509090772E+017.4515741267E+01+
*       4.7130628431E+02               0
GRID*               3354               09.7274710093E+017.5915898313E+01+
*       4.6872647771E+02               0
GRID*               3355               09.7907641078E+017.5285048847E+01+
*       4.6924286667E+02               0
GRID*               3356               09.6797299193E+017.6672948927E+01+
*       4.6924122852E+02               0
GRID*               3357               09.8664923738E+017.4810491929E+01+
*       4.6975912757E+02               0
GRID*               3358               09.7907671791E+017.5285024567E+01+
*       4.7027391916E+02               0
GRID*               3359               09.7274436725E+017.5916239736E+01+
*       4.7078873799E+02               0
GRID*               3360               09.7907442059E+017.5285207393E+01+
*       4.7130500004E+02               0
GRID*               3361               09.6797300302E+017.6673592124E+01+
*       4.7027244489E+02               0
GRID*               3362               09.6499537464E+017.7517475937E+01+
*       4.6975607829E+02               0
GRID*               3363               09.6797447369E+017.6673962358E+01+
*       4.7130351421E+02               0
GRID*               3364               09.6499425306E+017.7518082616E+01+
*       4.7181849906E+02               0
GRID*               3365               09.6797660267E+017.6674107380E+01+
*       4.7233470659E+02               0
GRID*               3366               09.6397374656E+017.8406309466E+01+
*       4.7233349737E+02               0
GRID*               3367               09.6397741791E+017.8406647784E+01+
*       4.7336471977E+02               0
GRID*               3368               09.6397511305E+017.8406195660E+01+
*       4.7130229902E+02               0
GRID*               3369               09.6397898233E+017.8405707399E+01+
*       4.7027094267E+02               0
GRID*               3370               09.9508818439E+017.4515803301E+01+
*       4.7233724610E+02               0
GRID*               3371               09.9508818307E+017.4515803345E+01+
*       4.7336817393E+02               0
GRID*               3372               09.8664716996E+017.4810591721E+01+
*       4.7182114371E+02               0
GRID*               3373               09.7907220829E+017.5285383491E+01+
*       4.7233595974E+02               0
GRID*               3374               09.9508838682E+017.4515798719E+01+
*       4.7439913770E+02               0
GRID*               3375               09.9508838565E+017.4515798759E+01+
*       4.7543006554E+02               0
GRID*               3376               09.7274106688E+017.5916652119E+01+
*       4.7285083923E+02               0
GRID*               3377               09.7907030570E+017.5285534971E+01+
*       4.7336698402E+02               0
GRID*               3378               09.6797715073E+017.6674382847E+01+
*       4.7336572207E+02               0
GRID*               3379               09.8664490950E+017.4810700803E+01+
*       4.7388306923E+02               0
GRID*               3380               09.7907044555E+017.5285523989E+01+
*       4.7439794552E+02               0
GRID*               3381               09.9508663055E+017.4515838784E+01+
*       4.7955381186E+02               0
GRID*               3382               09.8664299266E+017.4810794370E+01+
*       4.8006877685E+02               0
GRID*               3383               09.9508762044E+017.4515816244E+01+
*       4.8058477452E+02               0
GRID*               3384               09.9508663150E+017.4515838752E+01+
*       4.7852288403E+02               0
GRID*               3385               09.9508769218E+017.4515814578E+01+
*       4.7749192331E+02               0
GRID*               3386               09.8664298279E+017.4810794357E+01+
*       4.7800685352E+02               0
GRID*               3387               09.9508769324E+017.4515814542E+01+
*       4.7646099548E+02               0
GRID*               3388               09.8664453300E+017.4810719384E+01+
*       4.7594496290E+02               0
GRID*               3389               09.7273498846E+017.5917412228E+01+
*       4.7903670629E+02               0
GRID*               3390               09.6796627099E+017.6675230217E+01+
*       4.7852068762E+02               0
GRID*               3391               09.7906649465E+017.5285838905E+01+
*       4.7955274190E+02               0
GRID*               3392               09.7906569856E+017.5285902140E+01+
*       4.7852177679E+02               0
GRID*               3393               09.7906656808E+017.5285832841E+01+
*       4.7749081880E+02               0
GRID*               3394               09.7906791067E+017.5285725775E+01+
*       4.7542891951E+02               0
GRID*               3395               09.7273756338E+017.5917090069E+01+
*       4.7491283323E+02               0
GRID*               3396               09.7906733409E+017.5285771775E+01+
*       4.7645984697E+02               0
GRID*               3397               09.7273495298E+017.5917416525E+01+
*       4.7697477441E+02               0
GRID*               3398               09.6499322191E+017.7518681181E+01+
*       4.7388073581E+02               0
GRID*               3399               09.6797531355E+017.6674940251E+01+
*       4.7439675884E+02               0
GRID*               3400               09.6398341464E+017.8407071528E+01+
*       4.7439574681E+02               0
GRID*               3401               09.6398957489E+017.8407349360E+01+
*       4.7542682468E+02               0
GRID*               3402               09.6797371657E+017.6675218171E+01+
*       4.7542772861E+02               0
GRID*               3403               09.6399608613E+017.8407688231E+01+
*       4.7748884007E+02               0
GRID*               3404               09.6499174876E+017.7519686339E+01+
*       4.7800477341E+02               0
GRID*               3405               09.6399418255E+017.8407526880E+01+
*       4.7645783910E+02               0
GRID*               3406               09.6499162666E+017.7519540735E+01+
*       4.7594279835E+02               0
GRID*               3407               09.6797115474E+017.6675466849E+01+
*       4.7645875631E+02               0
GRID*               3408               09.6796862605E+017.6675468848E+01+
*       4.7748972880E+02               0
GRID*               3409               09.7274138551E+017.5916614501E+01+
*       4.5429554040E+02               0
GRID*               3410               09.7907347245E+017.5285281613E+01+
*       4.5481098519E+02               0
GRID*               3411               09.6796759348E+017.6673962309E+01+
*       4.5378005298E+02               0
GRID*               3412               09.6499169729E+017.7518839081E+01+
*       4.5326485908E+02               0
GRID*               3413               09.6796934199E+017.6673994949E+01+
*       4.5481035965E+02               0
GRID*               3414               09.6499280014E+017.7518423979E+01+
*       4.5532501555E+02               0
GRID*               3415               09.6797215569E+017.6673577301E+01+
*       4.5584045498E+02               0
GRID*               3416               09.6397235893E+017.8406482072E+01+
*       4.5583962350E+02               0
GRID*               3417               09.6495267237E+017.9296635036E+01+
*       4.5635406067E+02               0
GRID*               3418               09.6397242247E+017.8406159915E+01+
*       4.5686950712E+02               0
GRID*               3419               09.6397229232E+017.8406990049E+01+
*       4.5480952858E+02               0
GRID*               3420               09.6397218067E+017.8407351262E+01+
*       4.5274963472E+02               0
GRID*               3421               09.6495590599E+017.9298033644E+01+
*       4.5223455266E+02               0
GRID*               3422               09.6397223001E+017.8407407029E+01+
*       4.5377969267E+02               0
GRID*               3423               09.6495440119E+017.9297383978E+01+
*       4.5429434108E+02               0
GRID*               3424               09.9508995292E+017.4515762890E+01+
*       4.5584244227E+02               0
GRID*               3425               09.8664730134E+017.4810581628E+01+
*       4.5532673052E+02               0
GRID*               3426               09.9508995275E+017.4515762895E+01+
*       4.5687337010E+02               0
GRID*               3427               09.8665016435E+017.4810444563E+01+
*       4.5738796512E+02               0
GRID*               3428               09.7907661524E+017.5285031737E+01+
*       4.5790257734E+02               0
GRID*               3429               09.7274626273E+017.5916004316E+01+
*       4.5841695788E+02               0
GRID*               3430               09.7907422247E+017.5285221992E+01+
*       4.5687195676E+02               0
GRID*               3431               09.7907349584E+017.5285279763E+01+
*       4.5584159710E+02               0
GRID*               3432               09.7274219972E+017.5916512362E+01+
*       4.5635621041E+02               0
GRID*               3433               09.6397247922E+017.8406136723E+01+
*       4.5789972056E+02               0
GRID*               3434               09.6499407083E+017.7517928995E+01+
*       4.5738532734E+02               0
GRID*               3435               09.6495151410E+017.9296139148E+01+
*       4.5841410542E+02               0
GRID*               3436               09.6397254016E+017.8405991823E+01+
*       4.5892988188E+02               0
GRID*               3437               09.6397261641E+017.8405328994E+01+
*       4.5996011990E+02               0
GRID*               3438               09.6495006048E+017.9295512330E+01+
*       4.6047459484E+02               0
GRID*               3439               09.6499556857E+017.7517277353E+01+
*       4.5944578028E+02               0
GRID*               3440               09.6797177001E+017.6673468837E+01+
*       4.5687081289E+02               0
GRID*               3441               09.6796991405E+017.6673420354E+01+
*       4.5790103141E+02               0
GRID*               3442               09.6797037017E+017.6672904956E+01+
*       4.5893142158E+02               0
GRID*               3443               09.6789908341E+018.0144641414E+01+
*       4.5171935769E+02               0
GRID*               3444               09.7265471870E+018.0904337335E+01+
*       4.5120424257E+02               0
GRID*               3445               09.6789803482E+018.0144433727E+01+
*       4.5274930960E+02               0
GRID*               3446               09.7265098093E+018.0903856612E+01+
*       4.5326387841E+02               0
GRID*               3447               09.6789616301E+018.0144054354E+01+
*       4.5377910477E+02               0
GRID*               3448               09.7898296842E+018.1539291044E+01+
*       4.5377854703E+02               0
GRID*               3449               09.8656721347E+018.2017438885E+01+
*       4.5429300109E+02               0
GRID*               3450               09.7897978742E+018.1539036732E+01+
*       4.5480811836E+02               0
GRID*               3451               09.7898613213E+018.1539543917E+01+
*       4.5274875287E+02               0
GRID*               3452               09.7899031867E+018.1539878353E+01+
*       4.5068919849E+02               0
GRID*               3453               09.8658009006E+018.2018060869E+01+
*       4.5017404766E+02               0
GRID*               3454               09.7898911634E+018.1539782386E+01+
*       4.5171903970E+02               0
GRID*               3455               09.8657419176E+018.2017776030E+01+
*       4.5223371709E+02               0
GRID*               3456               09.6789428782E+018.0143674375E+01+
*       4.5480894021E+02               0
GRID*               3457               09.7264615608E+018.0903239152E+01+
*       4.5532341005E+02               0
GRID*               3458               09.6789273796E+018.0143362451E+01+
*       4.5583867860E+02               0
GRID*               3459               09.7897721185E+018.1538830812E+01+
*       4.5583785567E+02               0
GRID*               3460               09.8656038919E+018.2017109018E+01+
*       4.5635224289E+02               0
GRID*               3461               09.7897436673E+018.1538603280E+01+
*       4.5686752669E+02               0
GRID*               3462               09.6789124970E+018.0143063520E+01+
*       4.5686856160E+02               0
GRID*               3463               09.7264210110E+018.0902718585E+01+
*       4.5738308744E+02               0
GRID*               3464               09.6788990567E+018.0142794851E+01+
*       4.5789850297E+02               0
GRID*               3465               09.7897217011E+018.1538427611E+01+
*       4.5789746691E+02               0
GRID*               3466               09.8655469296E+018.2016833554E+01+
*       4.5841188016E+02               0
GRID*               3467               09.7896997614E+018.1538252126E+01+
*       4.5892743377E+02               0
GRID*               3468               09.6788598087E+018.0142012048E+01+
*       4.6098924080E+02               0
GRID*               3469               09.7263395404E+018.0901672359E+01+
*       4.6150380677E+02               0
GRID*               3470               09.6788804819E+018.0142431521E+01+
*       4.5995891325E+02               0
GRID*               3471               09.6788914781E+018.0142648822E+01+
*       4.5892866347E+02               0
GRID*               3472               09.7263870206E+018.0902280566E+01+
*       4.5944327576E+02               0
GRID*               3473               09.7896329840E+018.1537717807E+01+
*       4.6201838169E+02               0
GRID*               3474               09.8654813836E+018.2016516439E+01+
*       4.6253329234E+02               0
GRID*               3475               09.7896717900E+018.1538028442E+01+
*       4.6098809855E+02               0
GRID*               3476               09.7896822931E+018.1538112409E+01+
*       4.5995768230E+02               0
GRID*               3477               09.8655105288E+018.2016657464E+01+
*       4.6047226260E+02               0
GRID*               3478               01.0213358278E+028.2019354509E+01+
*       4.4811359896E+02               0
GRID*               3479               01.0128770890E+028.2315507385E+01+
*       4.4862874077E+02               0
GRID*               3480               01.0289267265E+028.1541924303E+01+
*       4.4759856899E+02               0
GRID*               3481               01.0352688889E+028.0906795973E+01+
*       4.4708334685E+02               0
GRID*               3482               01.0289245842E+028.1542095170E+01+
*       4.4862864898E+02               0
GRID*               3483               01.0352666011E+028.0907040142E+01+
*       4.4914363690E+02               0
GRID*               3484               01.0289231900E+028.1542206312E+01+
*       4.4965865951E+02               0
GRID*               3485               09.9503747623E+018.2314860226E+01+
*       4.4965890689E+02               0
GRID*               3486               01.0039569343E+028.2415916182E+01+
*       4.4914376379E+02               0
GRID*               3487               09.9503481089E+018.2314798486E+01+
*       4.5068886325E+02               0
GRID*               3488               01.0039511080E+028.2415915928E+01+
*       4.5120354940E+02               0
GRID*               3489               09.9503194509E+018.2314732190E+01+
*       4.5171868950E+02               0
GRID*               3490               01.0289209465E+028.1542385216E+01+
*       4.5068851173E+02               0
GRID*               3491               01.0213308847E+028.2019592676E+01+
*       4.5017353103E+02               0
GRID*               3492               01.0352644265E+028.0907302557E+01+
*       4.5120340300E+02               0
GRID*               3493               01.0289190734E+028.1542534541E+01+
*       4.5171826690E+02               0
GRID*               3494               01.0289169785E+028.1542701535E+01+
*       4.5274796650E+02               0
GRID*               3495               01.0352617557E+028.0907627745E+01+
*       4.5326279993E+02               0
GRID*               3496               01.0289149815E+028.1542860698E+01+
*       4.5377760824E+02               0
GRID*               3497               01.0213260000E+028.2019827945E+01+
*       4.5223308271E+02               0
GRID*               3498               01.0128743291E+028.2315570266E+01+
*       4.4965870023E+02               0
GRID*               3499               01.0128715766E+028.2315632957E+01+
*       4.5068855232E+02               0
GRID*               3500               01.0128686367E+028.2315699898E+01+
*       4.5171837838E+02               0
GRID*               3501               01.0128660703E+028.2315758299E+01+
*       4.5274807785E+02               0
GRID*               3502               01.0289124638E+028.1543061373E+01+
*       4.5480720856E+02               0
GRID*               3503               01.0213208039E+028.2020078120E+01+
*       4.5429238247E+02               0
GRID*               3504               01.0352593598E+028.0907918716E+01+
*       4.5532214346E+02               0
GRID*               3505               01.0289109504E+028.1543181932E+01+
*       4.5583691070E+02               0
GRID*               3506               09.9502834542E+018.2314649098E+01+
*       4.5274840226E+02               0
GRID*               3507               01.0039444560E+028.2415915534E+01+
*       4.5326299473E+02               0
GRID*               3508               09.9502484374E+018.2314568271E+01+
*       4.5377802163E+02               0
GRID*               3509               01.0128625040E+028.2315839461E+01+
*       4.5377769702E+02               0
GRID*               3510               01.0128594107E+028.2315909814E+01+
*       4.5480729720E+02               0
GRID*               3511               09.9502098547E+018.2314479274E+01+
*       4.5480759250E+02               0
GRID*               3512               01.0039374417E+028.2415914998E+01+
*       4.5532228431E+02               0
GRID*               3513               09.9501774678E+018.2314404505E+01+
*       4.5583726302E+02               0
GRID*               3514               01.0289087835E+028.1543354585E+01+
*       4.5686666617E+02               0
GRID*               3515               01.0213155282E+028.2020332029E+01+
*       4.5635173809E+02               0
GRID*               3516               01.0352573157E+028.0908165692E+01+
*       4.5738180735E+02               0
GRID*               3517               01.0289072372E+028.1543477731E+01+
*       4.5789662861E+02               0
GRID*               3518               01.0128561162E+028.2315984719E+01+
*       4.5583696750E+02               0
GRID*               3519               01.0128534604E+028.2316045057E+01+
*       4.5686672282E+02               0
GRID*               3520               09.9501429541E+018.2314324863E+01+
*       4.5686693354E+02               0
GRID*               3521               01.0039313508E+028.2415914431E+01+
*       4.5738183115E+02               0
GRID*               3522               09.9501167675E+018.2314264354E+01+
*       4.5789681017E+02               0
GRID*               3523               01.0289056640E+028.1543603014E+01+
*       4.5892669668E+02               0
GRID*               3524               01.0213113408E+028.2020533493E+01+
*       4.5841156144E+02               0
GRID*               3525               01.0352556784E+028.0908361680E+01+
*       4.5944207995E+02               0
GRID*               3526               01.0289046660E+028.1543682437E+01+
*       4.5995700782E+02               0
GRID*               3527               01.0128507935E+028.2316105628E+01+
*       4.5789659923E+02               0
GRID*               3528               01.0128488777E+028.2316149091E+01+
*       4.5892666713E+02               0
GRID*               3529               09.9500902684E+018.2314203142E+01+
*       4.5892677647E+02               0
GRID*               3530               01.0039269464E+028.2415913963E+01+
*       4.5944186678E+02               0
GRID*               3531               09.9500741806E+018.2314165868E+01+
*       4.5995693579E+02               0
GRID*               3532               09.9500356362E+018.2314076502E+01+
*       4.6304850698E+02               0
GRID*               3533               01.0039227941E+028.2415913477E+01+
*       4.6356382141E+02               0
GRID*               3534               09.9500543639E+018.2314119786E+01+
*       4.6201789343E+02               0
GRID*               3535               09.9500618558E+018.2314137262E+01+
*       4.6098735141E+02               0
GRID*               3536               01.0039244716E+028.2415913679E+01+
*       4.6150256777E+02               0
GRID*               3537               01.0128472272E+028.2316186512E+01+
*       4.5995682621E+02               0
GRID*               3538               01.0213091984E+028.2020636539E+01+
*       4.6047220125E+02               0
GRID*               3539               01.0128467872E+028.2316196399E+01+
*       4.6098739799E+02               0
GRID*               3540               01.0289042769E+028.1543713316E+01+
*       4.6098757980E+02               0
GRID*               3541               01.0352552842E+028.0908401647E+01+
*       4.6150302595E+02               0
GRID*               3542               01.0289042916E+028.1543712005E+01+
*       4.6201821591E+02               0
GRID*               3543               01.0128450884E+028.2316234660E+01+
*       4.6407942631E+02               0
GRID*               3544               01.0213096032E+028.2020617042E+01+
*       4.6459506209E+02               0
GRID*               3545               01.0128459619E+028.2316214925E+01+
*       4.6304871459E+02               0
GRID*               3546               01.0128460016E+028.2316214142E+01+
*       4.6201793976E+02               0
GRID*               3547               01.0213087877E+028.2020656278E+01+
*       4.6253354802E+02               0
GRID*               3548               01.0289052552E+028.1543634788E+01+
*       4.6511072965E+02               0
GRID*               3549               01.0352577749E+028.0908069698E+01+
*       4.6562671479E+02               0
GRID*               3550               01.0289045780E+028.1543688906E+01+
*       4.6407999033E+02               0
GRID*               3551               01.0289042243E+028.1543717237E+01+
*       4.6304899096E+02               0
GRID*               3552               01.0352559691E+028.0908306097E+01+
*       4.6356465992E+02               0
GRID*               3553               01.0128583316E+027.4515889501E+01+
*       4.4656531007E+02               0
GRID*               3554               01.0128583323E+027.4515889514E+01+
*       4.4553438296E+02               0
GRID*               3555               01.0128574500E+027.4515869414E+01+
*       4.4759612867E+02               0
GRID*               3556               01.0128574492E+027.4515869399E+01+
*       4.4862705573E+02               0
GRID*               3557               01.0213069113E+027.4811120112E+01+
*       4.4708132101E+02               0
GRID*               3558               01.0288813656E+027.5286246350E+01+
*       4.4759725571E+02               0
GRID*               3559               01.0288820701E+027.5286302401E+01+
*       4.4656643845E+02               0
GRID*               3560               01.0128581056E+027.4515884345E+01+
*       4.4450352641E+02               0
GRID*               3561               01.0213074390E+027.4811146016E+01+
*       4.4501964724E+02               0
GRID*               3562               01.0128581062E+027.4515884356E+01+
*       4.4347259925E+02               0
GRID*               3563               01.0213044881E+027.4811004784E+01+
*       4.4295798785E+02               0
GRID*               3564               01.0429580245E+027.7521439955E+01+
*       4.4502174869E+02               0
GRID*               3565               01.0439709527E+027.8410628972E+01+
*       4.4553737935E+02               0
GRID*               3566               01.0399896285E+027.6676174202E+01+
*       4.4450591739E+02               0
GRID*               3567               01.0352154405E+027.5918384826E+01+
*       4.4399001719E+02               0
GRID*               3568               01.0399908489E+027.6676425116E+01+
*       4.4553651673E+02               0
GRID*               3569               01.0352167827E+027.5918553074E+01+
*       4.4605153468E+02               0
GRID*               3570               01.0399900432E+027.6676256356E+01+
*       4.4656735444E+02               0
GRID*               3571               01.0288834018E+027.5286408383E+01+
*       4.4553559954E+02               0
GRID*               3572               01.0288802762E+027.5286159542E+01+
*       4.4347406454E+02               0
GRID*               3573               01.0288832161E+027.5286393578E+01+
*       4.4450474424E+02               0
GRID*               3574               01.0352167916E+027.5918554521E+01+
*       4.4811282547E+02               0
GRID*               3575               01.0288826358E+027.5286347486E+01+
*       4.4862770882E+02               0
GRID*               3576               01.0399909585E+027.6676444117E+01+
*       4.4759776992E+02               0
GRID*               3577               01.0429590687E+027.7521917626E+01+
*       4.4708276253E+02               0
GRID*               3578               01.0399916037E+027.6676575958E+01+
*       4.4862822174E+02               0
GRID*               3579               01.0399913590E+027.6676523495E+01+
*       4.4965851344E+02               0
GRID*               3580               01.0429593547E+027.7522065955E+01+
*       4.4914346866E+02               0
GRID*               3581               01.0439708648E+027.8411316415E+01+
*       4.4965865913E+02               0
GRID*               3582               01.0439708904E+027.8411373122E+01+
*       4.4862836859E+02               0
GRID*               3583               01.0439708396E+027.8411352836E+01+
*       4.5068869853E+02               0
GRID*               3584               01.0429763749E+027.9302437569E+01+
*       4.5017358538E+02               0
GRID*               3585               01.0400262911E+028.0148136366E+01+
*       4.5068866246E+02               0
GRID*               3586               01.0400253952E+028.0148327521E+01+
*       4.5171841831E+02               0
GRID*               3587               01.0400263613E+028.0148117187E+01+
*       4.4965862407E+02               0
GRID*               3588               01.0400269953E+028.0147980688E+01+
*       4.4862861289E+02               0
GRID*               3589               01.0439709348E+027.8411049577E+01+
*       4.4656768336E+02               0
GRID*               3590               01.0429777745E+027.9301851567E+01+
*       4.4605270364E+02               0
GRID*               3591               01.0439709135E+027.8411260531E+01+
*       4.4759809776E+02               0
GRID*               3592               01.0429766591E+027.9302328524E+01+
*       4.4811327685E+02               0
GRID*               3593               01.0400281720E+028.0147726920E+01+
*       4.4656806335E+02               0
GRID*               3594               01.0400273971E+028.0147892604E+01+
*       4.4759834302E+02               0
GRID*               3595               01.0128596601E+027.4515919794E+01+
*       4.5275011712E+02               0
GRID*               3596               01.0128596611E+027.4515919813E+01+
*       4.5171919021E+02               0
GRID*               3597               01.0128582460E+027.4515887569E+01+
*       4.5378073100E+02               0
GRID*               3598               01.0128582449E+027.4515887548E+01+
*       4.5481165784E+02               0
GRID*               3599               01.0213090244E+027.4811220734E+01+
*       4.5326516368E+02               0
GRID*               3600               01.0288838115E+027.5286441209E+01+
*       4.5378017233E+02               0
GRID*               3601               01.0288849434E+027.5286531295E+01+
*       4.5274956016E+02               0
GRID*               3602               01.0128598315E+027.4515923694E+01+
*       4.5068855962E+02               0
GRID*               3603               01.0213104647E+027.4811290184E+01+
*       4.5120392092E+02               0
GRID*               3604               01.0128598323E+027.4515923711E+01+
*       4.4965763262E+02               0
GRID*               3605               01.0213083673E+027.4811189667E+01+
*       4.4914271503E+02               0
GRID*               3606               01.0429596573E+027.7522222767E+01+
*       4.5120380969E+02               0
GRID*               3607               01.0439708157E+027.8411572526E+01+
*       4.5171874777E+02               0
GRID*               3608               01.0399936245E+027.6676989449E+01+
*       4.5171885249E+02               0
GRID*               3609               01.0352203057E+027.5918994971E+01+
*       4.5223421265E+02               0
GRID*               3610               01.0399924975E+027.6676754273E+01+
*       4.5274920796E+02               0
GRID*               3611               01.0399926648E+027.6676792293E+01+
*       4.5068880201E+02               0
GRID*               3612               01.0352198271E+027.5918934721E+01+
*       4.5017356718E+02               0
GRID*               3613               01.0288868724E+027.5286684858E+01+
*       4.5171920321E+02               0
GRID*               3614               01.0288845538E+027.5286500200E+01+
*       4.4965828426E+02               0
GRID*               3615               01.0288870054E+027.5286695419E+01+
*       4.5068857419E+02               0
GRID*               3616               01.0352194794E+027.5918891913E+01+
*       4.5429486333E+02               0
GRID*               3617               01.0288846300E+027.5286506404E+01+
*       4.5481046761E+02               0
GRID*               3618               01.0399931609E+027.6676890108E+01+
*       4.5377926653E+02               0
GRID*               3619               01.0429604192E+027.7522581187E+01+
*       4.5326391749E+02               0
GRID*               3620               01.0399935664E+027.6676972598E+01+
*       4.5480956022E+02               0
GRID*               3621               01.0399930183E+027.6676857542E+01+
*       4.5583963309E+02               0
GRID*               3622               01.0429604000E+027.7522599828E+01+
*       4.5532404755E+02               0
GRID*               3623               01.0439707090E+027.8412012349E+01+
*       4.5583864395E+02               0
GRID*               3624               01.0439707388E+027.8412141817E+01+
*       4.5480857253E+02               0
GRID*               3625               01.0439706796E+027.8411995298E+01+
*       4.5686859502E+02               0
GRID*               3626               01.0429745203E+027.9303190035E+01+
*       4.5635310524E+02               0
GRID*               3627               01.0400222844E+028.0148999047E+01+
*       4.5686747887E+02               0
GRID*               3628               01.0400215790E+028.0149150781E+01+
*       4.5789744213E+02               0
GRID*               3629               01.0400221145E+028.0149029435E+01+
*       4.5583752901E+02               0
GRID*               3630               01.0400228052E+028.0148880839E+01+
*       4.5480782611E+02               0
GRID*               3631               01.0439707923E+027.8411919903E+01+
*       4.5274863177E+02               0
GRID*               3632               01.0429755541E+027.9302780056E+01+
*       4.5223350699E+02               0
GRID*               3633               01.0439707662E+027.8412070424E+01+
*       4.5377868900E+02               0
GRID*               3634               01.0429746399E+027.9303160893E+01+
*       4.5429327262E+02               0
GRID*               3635               01.0400230212E+028.0148831072E+01+
*       4.5377794371E+02               0
GRID*               3636               01.0400239826E+028.0148626226E+01+
*       4.5274830125E+02               0
GRID*               3637               01.0128599176E+027.4515925681E+01+
*       4.5893481709E+02               0
GRID*               3638               01.0128599190E+027.4515925709E+01+
*       4.5790389044E+02               0
GRID*               3639               01.0128581222E+027.4515884766E+01+
*       4.5996553333E+02               0
GRID*               3640               01.0128581207E+027.4515884735E+01+
*       4.6099645988E+02               0
GRID*               3641               01.0213090896E+027.4811224251E+01+
*       4.5944909948E+02               0
GRID*               3642               01.0288841697E+027.5286469905E+01+
*       4.5996338089E+02               0
GRID*               3643               01.0288856080E+027.5286584382E+01+
*       4.5893266686E+02               0
GRID*               3644               01.0128604486E+027.4515937777E+01+
*       4.5687321068E+02               0
GRID*               3645               01.0213112917E+027.4811329837E+01+
*       4.5738770565E+02               0
GRID*               3646               01.0128604498E+027.4515937802E+01+
*       4.5584228393E+02               0
GRID*               3647               01.0213097615E+027.4811256131E+01+
*       4.5532640180E+02               0
GRID*               3648               01.0429604259E+027.7522639202E+01+
*       4.5738444223E+02               0
GRID*               3649               01.0439706513E+027.8412167195E+01+
*       4.5789891676E+02               0
GRID*               3650               01.0399949657E+027.6677258305E+01+
*       4.5790041151E+02               0
GRID*               3651               01.0352217225E+027.5919173377E+01+
*       4.5841650923E+02               0
GRID*               3652               01.0399934910E+027.6676951449E+01+
*       4.5893085010E+02               0
GRID*               3653               01.0399942004E+027.6677101069E+01+
*       4.5687008821E+02               0
GRID*               3654               01.0352219604E+027.5919202789E+01+
*       4.5635561377E+02               0
GRID*               3655               01.0288881900E+027.5286789948E+01+
*       4.5790222641E+02               0
GRID*               3656               01.0288886114E+027.5286823476E+01+
*       4.5687154868E+02               0
GRID*               3657               01.0288864050E+027.5286647751E+01+
*       4.5584109184E+02               0
GRID*               3658               01.0352201099E+027.5918971898E+01+
*       4.6047761421E+02               0
GRID*               3659               01.0288846571E+027.5286508740E+01+
*       4.6099404740E+02               0
GRID*               3660               01.0399939226E+027.6677039679E+01+
*       4.5996132253E+02               0
GRID*               3661               01.0429609468E+027.7522895712E+01+
*       4.5944523633E+02               0
GRID*               3662               01.0399941599E+027.6677087766E+01+
*       4.6099198704E+02               0
GRID*               3663               01.0399933532E+027.6676919613E+01+
*       4.6202259519E+02               0
GRID*               3664               01.0429606523E+027.7522797204E+01+
*       4.6150631513E+02               0
GRID*               3665               01.0439705277E+027.8412316388E+01+
*       4.6202083544E+02               0
GRID*               3666               01.0439705613E+027.8412509278E+01+
*       4.6099022912E+02               0
GRID*               3667               01.0439704940E+027.8412175233E+01+
*       4.6305155851E+02               0
GRID*               3668               01.0429737595E+027.9303441324E+01+
*       4.6253545612E+02               0
GRID*               3669               01.0400211924E+028.0149256725E+01+
*       4.6304995174E+02               0
GRID*               3670               01.0400215486E+028.0149187801E+01+
*       4.6408095211E+02               0
GRID*               3671               01.0400204744E+028.0149400885E+01+
*       4.6201923015E+02               0
GRID*               3672               01.0400203092E+028.0149430102E+01+
*       4.6098859311E+02               0
GRID*               3673               01.0439706232E+027.8412451658E+01+
*       4.5892928822E+02               0
GRID*               3674               01.0429739204E+027.9303427726E+01+
*       4.5841342568E+02               0
GRID*               3675               01.0439705930E+027.8412545431E+01+
*       4.5995975896E+02               0
GRID*               3676               01.0429733623E+027.9303644874E+01+
*       4.6047426512E+02               0
GRID*               3677               01.0400200494E+028.0149479032E+01+
*       4.5995812433E+02               0
GRID*               3678               01.0400204480E+028.0149391063E+01+
*       4.5892781231E+02               0
GRID*               3679               01.0213098226E+027.4811260019E+01+
*       4.6151070942E+02               0
GRID*               3680               01.0128607956E+027.4515945703E+01+
*       4.6202735592E+02               0
GRID*               3681               01.0352214781E+027.5919143506E+01+
*       4.6253918458E+02               0
GRID*               3682               01.0399939632E+027.6677045080E+01+
*       4.6305349904E+02               0
GRID*               3683               01.0288868096E+027.5286680149E+01+
*       4.6202494103E+02               0
GRID*               3684               01.0288879560E+027.5286771472E+01+
*       4.6305584705E+02               0
GRID*               3685               01.0128607939E+027.4515945668E+01+
*       4.6305828235E+02               0
GRID*               3686               01.0128591666E+027.4515908579E+01+
*       4.6408915115E+02               0
GRID*               3687               01.0128591647E+027.4515908539E+01+
*       4.6512007745E+02               0
GRID*               3688               01.0213106761E+027.4811301813E+01+
*       4.6357247171E+02               0
GRID*               3689               01.0288866527E+027.5286667719E+01+
*       4.6408671322E+02               0
GRID*               3690               01.0128608356E+027.4515946627E+01+
*       4.6615112492E+02               0
GRID*               3691               01.0213105626E+027.4811297353E+01+
*       4.6563438522E+02               0
GRID*               3692               01.0128608335E+027.4515946583E+01+
*       4.6718205108E+02               0
GRID*               3693               01.0213097869E+027.4811261310E+01+
*       4.6769642322E+02               0
GRID*               3694               01.0288849239E+027.5286530201E+01+
*       4.6821080844E+02               0
GRID*               3695               01.0288867674E+027.5286676952E+01+
*       4.6717981804E+02               0
GRID*               3696               01.0352184800E+027.5918769348E+01+
*       4.6872536957E+02               0
GRID*               3697               01.0288867956E+027.5286679133E+01+
*       4.6511769569E+02               0
GRID*               3698               01.0352225700E+027.5919280541E+01+
*       4.6460107072E+02               0
GRID*               3699               01.0288881413E+027.5286786324E+01+
*       4.6614874029E+02               0
GRID*               3700               01.0352216455E+027.5919165160E+01+
*       4.6666312837E+02               0
GRID*               3701               01.0429593873E+027.7522340654E+01+
*       4.6769234656E+02               0
GRID*               3702               01.0439703555E+027.8411814775E+01+
*       4.6717584221E+02               0
GRID*               3703               01.0399920384E+027.6676643517E+01+
*       4.6820886881E+02               0
GRID*               3704               01.0399934966E+027.6676945872E+01+
*       4.6717766952E+02               0
GRID*               3705               01.0399942728E+027.6677107150E+01+
*       4.6614659433E+02               0
GRID*               3706               01.0400226217E+028.0148974991E+01+
*       4.6614311958E+02               0
GRID*               3707               01.0429750944E+027.9302798001E+01+
*       4.6665945812E+02               0
GRID*               3708               01.0400216744E+028.0149166838E+01+
*       4.6511206127E+02               0
GRID*               3709               01.0429741142E+027.9303256145E+01+
*       4.6459728766E+02               0
GRID*               3710               01.0439703935E+027.8412211304E+01+
*       4.6614478029E+02               0
GRID*               3711               01.0399952286E+027.6677306488E+01+
*       4.6408462630E+02               0
GRID*               3712               01.0429607776E+027.7522882941E+01+
*       4.6356804861E+02               0
GRID*               3713               01.0399952875E+027.6677317985E+01+
*       4.6511560641E+02               0
GRID*               3714               01.0429607870E+027.7522918902E+01+
*       4.6563016168E+02               0
GRID*               3715               01.0439704295E+027.8412455251E+01+
*       4.6511379452E+02               0
GRID*               3716               01.0439704632E+027.8412458487E+01+
*       4.6408268379E+02               0
GRID*               3717               01.0352113819E+027.5917884263E+01+
*       4.9347414022E+02               0
GRID*               3718               01.0288767342E+027.5285879144E+01+
*       4.9398922118E+02               0
GRID*               3719               01.0399755416E+027.6675957750E+01+
*       4.9398989433E+02               0
GRID*               3720               01.0399771255E+027.6675733377E+01+
*       4.9502119341E+02               0
GRID*               3721               01.0429534121E+027.7520218308E+01+
*       4.9450584316E+02               0
GRID*               3722               01.0399744154E+027.6675789908E+01+
*       4.9295875648E+02               0
GRID*               3723               01.0429530791E+027.7520033729E+01+
*       4.9244341640E+02               0
GRID*               3724               01.0439692383E+027.8409199460E+01+
*       4.9502166976E+02               0
GRID*               3725               01.0439692850E+027.8409361848E+01+
*       4.9399037934E+02               0
GRID*               3726               01.0439691931E+027.8409163103E+01+
*       4.9605282909E+02               0
GRID*               3727               01.0430007779E+027.9298973910E+01+
*       4.9553727044E+02               0
GRID*               3728               01.0439693679E+027.8409009193E+01+
*       4.9192798477E+02               0
GRID*               3729               01.0429986856E+027.9298899148E+01+
*       4.9141234589E+02               0
GRID*               3730               01.0439693292E+027.8409366699E+01+
*       4.9295911478E+02               0
GRID*               3731               01.0430000912E+027.9299059166E+01+
*       4.9347485605E+02               0
GRID*               3732               01.0400416940E+028.0145102146E+01+
*       4.9605300904E+02               0
GRID*               3733               01.0400414726E+028.0145150076E+01+
*       4.9502185557E+02               0
GRID*               3734               01.0400416441E+028.0145110112E+01+
*       4.9708392566E+02               0
GRID*               3735               01.0352868398E+028.0904241738E+01+
*       4.9656830696E+02               0
GRID*               3736               01.0400416347E+028.0145117562E+01+
*       4.9399068770E+02               0
GRID*               3737               01.0400415338E+028.0145139232E+01+
*       4.9295942855E+02               0
GRID*               3738               01.0352869503E+028.0904241056E+01+
*       4.9450623125E+02               0
GRID*               3739               01.0400421874E+028.0145002714E+01+
*       4.9089679589E+02               0
GRID*               3740               01.0352865702E+028.0904314794E+01+
*       4.9038095034E+02               0
GRID*               3741               01.0400412617E+028.0145196031E+01+
*       4.9192805002E+02               0
GRID*               3742               01.0352866469E+028.0904292316E+01+
*       4.9244369323E+02               0
GRID*               3743               01.0289371589E+028.1541086107E+01+
*       4.9708367268E+02               0
GRID*               3744               01.0289373910E+028.1541067566E+01+
*       4.9605275889E+02               0
GRID*               3745               01.0289375619E+028.1541053917E+01+
*       4.9811455383E+02               0
GRID*               3746               01.0213515177E+028.2018597672E+01+
*       4.9759894708E+02               0
GRID*               3747               01.0128945555E+028.2315102317E+01+
*       4.9811432570E+02               0
GRID*               3748               01.0128949146E+028.2315093965E+01+
*       4.9914502321E+02               0
GRID*               3749               01.0039768068E+028.2415916405E+01+
*       4.9862953691E+02               0
GRID*               3750               01.0128940804E+028.2315113322E+01+
*       4.9708344568E+02               0
GRID*               3751               01.0289374148E+028.1541065670E+01+
*       4.9502169056E+02               0
GRID*               3752               01.0289378838E+028.1541028221E+01+
*       4.9399052526E+02               0
GRID*               3753               01.0213510845E+028.2018618577E+01+
*       4.9553699914E+02               0
GRID*               3754               01.0128940309E+028.2315114596E+01+
*       4.9605248822E+02               0
GRID*               3755               01.0039763693E+028.2415916411E+01+
*       4.9656788130E+02               0
GRID*               3756               01.0128940809E+028.2315113597E+01+
*       4.9502142092E+02               0
GRID*               3757               01.0289378267E+028.1541032806E+01+
*       4.9295926444E+02               0
GRID*               3758               01.0289375441E+028.1541055412E+01+
*       4.9192788827E+02               0
GRID*               3759               01.0213510348E+028.2018620988E+01+
*       4.9347467138E+02               0
GRID*               3760               01.0128939911E+028.2315115792E+01+
*       4.9399022195E+02               0
GRID*               3761               01.0039762068E+028.2415916413E+01+
*       4.9450572429E+02               0
GRID*               3762               01.0128939326E+028.2315117273E+01+
*       4.9295896206E+02               0
GRID*               3763               01.0289380749E+028.1541013094E+01+
*       4.8986515109E+02               0
GRID*               3764               01.0213508817E+028.2018628396E+01+
*       4.8934930690E+02               0
GRID*               3765               01.0289373225E+028.1541073158E+01+
*       4.9089652130E+02               0
GRID*               3766               01.0213506892E+028.2018637669E+01+
*       4.9141204485E+02               0
GRID*               3767               01.0128935948E+028.2315125137E+01+
*       4.9192761632E+02               0
GRID*               3768               01.0128933240E+028.2315131473E+01+
*       4.9089625021E+02               0
GRID*               3769               01.0039757480E+028.2415916418E+01+
*       4.9244317903E+02               0
GRID*               3770               01.0128930557E+028.2315137889E+01+
*       4.8883346232E+02               0
GRID*               3771               01.0039730887E+028.2415916439E+01+
*       4.8831757122E+02               0
GRID*               3772               01.0128925296E+028.2315149775E+01+
*       4.8986483368E+02               0
GRID*               3773               01.0039745662E+028.2415916430E+01+
*       4.9038041627E+02               0
GRID*               3774               09.9505776066E+018.2315316838E+01+
*       4.9502108026E+02               0
GRID*               3775               09.9505817598E+018.2315326391E+01+
*       4.9605213169E+02               0
GRID*               3776               09.8659898126E+018.2018972188E+01+
*       4.9553629949E+02               0
GRID*               3777               09.9505767204E+018.2315314749E+01+
*       4.9398988031E+02               0
GRID*               3778               09.9505848635E+018.2315333713E+01+
*       4.9914471036E+02               0
GRID*               3779               09.9505813193E+018.2315325538E+01+
*       4.9811401169E+02               0
GRID*               3780               09.9505867901E+018.2315338198E+01+
*       5.0017539239E+02               0
GRID*               3781               09.8659937937E+018.2018991372E+01+
*       4.9965988163E+02               0
GRID*               3782               09.9505822252E+018.2315327528E+01+
*       4.9708309022E+02               0
GRID*               3783               09.8659928235E+018.2018986700E+01+
*       4.9759827513E+02               0
GRID*               3784               09.7900948488E+018.1541406493E+01+
*       5.0017505297E+02               0
GRID*               3785               09.7900916723E+018.1541381622E+01+
*       4.9914436718E+02               0
GRID*               3786               09.7900885549E+018.1541355694E+01+
*       5.0120575350E+02               0
GRID*               3787               09.7265964581E+018.0904690299E+01+
*       5.0069017269E+02               0
GRID*               3788               09.6789991761E+018.0145485023E+01+
*       5.0120558020E+02               0
GRID*               3789               09.6789959893E+018.0145433100E+01+
*       5.0223616796E+02               0
GRID*               3790               09.6495624568E+017.9298700539E+01+
*       5.0172075681E+02               0
GRID*               3791               09.6790056021E+018.0145604388E+01+
*       5.0017487326E+02               0
GRID*               3792               09.7900824577E+018.1541309355E+01+
*       4.9605165697E+02               0
GRID*               3793               09.7900916598E+018.1541382435E+01+
*       4.9708258817E+02               0
GRID*               3794               09.7266092459E+018.0904877877E+01+
*       4.9656683470E+02               0
GRID*               3795               09.7900778660E+018.1541273070E+01+
*       4.9502060240E+02               0
GRID*               3796               09.7900923902E+018.1541387826E+01+
*       4.9811351308E+02               0
GRID*               3797               09.7266092768E+018.0904865084E+01+
*       4.9862861889E+02               0
GRID*               3798               09.6790109914E+018.0145672612E+01+
*       4.9708223563E+02               0
GRID*               3799               09.6790102605E+018.0145672137E+01+
*       4.9811321238E+02               0
GRID*               3800               09.6495658507E+017.9298800920E+01+
*       4.9759757486E+02               0
GRID*               3801               09.6790085852E+018.0145607650E+01+
*       4.9605129904E+02               0
GRID*               3802               09.6790070513E+018.0145619949E+01+
*       4.9914407235E+02               0
GRID*               3803               09.6495647712E+017.9298777898E+01+
*       4.9965935997E+02               0
GRID*               3804               09.9505735668E+018.2315307486E+01+
*       4.9295861171E+02               0
GRID*               3805               09.9505701821E+018.2315299701E+01+
*       4.9192726508E+02               0
GRID*               3806               09.8659830753E+018.2018939708E+01+
*       4.9347397696E+02               0
GRID*               3807               09.6790085024E+018.0145591073E+01+
*       4.9502020057E+02               0
GRID*               3808               09.6495661665E+017.9298790434E+01+
*       4.9553549283E+02               0
GRID*               3809               09.6790098421E+018.0145604112E+01+
*       4.9398899787E+02               0
GRID*               3810               09.7266064891E+018.0904856170E+01+
*       4.9450470712E+02               0
GRID*               3811               09.7900756260E+018.1541255544E+01+
*       4.9398940464E+02               0
GRID*               3812               09.7900719986E+018.1541226911E+01+
*       4.9295813318E+02               0
GRID*               3813               09.9505599469E+018.2315276274E+01+
*       4.9089592402E+02               0
GRID*               3814               09.9505519759E+018.2315258022E+01+
*       4.8986450668E+02               0
GRID*               3815               09.8659707511E+018.2018880287E+01+
*       4.9141136501E+02               0
GRID*               3816               09.9505364645E+018.2315222513E+01+
*       4.8780168307E+02               0
GRID*               3817               09.8659334269E+018.2018700290E+01+
*       4.8728579823E+02               0
GRID*               3818               09.9505427645E+018.2315236940E+01+
*       4.8883311190E+02               0
GRID*               3819               09.8659528646E+018.2018794035E+01+
*       4.8934862709E+02               0
GRID*               3820               09.7900223922E+018.1540832215E+01+
*       4.8676998190E+02               0
GRID*               3821               09.7265726320E+018.0904479885E+01+
*       4.8625411602E+02               0
GRID*               3822               09.7900325924E+018.1540913495E+01+
*       4.8780141624E+02               0
GRID*               3823               09.7900379944E+018.1540956421E+01+
*       4.8883278883E+02               0
GRID*               3824               09.7265908857E+018.0904697533E+01+
*       4.8831693507E+02               0
GRID*               3825               09.6790000249E+018.0145324659E+01+
*       4.8883262201E+02               0
GRID*               3826               09.6789993105E+018.0145294784E+01+
*       4.8780124561E+02               0
GRID*               3827               09.6790023682E+018.0145388498E+01+
*       4.8986393172E+02               0
GRID*               3828               09.6495618478E+017.9298527513E+01+
*       4.8934815972E+02               0
GRID*               3829               09.6789887030E+018.0145043626E+01+
*       4.8573844704E+02               0
GRID*               3830               09.6495577442E+017.9298299275E+01+
*       4.8522275380E+02               0
GRID*               3831               09.6789997036E+018.0145288014E+01+
*       4.8676989906E+02               0
GRID*               3832               09.6495608978E+017.9298462044E+01+
*       4.8728549873E+02               0
GRID*               3833               09.6790088176E+018.0145567839E+01+
*       4.9295780771E+02               0
GRID*               3834               09.6790092939E+018.0145562827E+01+
*       4.9192652428E+02               0
GRID*               3835               09.7266079028E+018.0904886778E+01+
*       4.9244223208E+02               0
GRID*               3836               09.6495656026E+017.9298741291E+01+
*       4.9347319798E+02               0
GRID*               3837               09.6790072553E+018.0145505369E+01+
*       4.9089526051E+02               0
GRID*               3838               09.7266002647E+018.0904803221E+01+
*       4.9037963034E+02               0
GRID*               3839               09.6495640549E+017.9298648868E+01+
*       4.9141073838E+02               0
GRID*               3840               09.7900683926E+018.1541198425E+01+
*       4.9192685428E+02               0
GRID*               3841               09.7900592676E+018.1541125832E+01+
*       4.9089551061E+02               0
GRID*               3842               09.7900461554E+018.1541021364E+01+
*       4.8986418598E+02               0
GRID*               3843               09.9508625960E+017.4515847354E+01+
*       5.0223511588E+02               0
GRID*               3844               09.9508625977E+017.4515847348E+01+
*       5.0120418805E+02               0
GRID*               3845               09.9508400990E+017.4515898619E+01+
*       5.0326587705E+02               0
GRID*               3846               09.9508400977E+017.4515898623E+01+
*       5.0429680488E+02               0
GRID*               3847               09.8664001751E+017.4810941964E+01+
*       5.0275077070E+02               0
GRID*               3848               09.7906272914E+017.5286139765E+01+
*       5.0223548344E+02               0
GRID*               3849               09.7906092820E+017.5286283124E+01+
*       5.0326623649E+02               0
GRID*               3850               09.9508469881E+017.4515882922E+01+
*       5.0532756801E+02               0
GRID*               3851               09.9508469872E+017.4515882925E+01+
*       5.0635849584E+02               0
GRID*               3852               09.8663861537E+017.4811009657E+01+
*       5.0481229498E+02               0
GRID*               3853               09.7906130427E+017.5286253205E+01+
*       5.0429687529E+02               0
GRID*               3854               09.7906186574E+017.5286208528E+01+
*       5.0532762958E+02               0
GRID*               3855               09.7272888438E+017.5918185132E+01+
*       5.0378159138E+02               0
GRID*               3856               09.6787316168E+017.6672579100E+01+
*       5.0326631419E+02               0
GRID*               3857               09.6788153432E+017.6672848438E+01+
*       5.0429693814E+02               0
GRID*               3858               09.9508612628E+017.4515850309E+01+
*       4.8367769874E+02               0
GRID*               3859               09.9508612703E+017.4515850284E+01+
*       4.8264677090E+02               0
GRID*               3860               09.9508702883E+017.4515829755E+01+
*       4.8470874933E+02               0
GRID*               3861               09.9508702817E+017.4515829778E+01+
*       4.8573967717E+02               0
GRID*               3862               09.8664212680E+017.4810836933E+01+
*       4.8419292713E+02               0
GRID*               3863               09.7906590825E+017.5285885936E+01+
*       4.8367703965E+02               0
GRID*               3864               09.7906662224E+017.5285829205E+01+
*       4.8470808668E+02               0
GRID*               3865               09.9508761960E+017.4515816273E+01+
*       4.8161570235E+02               0
GRID*               3866               09.8664260086E+017.4810813678E+01+
*       4.8213080802E+02               0
GRID*               3867               09.7906681070E+017.5285814046E+01+
*       4.8264585203E+02               0
GRID*               3868               09.7273606349E+017.5917278340E+01+
*       4.8316101777E+02               0
GRID*               3869               09.6796022657E+017.6674906550E+01+
*       4.8367625510E+02               0
GRID*               3870               09.7273440513E+017.5917486099E+01+
*       4.8522338586E+02               0
GRID*               3871               09.7906550974E+017.5285917801E+01+
*       4.8573927375E+02               0
GRID*               3872               09.6796185407E+017.6675396990E+01+
*       4.8470758133E+02               0
GRID*               3873               09.6499263107E+017.7519755279E+01+
*       4.8419169730E+02               0
GRID*               3874               09.6796541863E+017.6675694145E+01+
*       4.8573875632E+02               0
GRID*               3875               09.6499241460E+017.7519948376E+01+
*       4.8625428345E+02               0
GRID*               3876               09.6797051516E+017.6675731484E+01+
*       4.8677001271E+02               0
GRID*               3877               09.6397688767E+017.8408373143E+01+
*       4.8676977968E+02               0
GRID*               3878               09.6397723184E+017.8408347778E+01+
*       4.8780112313E+02               0
GRID*               3879               09.6397650473E+017.8408599466E+01+
*       4.8573853309E+02               0
GRID*               3880               09.6397615351E+017.8408452498E+01+
*       4.8470714266E+02               0
GRID*               3881               09.6397651599E+017.8409144632E+01+
*       5.0017450513E+02               0
GRID*               3882               09.6397411178E+017.8409316470E+01+
*       5.0120521995E+02               0
GRID*               3883               09.6499272108E+017.7520545458E+01+
*       5.0068964858E+02               0
GRID*               3884               09.6397712710E+017.8409124234E+01+
*       4.9914369615E+02               0
GRID*               3885               09.6397021411E+017.8409289906E+01+
*       5.0223581305E+02               0
GRID*               3886               09.6396512851E+017.8409010540E+01+
*       5.0326647787E+02               0
GRID*               3887               09.6499326929E+017.7520415927E+01+
*       5.0275104721E+02               0
GRID*               3888               09.7272919007E+017.5918145614E+01+
*       5.0172019739E+02               0
GRID*               3889               09.7906319192E+017.5286102914E+01+
*       5.0120471340E+02               0
GRID*               3890               09.6788157345E+017.6673197375E+01+
*       5.0223563188E+02               0
GRID*               3891               09.6790470080E+017.6674036548E+01+
*       5.0120487645E+02               0
GRID*               3892               09.6793249701E+017.6674928442E+01+
*       5.0017414861E+02               0
GRID*               3893               09.9508435448E+017.4515890760E+01+
*       5.0017324150E+02               0
GRID*               3894               09.9508435470E+017.4515890753E+01+
*       4.9914231366E+02               0
GRID*               3895               09.8664028703E+017.4810928682E+01+
*       5.0068906301E+02               0
GRID*               3896               09.7906165702E+017.5286225053E+01+
*       5.0017377420E+02               0
GRID*               3897               09.9508630129E+017.4515846395E+01+
*       4.9811138397E+02               0
GRID*               3898               09.9508630155E+017.4515846386E+01+
*       4.9708045613E+02               0
GRID*               3899               09.8664027147E+017.4810929076E+01+
*       4.9862718678E+02               0
GRID*               3900               09.7906120854E+017.5286260725E+01+
*       4.9914283392E+02               0
GRID*               3901               09.7906276939E+017.5286136467E+01+
*       4.9811191099E+02               0
GRID*               3902               09.7272945332E+017.5918111322E+01+
*       4.9965850057E+02               0
GRID*               3903               09.6795093716E+017.6675705847E+01+
*       4.9914322157E+02               0
GRID*               3904               09.6397744013E+017.8408974671E+01+
*       4.9605074116E+02               0
GRID*               3905               09.6397727064E+017.8409215947E+01+
*       4.9708174720E+02               0
GRID*               3906               09.6499212794E+017.7520588760E+01+
*       4.9656600635E+02               0
GRID*               3907               09.6397762332E+017.8408887639E+01+
*       4.9501962697E+02               0
GRID*               3908               09.6397714478E+017.8409283061E+01+
*       4.9811273874E+02               0
GRID*               3909               09.6499238664E+017.7520583046E+01+
*       4.9862796733E+02               0
GRID*               3910               09.7272969066E+017.5918080401E+01+
*       4.9759659457E+02               0
GRID*               3911               09.7906323279E+017.5286099556E+01+
*       4.9708093290E+02               0
GRID*               3912               09.6795177782E+017.6675920251E+01+
*       4.9811225604E+02               0
GRID*               3913               09.6795516114E+017.6675987433E+01+
*       4.9708128569E+02               0
GRID*               3914               09.6796005031E+017.6675954838E+01+
*       4.9605027329E+02               0
GRID*               3915               09.9508509657E+017.4515873793E+01+
*       4.8677074016E+02               0
GRID*               3916               09.9508509598E+017.4515873813E+01+
*       4.8780166799E+02               0
GRID*               3917               09.8664124392E+017.4810879826E+01+
*       4.8625504068E+02               0
GRID*               3918               09.7906395007E+017.5286041983E+01+
*       4.8677033281E+02               0
GRID*               3919               09.9508585115E+017.4515856613E+01+
*       4.8883271601E+02               0
GRID*               3920               09.9508585064E+017.4515856630E+01+
*       4.8986364384E+02               0
GRID*               3921               09.8664022255E+017.4810929366E+01+
*       4.8831715165E+02               0
GRID*               3922               09.7906344370E+017.5286082348E+01+
*       4.8780151177E+02               0
GRID*               3923               09.7906404353E+017.5286034674E+01+
*       4.8883255552E+02               0
GRID*               3924               09.7273304209E+017.5917657049E+01+
*       4.8728574467E+02               0
GRID*               3925               09.6797388924E+017.6675934092E+01+
*       4.8780117959E+02               0
GRID*               3926               09.7273159212E+017.5917838988E+01+
*       4.8934805201E+02               0
GRID*               3927               09.7906284979E+017.5286129733E+01+
*       4.8986369179E+02               0
GRID*               3928               09.6797488841E+017.6676369542E+01+
*       4.8883243527E+02               0
GRID*               3929               09.6499224976E+017.7520120518E+01+
*       4.8831679766E+02               0
GRID*               3930               09.6797581344E+017.6676567166E+01+
*       4.8986356134E+02               0
GRID*               3931               09.6499205196E+017.7520308423E+01+
*       4.9037926063E+02               0
GRID*               3932               09.6797661685E+017.6676446964E+01+
*       4.9089477237E+02               0
GRID*               3933               09.6397786735E+017.8408536115E+01+
*       4.9089488233E+02               0
GRID*               3934               09.6397791580E+017.8408615826E+01+
*       4.9192615315E+02               0
GRID*               3935               09.6397772936E+017.8408712581E+01+
*       4.8986368001E+02               0
GRID*               3936               09.6397751021E+017.8408656727E+01+
*       4.8883236912E+02               0
GRID*               3937               09.6397788898E+017.8408932983E+01+
*       4.9295730560E+02               0
GRID*               3938               09.6499196186E+017.7520450831E+01+
*       4.9244162104E+02               0
GRID*               3939               09.6397778781E+017.8409020022E+01+
*       4.9398850815E+02               0
GRID*               3940               09.6499191475E+017.7520575813E+01+
*       4.9450388894E+02               0
GRID*               3941               09.6796439375E+017.6676197149E+01+
*       4.9501923142E+02               0
GRID*               3942               09.6796816470E+017.6676516017E+01+
*       4.9398810632E+02               0
GRID*               3943               09.7272985132E+017.5918059215E+01+
*       4.9553458101E+02               0
GRID*               3944               09.6797499908E+017.6676505039E+01+
*       4.9192587851E+02               0
GRID*               3945               09.7272979131E+017.5918064939E+01+
*       4.9141029337E+02               0
GRID*               3946               09.6797145509E+017.6676709191E+01+
*       4.9295703823E+02               0
GRID*               3947               09.7272926646E+017.5918131417E+01+
*       4.9347247111E+02               0
GRID*               3948               09.9508432138E+017.4515891491E+01+
*       4.9295661243E+02               0
GRID*               3949               09.9508432100E+017.4515891504E+01+
*       4.9398754027E+02               0
GRID*               3950               09.8663915271E+017.4810981228E+01+
*       4.9037922448E+02               0
GRID*               3951               09.9508386892E+017.4515901792E+01+
*       4.9089466868E+02               0
GRID*               3952               09.7906125371E+017.5286256820E+01+
*       4.9089471193E+02               0
GRID*               3953               09.7906033656E+017.5286329873E+01+
*       4.9192582565E+02               0
GRID*               3954               09.9508386847E+017.4515901808E+01+
*       4.9192559652E+02               0
GRID*               3955               09.8663780017E+017.4811046669E+01+
*       4.9244126520E+02               0
GRID*               3956               09.7906069746E+017.5286301193E+01+
*       4.9295683643E+02               0
GRID*               3957               09.7906113390E+017.5286266497E+01+
*       4.9398790989E+02               0
GRID*               3958               09.9508402427E+017.4515898270E+01+
*       4.9501853726E+02               0
GRID*               3959               09.8663800847E+017.4811037072E+01+
*       4.9450327807E+02               0
GRID*               3960               09.9508402394E+017.4515898281E+01+
*       4.9604946509E+02               0
GRID*               3961               09.8663990694E+017.4810946220E+01+
*       4.9656526607E+02               0
GRID*               3962               09.7906089464E+017.5286285581E+01+
*       4.9501890124E+02               0
GRID*               3963               09.7906140252E+017.5286245193E+01+
*       4.9604994800E+02               0
GRID*               3964               01.0128565560E+027.4515849211E+01+
*       5.0635786839E+02               0
GRID*               3965               01.0128569763E+027.4515858789E+01+
*       5.0738847503E+02               0
GRID*               3966               01.0213011326E+027.4810867014E+01+
*       5.0687242741E+02               0
GRID*               3967               01.0128565693E+027.4515849511E+01+
*       5.0532694982E+02               0
GRID*               3968               01.0128569617E+027.4515858458E+01+
*       5.0841939272E+02               0
GRID*               3969               01.0128551555E+027.4515817311E+01+
*       5.0944999294E+02               0
GRID*               3970               01.0212998046E+027.4810803337E+01+
*       5.0893361541E+02               0
GRID*               3971               01.0399859737E+027.6675229258E+01+
*       5.1047670693E+02               0
GRID*               3972               01.0399926708E+027.6675192339E+01+
*       5.0944625226E+02               0
GRID*               3973               01.0352134825E+027.5918145971E+01+
*       5.0996241042E+02               0
GRID*               3974               01.0399854698E+027.6675122421E+01+
*       5.1150719716E+02               0
GRID*               3975               01.0429509941E+027.7519487840E+01+
*       5.1099105606E+02               0
GRID*               3976               01.0400132369E+027.6674295223E+01+
*       5.0841591478E+02               0
GRID*               3977               01.0400375927E+027.6673143265E+01+
*       5.0738544631E+02               0
GRID*               3978               01.0352136941E+027.5918172763E+01+
*       5.0790147321E+02               0
GRID*               3979               01.0429512285E+027.7519549541E+01+
*       5.0893024340E+02               0
GRID*               3980               01.0288785628E+027.5286025001E+01+
*       5.0944806288E+02               0
GRID*               3981               01.0288800274E+027.5286141544E+01+
*       5.0841748167E+02               0
GRID*               3982               01.0288769095E+027.5285893451E+01+
*       5.1047853393E+02               0
GRID*               3983               01.0288785436E+027.5286023436E+01+
*       5.0738699894E+02               0
GRID*               3984               01.0288782174E+027.5285997459E+01+
*       5.0635640966E+02               0
GRID*               3985               01.0128551395E+027.4515816948E+01+
*       5.1048090966E+02               0
GRID*               3986               01.0128559084E+027.4515834465E+01+
*       5.1151178848E+02               0
GRID*               3987               01.0212988070E+027.4810755478E+01+
*       5.1099507379E+02               0
GRID*               3988               01.0399857236E+027.6675172120E+01+
*       5.1253802281E+02               0
GRID*               3989               01.0399858848E+027.6675202467E+01+
*       5.1356893386E+02               0
GRID*               3990               01.0429506297E+027.7519369536E+01+
*       5.1305244176E+02               0
GRID*               3991               01.0352124006E+027.5918010272E+01+
*       5.1202370719E+02               0
GRID*               3992               01.0288775120E+027.5285941404E+01+
*       5.1150939193E+02               0
GRID*               3993               01.0288779229E+027.5285974116E+01+
*       5.1254023580E+02               0
GRID*               3994               01.0128558908E+027.4515834066E+01+
*       5.1254270414E+02               0
GRID*               3995               01.0128561688E+027.4515840400E+01+
*       5.1357366383E+02               0
GRID*               3996               01.0212997487E+027.4810800756E+01+
*       5.1305688965E+02               0
GRID*               3997               01.0399860700E+027.6675237560E+01+
*       5.1459995040E+02               0
GRID*               3998               01.0399863551E+027.6675293148E+01+
*       5.1563113225E+02               0
GRID*               3999               01.0429506679E+027.7519426154E+01+
*       5.1511451770E+02               0
GRID*               4000               01.0352128470E+027.5918065628E+01+
*       5.1408556771E+02               0
GRID*               4001               01.0288781287E+027.5285990508E+01+
*       5.1357117268E+02               0
GRID*               4002               01.0288784079E+027.5286012736E+01+
*       5.1460220920E+02               0
GRID*               4003               01.0128561495E+027.4515839962E+01+
*       5.1460457833E+02               0
GRID*               4004               01.0128563747E+027.4515845093E+01+
*       5.1563562315E+02               0
GRID*               4005               01.0213001919E+027.4810822025E+01+
*       5.1511886934E+02               0
GRID*               4006               01.0399866200E+027.6675344348E+01+
*       5.1666229593E+02               0
GRID*               4007               01.0399869542E+027.6675409723E+01+
*       5.1769366857E+02               0
GRID*               4008               01.0429507913E+027.7519519636E+01+
*       5.1717705369E+02               0
GRID*               4009               01.0352132810E+027.5918119354E+01+
*       5.1614776806E+02               0
GRID*               4010               01.0288785689E+027.5286025558E+01+
*       5.1563322904E+02               0
GRID*               4011               01.0288789842E+027.5286058614E+01+
*       5.1666441462E+02               0
GRID*               4012               01.0128563535E+027.4515844612E+01+
*       5.1666653639E+02               0
GRID*               4013               01.0128567351E+027.4515853306E+01+
*       5.1769764465E+02               0
GRID*               4014               01.0213007360E+027.4810848098E+01+
*       5.1718099525E+02               0
GRID*               4015               01.0399872859E+027.6675474410E+01+
*       5.1872492568E+02               0
GRID*               4016               01.0399876308E+027.6675541664E+01+
*       5.1975639879E+02               0
GRID*               4017               01.0429509418E+027.7519624723E+01+
*       5.1923987925E+02               0
GRID*               4018               01.0352138971E+027.5918195782E+01+
*       5.1821021094E+02               0
GRID*               4019               01.0288792682E+027.5286081228E+01+
*       5.1769549553E+02               0
GRID*               4020               01.0288797971E+027.5286123325E+01+
*       5.1872677665E+02               0
GRID*               4021               01.0128537025E+027.4515784220E+01+
*       5.2800770289E+02               0
GRID*               4022               01.0212981043E+027.4810720647E+01+
*       5.2749189023E+02               0
GRID*               4023               01.0128563209E+027.4515843868E+01+
*       5.2697663816E+02               0
GRID*               4024               01.0128536658E+027.4515783383E+01+
*       5.2903860555E+02               0
GRID*               4025               01.0399863923E+027.6675256998E+01+
*       5.2594444649E+02               0
GRID*               4026               01.0352100894E+027.5917716085E+01+
*       5.2646027143E+02               0
GRID*               4027               01.0399849838E+027.6674960219E+01+
*       5.2697561779E+02               0
GRID*               4028               01.0429500599E+027.7519358127E+01+
*       5.2542848970E+02               0
GRID*               4029               01.0399873206E+027.6675454256E+01+
*       5.2491308114E+02               0
GRID*               4030               01.0288759513E+027.5285817258E+01+
*       5.2697614236E+02               0
GRID*               4031               01.0288738080E+027.5285646721E+01+
*       5.2800716399E+02               0
GRID*               4032               01.0288785842E+027.5286026776E+01+
*       5.2594493643E+02               0
GRID*               4033               01.0128567119E+027.4515852778E+01+
*       5.1872855650E+02               0
GRID*               4034               01.0128571680E+027.4515863171E+01+
*       5.1975969312E+02               0
GRID*               4035               01.0213014985E+027.4810884619E+01+
*       5.1924321037E+02               0
GRID*               4036               01.0399879860E+027.6675610890E+01+
*       5.2078768283E+02               0
GRID*               4037               01.0399882355E+027.6675658048E+01+
*       5.2181917043E+02               0
GRID*               4038               01.0429510454E+027.7519709065E+01+
*       5.2130281790E+02               0
GRID*               4039               01.0352146143E+027.5918284758E+01+
*       5.2027277631E+02               0
GRID*               4040               01.0288801382E+027.5286150474E+01+
*       5.1975788331E+02               0
GRID*               4041               01.0288807031E+027.5286195436E+01+
*       5.2078919366E+02               0
GRID*               4042               01.0128575731E+027.4515872401E+01+
*       5.2182173421E+02               0
GRID*               4043               01.0128575452E+027.4515871766E+01+
*       5.2285264287E+02               0
GRID*               4044               01.0128571426E+027.4515862592E+01+
*       5.2079060345E+02               0
GRID*               4045               01.0213023097E+027.4810923440E+01+
*       5.2130544516E+02               0
GRID*               4046               01.0288810205E+027.5286220697E+01+
*       5.2182029161E+02               0
GRID*               4047               01.0128575447E+027.4515871754E+01+
*       5.2491464399E+02               0
GRID*               4048               01.0128575753E+027.4515872451E+01+
*       5.2388373715E+02               0
GRID*               4049               01.0128563545E+027.4515844632E+01+
*       5.2594573332E+02               0
GRID*               4050               01.0213016445E+027.4810891031E+01+
*       5.2542977900E+02               0
GRID*               4051               01.0288795760E+027.5286105717E+01+
*       5.2491388646E+02               0
GRID*               4052               01.0213027282E+027.4810943348E+01+
*       5.2336763450E+02               0
GRID*               4053               01.0399886478E+027.6675738804E+01+
*       5.2285041945E+02               0
GRID*               4054               01.0352154181E+027.5918384474E+01+
*       5.2233533595E+02               0
GRID*               4055               01.0399884357E+027.6675690095E+01+
*       5.2388185411E+02               0
GRID*               4056               01.0352140773E+027.5918215842E+01+
*       5.2439784114E+02               0
GRID*               4057               01.0429508582E+027.7519666658E+01+
*       5.2336571605E+02               0
GRID*               4058               01.0288816827E+027.5286273400E+01+
*       5.2285156946E+02               0
GRID*               4059               01.0288816750E+027.5286272782E+01+
*       5.2388262781E+02               0
GRID*               4060               09.6499881151E+017.7518791910E+01+
*       5.1717689016E+02               0
GRID*               4061               09.6795937190E+017.6674658458E+01+
*       5.1769335574E+02               0
GRID*               4062               09.6795814404E+017.6674916507E+01+
*       5.1666220940E+02               0
GRID*               4063               09.6393194049E+017.8408070743E+01+
*       5.1666077199E+02               0
GRID*               4064               09.6392966340E+017.8408089515E+01+
*       5.1562946811E+02               0
GRID*               4065               09.6495320999E+017.9297543700E+01+
*       5.1614467296E+02               0
GRID*               4066               09.6393532788E+017.8407761828E+01+
*       5.1769189890E+02               0
GRID*               4067               09.6495194174E+017.9297010913E+01+
*       5.1820712140E+02               0
GRID*               4068               09.6393971519E+017.8407272767E+01+
*       5.1872307048E+02               0
GRID*               4069               09.6789724877E+018.0144253863E+01+
*       5.1562857370E+02               0
GRID*               4070               09.6789832053E+018.0144475184E+01+
*       5.1459752493E+02               0
GRID*               4071               09.7265159196E+018.0903578412E+01+
*       5.1511256992E+02               0
GRID*               4072               09.6789398640E+018.0143578673E+01+
*       5.1872231426E+02               0
GRID*               4073               09.7264524628E+018.0902749726E+01+
*       5.1923759781E+02               0
GRID*               4074               09.6789253052E+018.0143276212E+01+
*       5.1975371708E+02               0
GRID*               4075               09.6789620650E+018.0144040364E+01+
*       5.1769116681E+02               0
GRID*               4076               09.6789706340E+018.0144217295E+01+
*       5.1665985734E+02               0
GRID*               4077               09.7264870863E+018.0903200659E+01+
*       5.1717490754E+02               0
GRID*               4078               09.7900598607E+018.1541121332E+01+
*       5.1459682843E+02               0
GRID*               4079               09.7900778107E+018.1541264998E+01+
*       5.1356603019E+02               0
GRID*               4080               09.8659521277E+018.2018790428E+01+
*       5.1408122653E+02               0
GRID*               4081               09.7900439374E+018.1540993860E+01+
*       5.1562786529E+02               0
GRID*               4082               09.8659096055E+018.2018585317E+01+
*       5.1614317762E+02               0
GRID*               4083               09.7900265153E+018.1540854416E+01+
*       5.1665902653E+02               0
GRID*               4084               09.7899829006E+018.1540505240E+01+
*       5.1975322228E+02               0
GRID*               4085               09.8658587320E+018.2018339843E+01+
*       5.2026895165E+02               0
GRID*               4086               09.7899746480E+018.1540439102E+01+
*       5.2078483260E+02               0
GRID*               4087               09.7900061880E+018.1540691551E+01+
*       5.1872183378E+02               0
GRID*               4088               09.7900142655E+018.1540756307E+01+
*       5.1769032295E+02               0
GRID*               4089               09.8658787503E+018.2018436446E+01+
*       5.1820584052E+02               0
GRID*               4090               09.9505538493E+018.2315264363E+01+
*       5.1356578089E+02               0
GRID*               4091               09.9505303216E+018.2315210737E+01+
*       5.1459657215E+02               0
GRID*               4092               09.9505735541E+018.2315309246E+01+
*       5.1253497573E+02               0
GRID*               4093               01.0039751569E+028.2415916424E+01+
*       5.1305035017E+02               0
GRID*               4094               01.0128948520E+028.2315093599E+01+
*       5.1253482238E+02               0
GRID*               4095               01.0128962859E+028.2315060946E+01+
*       5.1150424846E+02               0
GRID*               4096               01.0213535530E+028.2018499449E+01+
*       5.1201955158E+02               0
GRID*               4097               01.0128929012E+028.2315138063E+01+
*       5.1356562533E+02               0
GRID*               4098               09.9505123062E+018.2315169696E+01+
*       5.1562763235E+02               0
GRID*               4099               09.9504896075E+018.2315117941E+01+
*       5.1665878597E+02               0
GRID*               4100               01.0039713395E+028.2415916443E+01+
*       5.1511221223E+02               0
GRID*               4101               01.0128913833E+028.2315172625E+01+
*       5.1459655015E+02               0
GRID*               4102               01.0213508789E+028.2018628458E+01+
*       5.1408105159E+02               0
GRID*               4103               01.0128896038E+028.2315213159E+01+
*       5.1562760793E+02               0
GRID*               4104               01.0128855357E+028.2315305345E+01+
*       5.2181651240E+02               0
GRID*               4105               01.0039655006E+028.2415916400E+01+
*       5.2130062449E+02               0
GRID*               4106               01.0128855594E+028.2315304922E+01+
*       5.2078488472E+02               0
GRID*               4107               01.0213463809E+028.2018845415E+01+
*       5.2233245060E+02               0
GRID*               4108               01.0128861635E+028.2315290892E+01+
*       5.2284814868E+02               0
GRID*               4109               09.9504478535E+018.2315022990E+01+
*       5.2078475623E+02               0
GRID*               4110               09.9504587724E+018.2315047829E+01+
*       5.1975315503E+02               0
GRID*               4111               09.9504473074E+018.2315021875E+01+
*       5.2181638708E+02               0
GRID*               4112               09.9504773325E+018.2315090007E+01+
*       5.1769014981E+02               0
GRID*               4113               01.0039682859E+028.2415916431E+01+
*       5.1717463264E+02               0
GRID*               4114               09.9504664832E+018.2315065331E+01+
*       5.1872165230E+02               0
GRID*               4115               01.0039662908E+028.2415916411E+01+
*       5.1923749525E+02               0
GRID*               4116               01.0128856646E+028.2315302642E+01+
*       5.1975325751E+02               0
GRID*               4117               01.0213458517E+028.2018870934E+01+
*       5.2026918529E+02               0
GRID*               4118               01.0128864080E+028.2315285784E+01+
*       5.1872175768E+02               0
GRID*               4119               01.0128882898E+028.2315243051E+01+
*       5.1665888743E+02               0
GRID*               4120               01.0213483161E+028.2018752078E+01+
*       5.1614325729E+02               0
GRID*               4121               01.0128870870E+028.2315270402E+01+
*       5.1769024862E+02               0
GRID*               4122               01.0213465268E+028.2018838375E+01+
*       5.1820604737E+02               0
GRID*               4123               01.0289400273E+028.1540858017E+01+
*       5.1150444171E+02               0
GRID*               4124               01.0289389635E+028.1540943189E+01+
*       5.1253501779E+02               0
GRID*               4125               01.0289414169E+028.1540746815E+01+
*       5.1047386789E+02               0
GRID*               4126               01.0352924558E+028.0903436874E+01+
*       5.1098924036E+02               0
GRID*               4127               01.0439685893E+027.8408566523E+01+
*       5.0944482965E+02               0
GRID*               4128               01.0439686346E+027.8408489244E+01+
*       5.0841450582E+02               0
GRID*               4129               01.0439685459E+027.8408782935E+01+
*       5.1047531160E+02               0
GRID*               4130               01.0429798882E+027.9298412382E+01+
*       5.0995955163E+02               0
GRID*               4131               01.0400438756E+028.0144561219E+01+
*       5.1047442184E+02               0
GRID*               4132               01.0400430594E+028.0144720826E+01+
*       5.1150500115E+02               0
GRID*               4133               01.0400448475E+028.0144368722E+01+
*       5.0944395034E+02               0
GRID*               4134               01.0289380027E+028.1541020147E+01+
*       5.1356585611E+02               0
GRID*               4135               01.0289368836E+028.1541109761E+01+
*       5.1459678329E+02               0
GRID*               4136               01.0352909609E+028.0903611063E+01+
*       5.1305065112E+02               0
GRID*               4137               01.0439684974E+027.8408649633E+01+
*       5.1150578773E+02               0
GRID*               4138               01.0439684519E+027.8408735180E+01+
*       5.1253652355E+02               0
GRID*               4139               01.0429770447E+027.9298683998E+01+
*       5.1202076471E+02               0
GRID*               4140               01.0400426463E+028.0144796176E+01+
*       5.1253572562E+02               0
GRID*               4141               01.0400420569E+028.0144907818E+01+
*       5.1356657000E+02               0
GRID*               4142               01.0289361219E+028.1541170830E+01+
*       5.1562792235E+02               0
GRID*               4143               01.0289351785E+028.1541246434E+01+
*       5.1665920444E+02               0
GRID*               4144               01.0352899562E+028.0903723398E+01+
*       5.1511262755E+02               0
GRID*               4145               01.0439684055E+027.8408754460E+01+
*       5.1356741923E+02               0
GRID*               4146               01.0439683599E+027.8408830946E+01+
*       5.1459845250E+02               0
GRID*               4147               01.0429748570E+027.9298728001E+01+
*       5.1408251542E+02               0
GRID*               4148               01.0400416781E+028.0144975366E+01+
*       5.1459759093E+02               0
GRID*               4149               01.0400411913E+028.0145065100E+01+
*       5.1562873668E+02               0
GRID*               4150               01.0439683138E+027.8408877917E+01+
*       5.1562961758E+02               0
GRID*               4151               01.0439682680E+027.8408944845E+01+
*       5.1666090467E+02               0
GRID*               4152               01.0429676644E+027.9298569080E+01+
*       5.1614479515E+02               0
GRID*               4153               01.0289347290E+028.1541282589E+01+
*       5.1769059032E+02               0
GRID*               4154               01.0289343064E+028.1541316619E+01+
*       5.1872210222E+02               0
GRID*               4155               01.0352893470E+028.0903785865E+01+
*       5.1717515204E+02               0
GRID*               4156               01.0400408531E+028.0145123784E+01+
*       5.1666001035E+02               0
GRID*               4157               01.0400405364E+028.0145177869E+01+
*       5.1769140363E+02               0
GRID*               4158               01.0289345397E+028.1541298275E+01+
*       5.1975361264E+02               0
GRID*               4159               01.0289345894E+028.1541294611E+01+
*       5.2078524296E+02               0
GRID*               4160               01.0352895230E+028.0903749354E+01+
*       5.1923804842E+02               0
GRID*               4161               01.0289347026E+028.1541285899E+01+
*       5.2181682116E+02               0
GRID*               4162               01.0352901341E+028.0903658001E+01+
*       5.2130113771E+02               0
GRID*               4163               01.0289353523E+028.1541234349E+01+
*       5.2284846085E+02               0
GRID*               4164               01.0352915670E+028.0903463031E+01+
*       5.2336427367E+02               0
GRID*               4165               01.0289366271E+028.1541132878E+01+
*       5.2388001729E+02               0
GRID*               4166               01.0400401907E+028.0145237935E+01+
*       5.1872285557E+02               0
GRID*               4167               01.0400402559E+028.0145212677E+01+
*       5.1975437416E+02               0
GRID*               4168               01.0429565084E+027.9298264357E+01+
*       5.1820749091E+02               0
GRID*               4169               01.0439682222E+027.8409002285E+01+
*       5.1769225900E+02               0
GRID*               4170               01.0439681765E+027.8409071837E+01+
*       5.1872372554E+02               0
GRID*               4171               01.0400401414E+028.0145224910E+01+
*       5.2078586982E+02               0
GRID*               4172               01.0400401472E+028.0145212376E+01+
*       5.2181745703E+02               0
GRID*               4173               01.0429427802E+027.9297819432E+01+
*       5.2027039896E+02               0
GRID*               4174               01.0439681307E+027.8409130937E+01+
*       5.1975517863E+02               0
GRID*               4175               01.0439680845E+027.8409149492E+01+
*       5.2078669017E+02               0
GRID*               4176               01.0400409512E+028.0145023773E+01+
*       5.2388050479E+02               0
GRID*               4177               01.0429134044E+027.9296227370E+01+
*       5.2439624661E+02               0
GRID*               4178               01.0400426064E+028.0144669669E+01+
*       5.2491198284E+02               0
GRID*               4179               01.0400402833E+028.0145173118E+01+
*       5.2284893837E+02               0
GRID*               4180               01.0429277433E+027.9297219566E+01+
*       5.2233333134E+02               0
GRID*               4181               01.0439680387E+027.8409185718E+01+
*       5.2181815589E+02               0
GRID*               4182               01.0439679920E+027.8409150334E+01+
*       5.2284965451E+02               0
GRID*               4183               01.0439678941E+027.8408698472E+01+
*       5.2491256209E+02               0
GRID*               4184               01.0439678450E+027.8408460737E+01+
*       5.2594390128E+02               0
GRID*               4185               01.0439679451E+027.8409079034E+01+
*       5.2388106525E+02               0
GRID*               4186               01.0429997579E+027.9299044034E+01+
*       4.9759895438E+02               0
GRID*               4187               01.0400411130E+028.0145217666E+01+
*       4.9811444912E+02               0
GRID*               4188               01.0439691530E+027.8409501042E+01+
*       4.9708343270E+02               0
GRID*               4189               01.0429537001E+027.7520383541E+01+
*       4.9656774407E+02               0
GRID*               4190               01.0439691097E+027.8409635039E+01+
*       4.9811396253E+02               0
GRID*               4191               01.0429538889E+027.7520505803E+01+
*       4.9862907025E+02               0
GRID*               4192               01.0439690618E+027.8409428715E+01+
*       4.9914467759E+02               0
GRID*               4193               01.0399813507E+027.6675786477E+01+
*       4.9605207170E+02               0
GRID*               4194               01.0399866160E+027.6675954195E+01+
*       4.9708268577E+02               0
GRID*               4195               01.0352139174E+027.5918201422E+01+
*       4.9553616174E+02               0
GRID*               4196               01.0399917070E+027.6675686624E+01+
*       4.9914411030E+02               0
GRID*               4197               01.0352157527E+027.5918430951E+01+
*       4.9965906797E+02               0
GRID*               4198               01.0400065607E+027.6674945682E+01+
*       5.0017472727E+02               0
GRID*               4199               01.0399907025E+027.6675927324E+01+
*       4.9811338578E+02               0
GRID*               4200               01.0352159556E+027.5918456376E+01+
*       4.9759774361E+02               0
GRID*               4201               01.0128567379E+027.4515853345E+01+
*       5.0120403669E+02               0
GRID*               4202               01.0213026562E+027.4810939398E+01+
*       5.0068897968E+02               0
GRID*               4203               01.0128583152E+027.4515889284E+01+
*       5.0017329564E+02               0
GRID*               4204               01.0128567269E+027.4515853096E+01+
*       5.0223495679E+02               0
GRID*               4205               01.0288809488E+027.5286214711E+01+
*       5.0017396468E+02               0
GRID*               4206               01.0288821328E+027.5286308936E+01+
*       4.9914333669E+02               0
GRID*               4207               01.0288796745E+027.5286113311E+01+
*       5.0120469249E+02               0
GRID*               4208               01.0128583252E+027.4515889510E+01+
*       4.9914237487E+02               0
GRID*               4209               01.0213043642E+027.4811021068E+01+
*       4.9862744355E+02               0
GRID*               4210               01.0128585033E+027.4515893566E+01+
*       4.9811156668E+02               0
GRID*               4211               01.0288822816E+027.5286320755E+01+
*       4.9811254058E+02               0
GRID*               4212               01.0288813258E+027.5286244646E+01+
*       4.9708183365E+02               0
GRID*               4213               01.0128585125E+027.4515893771E+01+
*       4.9708064529E+02               0
GRID*               4214               01.0213007413E+027.4810845769E+01+
*       4.9450402937E+02               0
GRID*               4215               01.0288792544E+027.5286079727E+01+
*       4.9502008028E+02               0
GRID*               4216               01.0128579390E+027.4515880699E+01+
*       4.9501884351E+02               0
GRID*               4217               01.0128579307E+027.4515880512E+01+
*       4.9604976546E+02               0
GRID*               4218               01.0213040834E+027.4811007041E+01+
*       4.9656576747E+02               0
GRID*               4219               01.0288808630E+027.5286207779E+01+
*       4.9605096485E+02               0
GRID*               4220               01.0352138618E+027.5918194000E+01+
*       5.0584083405E+02               0
GRID*               4221               01.0288798317E+027.5286125914E+01+
*       5.0532623809E+02               0
GRID*               4222               01.0400663840E+027.6672450409E+01+
*       5.0635558042E+02               0
GRID*               4223               01.0429520879E+027.7519883049E+01+
*       5.0687005482E+02               0
GRID*               4224               01.0400832432E+027.6672016606E+01+
*       5.0532542213E+02               0
GRID*               4225               01.0429529256E+027.7520207239E+01+
*       5.0481019308E+02               0
GRID*               4226               01.0400859383E+027.6671810292E+01+
*       5.0429541321E+02               0
GRID*               4227               01.0439688280E+027.8409051606E+01+
*       5.0429504055E+02               0
GRID*               4228               01.0429913724E+027.9298740326E+01+
*       5.0378002043E+02               0
GRID*               4229               01.0439688757E+027.8409175544E+01+
*       5.0326522955E+02               0
GRID*               4230               01.0439687831E+027.8409138214E+01+
*       5.0532503853E+02               0
GRID*               4231               01.0439686839E+027.8408677277E+01+
*       5.0738466714E+02               0
GRID*               4232               01.0429836579E+027.9298380299E+01+
*       5.0789922972E+02               0
GRID*               4233               01.0439687362E+027.8409090535E+01+
*       5.0635481402E+02               0
GRID*               4234               01.0429874001E+027.9298593475E+01+
*       5.0583961170E+02               0
GRID*               4235               01.0128579125E+027.4515880116E+01+
*       5.0429642269E+02               0
GRID*               4236               01.0213020393E+027.4810910385E+01+
*       5.0481131085E+02               0
GRID*               4237               01.0128579246E+027.4515880390E+01+
*       5.0326550332E+02               0
GRID*               4238               01.0213022342E+027.4810919473E+01+
*       5.0275025291E+02               0
GRID*               4239               01.0288811889E+027.5286233872E+01+
*       5.0223495592E+02               0
GRID*               4240               01.0352159864E+027.5918460098E+01+
*       5.0171994785E+02               0
GRID*               4241               01.0288821429E+027.5286309829E+01+
*       5.0326548798E+02               0
GRID*               4242               01.0288809208E+027.5286212579E+01+
*       5.0429572682E+02               0
GRID*               4243               01.0352161793E+027.5918484083E+01+
*       5.0378043748E+02               0
GRID*               4244               01.0439689256E+027.8409469927E+01+
*       5.0223514840E+02               0
GRID*               4245               01.0429534971E+027.7520415694E+01+
*       5.0275010420E+02               0
GRID*               4246               01.0429944854E+027.9299041544E+01+
*       5.0172012855E+02               0
GRID*               4247               01.0439689740E+027.8409671017E+01+
*       5.0120507112E+02               0
GRID*               4248               01.0439690168E+027.8409460728E+01+
*       5.0017496081E+02               0
GRID*               4249               01.0429972325E+027.9299199505E+01+
*       4.9965976634E+02               0
GRID*               4250               01.0429537917E+027.7520503664E+01+
*       5.0068990381E+02               0
GRID*               4251               01.0400775965E+027.6672307252E+01+
*       5.0326518730E+02               0
GRID*               4252               01.0400576030E+027.6673392978E+01+
*       5.0223509693E+02               0
GRID*               4253               01.0400317785E+027.6674196929E+01+
*       5.0120484586E+02               0
GRID*               4254               09.8660019365E+018.2019030626E+01+
*       5.0172074338E+02               0
GRID*               4255               09.7900957963E+018.1541412996E+01+
*       5.0223593406E+02               0
GRID*               4256               09.9505869188E+018.2315338582E+01+
*       5.0120552231E+02               0
GRID*               4257               01.0039772124E+028.2415916399E+01+
*       5.0069036376E+02               0
GRID*               4258               09.9505937946E+018.2315354373E+01+
*       5.0223569876E+02               0
GRID*               4259               01.0039780335E+028.2415916386E+01+
*       5.0275059062E+02               0
GRID*               4260               09.9506013695E+018.2315371763E+01+
*       5.0326579761E+02               0
GRID*               4261               01.0128961280E+028.2315065655E+01+
*       5.0326555124E+02               0
GRID*               4262               01.0213535119E+028.2018501444E+01+
*       5.0378025911E+02               0
GRID*               4263               01.0128968267E+028.2315049536E+01+
*       5.0429537713E+02               0
GRID*               4264               01.0128953622E+028.2315083305E+01+
*       5.0223545379E+02               0
GRID*               4265               01.0128950409E+028.2315090935E+01+
*       5.0017530628E+02               0
GRID*               4266               01.0213521131E+028.2018568940E+01+
*       4.9966011086E+02               0
GRID*               4267               01.0128950604E+028.2315090348E+01+
*       5.0120543493E+02               0
GRID*               4268               01.0213525489E+028.2018547909E+01+
*       5.0172041354E+02               0
GRID*               4269               01.0400431276E+028.0144760538E+01+
*       5.0532472259E+02               0
GRID*               4270               01.0352892270E+028.0903886281E+01+
*       5.0480970585E+02               0
GRID*               4271               01.0400425416E+028.0144889641E+01+
*       5.0429499575E+02               0
GRID*               4272               01.0400433232E+028.0144712134E+01+
*       5.0635448926E+02               0
GRID*               4273               01.0289385495E+028.1540975273E+01+
*       5.0429507309E+02               0
GRID*               4274               01.0289379455E+028.1541023459E+01+
*       5.0326524571E+02               0
GRID*               4275               01.0289395976E+028.1540891601E+01+
*       5.0532479579E+02               0
GRID*               4276               01.0352872766E+028.0904145951E+01+
*       5.0275005137E+02               0
GRID*               4277               01.0289371089E+028.1541090241E+01+
*       5.0223531107E+02               0
GRID*               4278               01.0400415160E+028.0145115653E+01+
*       5.0223525446E+02               0
GRID*               4279               01.0400406282E+028.0145305837E+01+
*       5.0120518465E+02               0
GRID*               4280               01.0400420022E+028.0145008474E+01+
*       5.0326519287E+02               0
GRID*               4281               01.0289368303E+028.1541112446E+01+
*       5.0120529084E+02               0
GRID*               4282               01.0400404370E+028.0145354724E+01+
*       4.9914471441E+02               0
GRID*               4283               01.0352860385E+028.0904329255E+01+
*       4.9862947969E+02               0
GRID*               4284               01.0400403308E+028.0145372577E+01+
*       5.0017499073E+02               0
GRID*               4285               01.0352857913E+028.0904346809E+01+
*       5.0068992926E+02               0
GRID*               4286               01.0289362359E+028.1541159869E+01+
*       4.9914481603E+02               0
GRID*               4287               01.0289363666E+028.1541149455E+01+
*       5.0017510035E+02               0
GRID*               4288               01.0213547933E+028.2018439605E+01+
*       5.0995900702E+02               0
GRID*               4289               01.0289413129E+028.1540754980E+01+
*       5.0944389644E+02               0
GRID*               4290               01.0128967978E+028.2315049374E+01+
*       5.1047424204E+02               0
GRID*               4291               01.0039776731E+028.2415916392E+01+
*       5.1098953959E+02               0
GRID*               4292               01.0128967578E+028.2315050424E+01+
*       5.0944427256E+02               0
GRID*               4293               01.0039790004E+028.2415916368E+01+
*       5.0892953608E+02               0
GRID*               4294               01.0128975503E+028.2315032435E+01+
*       5.0841427656E+02               0
GRID*               4295               09.9506066887E+018.2315384433E+01+
*       5.0841477995E+02               0
GRID*               4296               09.8660148879E+018.2019093051E+01+
*       5.0790025840E+02               0
GRID*               4297               09.9506119432E+018.2315396316E+01+
*       5.0738499767E+02               0
GRID*               4298               09.9505986136E+018.2315366112E+01+
*       5.0944477778E+02               0
GRID*               4299               09.9505850341E+018.2315335341E+01+
*       5.1150476014E+02               0
GRID*               4300               09.8659843155E+018.2018945649E+01+
*       5.1202021401E+02               0
GRID*               4301               09.9505903248E+018.2315347303E+01+
*       5.1047475171E+02               0
GRID*               4302               09.8660024685E+018.2019033175E+01+
*       5.0996001932E+02               0
GRID*               4303               09.9506095832E+018.2315390821E+01+
*       5.0635528101E+02               0
GRID*               4304               01.0039795465E+028.2415916357E+01+
*       5.0686982409E+02               0
GRID*               4305               09.8660183464E+018.2019109727E+01+
*       5.0584065376E+02               0
GRID*               4306               09.9506081397E+018.2315387421E+01+
*       5.0532546295E+02               0
GRID*               4307               09.9506060709E+018.2315382596E+01+
*       5.0429575178E+02               0
GRID*               4308               09.8660126402E+018.2019082223E+01+
*       5.0378087760E+02               0
GRID*               4309               01.0039790558E+028.2415916367E+01+
*       5.0481039854E+02               0
GRID*               4310               01.0128971326E+028.2315042127E+01+
*       5.0738450027E+02               0
GRID*               4311               01.0213543292E+028.2018462001E+01+
*       5.0789926017E+02               0
GRID*               4312               01.0128968840E+028.2315047948E+01+
*       5.0635478527E+02               0
GRID*               4313               01.0128970441E+028.2315044426E+01+
*       5.0532508676E+02               0
GRID*               4314               01.0213540497E+028.2018475488E+01+
*       5.0583978439E+02               0
GRID*               4315               01.0289395228E+028.1540897674E+01+
*       5.0635449594E+02               0
GRID*               4316               01.0400440160E+028.0144550990E+01+
*       5.0841416527E+02               0
GRID*               4317               01.0352919178E+028.0903518943E+01+
*       5.0892888843E+02               0
GRID*               4318               01.0400432244E+028.0144724438E+01+
*       5.0738433618E+02               0
GRID*               4319               01.0352903753E+028.0903727532E+01+
*       5.0686926835E+02               0
GRID*               4320               01.0289393691E+028.1540910058E+01+
*       5.0738433831E+02               0
GRID*               4321               01.0289397657E+028.1540878490E+01+
*       5.0841411641E+02               0
GRID*               4322               09.7272763170E+017.5918342978E+01+
*       5.0584264286E+02               0
GRID*               4323               09.7906018344E+017.5286342445E+01+
*       5.0635805855E+02               0
GRID*               4324               09.6789868117E+017.6673918885E+01+
*       5.0532716550E+02               0
GRID*               4325               09.6499336430E+017.7520484317E+01+
*       5.0481194262E+02               0
GRID*               4326               09.6792405436E+017.6675131937E+01+
*       5.0635757884E+02               0
GRID*               4327               09.6499345641E+017.7520554757E+01+
*       5.0687241556E+02               0
GRID*               4328               09.6794949433E+017.6675836090E+01+
*       5.0738784116E+02               0
GRID*               4329               09.6394392432E+017.8409355689E+01+
*       5.0738718905E+02               0
GRID*               4330               09.6495633510E+017.9298817377E+01+
*       5.0790187661E+02               0
GRID*               4331               09.6393910291E+017.8409128314E+01+
*       5.0841719466E+02               0
GRID*               4332               09.6394935084E+017.8409639239E+01+
*       5.0635694813E+02               0
GRID*               4333               09.6395996299E+017.8409206034E+01+
*       5.0429667602E+02               0
GRID*               4334               09.6495643040E+017.9298807659E+01+
*       5.0378154679E+02               0
GRID*               4335               09.6395477539E+017.8409571036E+01+
*       5.0532688370E+02               0
GRID*               4336               09.6495684458E+017.9299016634E+01+
*       5.0584180872E+02               0
GRID*               4337               09.7901097895E+018.1541521693E+01+
*       5.0944544845E+02               0
GRID*               4338               09.7265881859E+018.0904531328E+01+
*       5.0893086901E+02               0
GRID*               4339               09.7901229395E+018.1541627077E+01+
*       5.0841555227E+02               0
GRID*               4340               09.7901042944E+018.1541477458E+01+
*       5.1047542821E+02               0
GRID*               4341               09.6779128211E+018.0149774679E+01+
*       5.0841648572E+02               0
GRID*               4342               09.6779461168E+018.0149908440E+01+
*       5.0738648767E+02               0
GRID*               4343               09.6779908910E+018.0149242587E+01+
*       5.0944639121E+02               0
GRID*               4344               09.7901258609E+018.1541650797E+01+
*       5.0738576466E+02               0
GRID*               4345               09.7266076990E+018.0904790992E+01+
*       5.0687104737E+02               0
GRID*               4346               09.7901284878E+018.1541672186E+01+
*       5.0635584037E+02               0
GRID*               4347               09.6780853073E+018.0149449682E+01+
*       5.0635655563E+02               0
GRID*               4348               09.6783241311E+018.0148466829E+01+
*       5.0532649778E+02               0
GRID*               4349               09.7901259074E+018.1541652016E+01+
*       5.0532601743E+02               0
GRID*               4350               09.6788886973E+018.0146057197E+01+
*       5.0326625521E+02               0
GRID*               4351               09.7265995264E+018.0904715436E+01+
*       5.0275095363E+02               0
GRID*               4352               09.6786174850E+018.0147297059E+01+
*       5.0429644736E+02               0
GRID*               4353               09.7266123068E+018.0904862772E+01+
*       5.0481107851E+02               0
GRID*               4354               09.7901203329E+018.1541607959E+01+
*       5.0429597350E+02               0
GRID*               4355               09.7901149917E+018.1541565789E+01+
*       5.0326601484E+02               0
GRID*               4356               09.6495424106E+017.9297971951E+01+
*       5.1408295506E+02               0
GRID*               4357               09.6789397292E+018.0145078501E+01+
*       5.1356710630E+02               0
GRID*               4358               09.6392811692E+017.8408309722E+01+
*       5.1459871962E+02               0
GRID*               4359               09.6499733203E+017.7519320195E+01+
*       5.1511499932E+02               0
GRID*               4360               09.6392749107E+017.8408692260E+01+
*       5.1356828421E+02               0
GRID*               4361               09.6499616267E+017.7519714725E+01+
*       5.1305378245E+02               0
GRID*               4362               09.6392797658E+017.8408867492E+01+
*       5.1253783353E+02               0
GRID*               4363               09.7900971024E+018.1541419381E+01+
*       5.1253581819E+02               0
GRID*               4364               09.7265505914E+018.0904029600E+01+
*       5.1305131770E+02               0
GRID*               4365               09.7901052884E+018.1541485069E+01+
*       5.1150559623E+02               0
GRID*               4366               09.7265717760E+018.0904310613E+01+
*       5.1099093507E+02               0
GRID*               4367               09.6392945652E+017.8409107004E+01+
*       5.1150763686E+02               0
GRID*               4368               09.6495576016E+017.9298616695E+01+
*       5.1202233892E+02               0
GRID*               4369               09.6499492539E+017.7520139535E+01+
*       5.1099313700E+02               0
GRID*               4370               09.6393193011E+017.8409360212E+01+
*       5.1047746238E+02               0
GRID*               4371               09.6393513510E+017.8409190239E+01+
*       5.0944732431E+02               0
GRID*               4372               09.6499422549E+017.7520331741E+01+
*       5.0893281039E+02               0
GRID*               4373               09.6495605892E+017.9298721779E+01+
*       5.0996201464E+02               0
GRID*               4374               09.6787440098E+018.0146153631E+01+
*       5.1253688272E+02               0
GRID*               4375               09.6784868389E+018.0147435729E+01+
*       5.1150669854E+02               0
GRID*               4376               09.6782123205E+018.0148540307E+01+
*       5.1047651970E+02               0
GRID*               4377               09.9508510044E+017.4515873772E+01+
*       5.1460498503E+02               0
GRID*               4378               09.8664169230E+017.4810862776E+01+
*       5.1511945309E+02               0
GRID*               4379               09.9508676122E+017.4515835932E+01+
*       5.1563582439E+02               0
GRID*               4380               09.9508510039E+017.4515873774E+01+
*       5.1357405719E+02               0
GRID*               4381               09.9508588422E+017.4515855914E+01+
*       5.1254322853E+02               0
GRID*               4382               09.9508588421E+017.4515855915E+01+
*       5.1151230070E+02               0
GRID*               4383               09.8664086033E+017.4810902637E+01+
*       5.1305778508E+02               0
GRID*               4384               09.7906233296E+017.5286171370E+01+
*       5.1357211319E+02               0
GRID*               4385               09.7906294728E+017.5286122480E+01+
*       5.1254129730E+02               0
GRID*               4386               09.6795610526E+017.6675342199E+01+
*       5.1563146407E+02               0
GRID*               4387               09.7273102484E+017.5917922749E+01+
*       5.1614798197E+02               0
GRID*               4388               09.6795526324E+017.6675520024E+01+
*       5.1460069619E+02               0
GRID*               4389               09.7272832670E+017.5918259559E+01+
*       5.1408643425E+02               0
GRID*               4390               09.6795540625E+017.6675493749E+01+
*       5.1356991813E+02               0
GRID*               4391               09.7906212045E+017.5286188280E+01+
*       5.1460291517E+02               0
GRID*               4392               09.7906347215E+017.5286080694E+01+
*       5.1563374062E+02               0
GRID*               4393               09.7906720032E+017.5285784016E+01+
*       5.1666451220E+02               0
GRID*               4394               09.7272729338E+017.5918388086E+01+
*       5.1202518102E+02               0
GRID*               4395               09.7906128116E+017.5286255091E+01+
*       5.1151082246E+02               0
GRID*               4396               09.6795475804E+017.6675631006E+01+
*       5.1253944771E+02               0
GRID*               4397               09.6795385425E+017.6675820925E+01+
*       5.1150899468E+02               0
GRID*               4398               09.6795285920E+017.6676028696E+01+
*       5.1047879998E+02               0
GRID*               4399               09.6791079092E+017.6674489983E+01+
*       5.0944838908E+02               0
GRID*               4400               09.7272528113E+017.5918638998E+01+
*       5.0996429695E+02               0
GRID*               4401               09.6792901279E+017.6675137778E+01+
*       5.0841823908E+02               0
GRID*               4402               09.7272536037E+017.5918628157E+01+
*       5.0790346989E+02               0
GRID*               4403               09.8663911941E+017.4810986145E+01+
*       5.1099634492E+02               0
GRID*               4404               09.7905915205E+017.5286424570E+01+
*       5.1048022254E+02               0
GRID*               4405               09.9508325061E+017.4515915929E+01+
*       5.1048168919E+02               0
GRID*               4406               09.9508325063E+017.4515915929E+01+
*       5.0945076136E+02               0
GRID*               4407               09.7905811115E+017.5286507434E+01+
*       5.0944979184E+02               0
GRID*               4408               09.9508268972E+017.4515928713E+01+
*       5.0842008406E+02               0
GRID*               4409               09.8663612501E+017.4811129883E+01+
*       5.0893505613E+02               0
GRID*               4410               09.9508268977E+017.4515928711E+01+
*       5.0738915622E+02               0
GRID*               4411               09.8663743208E+017.4811066808E+01+
*       5.0687371846E+02               0
GRID*               4412               09.7905764910E+017.5286544215E+01+
*       5.0841912516E+02               0
GRID*               4413               09.7905857939E+017.5286470145E+01+
*       5.0738870920E+02               0
GRID*               4414               01.0213897039E+028.2016752998E+01+
*       5.3883073975E+02               0
GRID*               4415               01.0129353002E+028.2314163976E+01+
*       5.3934615082E+02               0
GRID*               4416               01.0129343363E+028.2314186181E+01+
*       5.3831516965E+02               0
GRID*               4417               01.0289721201E+028.1538301205E+01+
*       5.3934619558E+02               0
GRID*               4418               01.0353208704E+028.0899652597E+01+
*       5.3986156954E+02               0
GRID*               4419               01.0289739938E+028.1538151535E+01+
*       5.4037722827E+02               0
GRID*               4420               01.0289711773E+028.1538376308E+01+
*       5.3831520742E+02               0
GRID*               4421               01.0289721309E+028.1538299550E+01+
*       5.3728428851E+02               0
GRID*               4422               01.0353198436E+028.0899795307E+01+
*       5.3779960708E+02               0
GRID*               4423               01.0399781190E+028.0137779742E+01+
*       5.4037735239E+02               0
GRID*               4424               01.0428197673E+027.9288949453E+01+
*       5.4089236893E+02               0
GRID*               4425               01.0398974580E+028.0134774565E+01+
*       5.4140833396E+02               0
GRID*               4426               01.0400482686E+028.0140581230E+01+
*       5.3934633134E+02               0
GRID*               4427               01.0400598290E+028.0141086341E+01+
*       5.3831537847E+02               0
GRID*               4428               01.0428278455E+027.9289383070E+01+
*       5.3883039195E+02               0
GRID*               4429               01.0400598934E+028.0141056948E+01+
*       5.3728443956E+02               0
GRID*               4430               01.0400593402E+028.0141160482E+01+
*       5.3625350804E+02               0
GRID*               4431               01.0428379712E+027.9289802291E+01+
*       5.3676851346E+02               0
GRID*               4432               01.0399800941E+027.6673861911E+01+
*       5.4243987206E+02               0
GRID*               4433               01.0429446134E+027.7517283203E+01+
*       5.4192424304E+02               0
GRID*               4434               01.0399809072E+027.6674036058E+01+
*       5.4140879981E+02               0
GRID*               4435               01.0352003061E+027.5916484391E+01+
*       5.4295552385E+02               0
GRID*               4436               01.0399795199E+027.6673737243E+01+
*       5.4347083666E+02               0
GRID*               4437               01.0439671595E+027.8406058965E+01+
*       5.4140861601E+02               0
GRID*               4438               01.0439672014E+027.8406176663E+01+
*       5.4037755889E+02               0
GRID*               4439               01.0439671162E+027.8405844014E+01+
*       5.4243963441E+02               0
GRID*               4440               01.0399804583E+027.6673949162E+01+
*       5.4037787345E+02               0
GRID*               4441               01.0429453440E+027.7517566060E+01+
*       5.3986220764E+02               0
GRID*               4442               01.0399806473E+027.6673994246E+01+
*       5.3934685593E+02               0
GRID*               4443               01.0352008057E+027.5916547560E+01+
*       5.4089356729E+02               0
GRID*               4444               01.0439672429E+027.8406246969E+01+
*       5.3934659055E+02               0
GRID*               4445               01.0439672833E+027.8406231619E+01+
*       5.3831559773E+02               0
GRID*               4446               01.0439673690E+027.8406362102E+01+
*       5.3625370369E+02               0
GRID*               4447               01.0439674072E+027.8406156529E+01+
*       5.3522280888E+02               0
GRID*               4448               01.0429456683E+027.7517636552E+01+
*       5.3573839669E+02               0
GRID*               4449               01.0439673265E+027.8406328526E+01+
*       5.3728466635E+02               0
GRID*               4450               01.0429458134E+027.7517734981E+01+
*       5.3780026348E+02               0
GRID*               4451               01.0399807396E+027.6674019305E+01+
*       5.3831590038E+02               0
GRID*               4452               01.0352006381E+027.5916527486E+01+
*       5.3883162542E+02               0
GRID*               4453               01.0399810455E+027.6674088532E+01+
*       5.3728492410E+02               0
GRID*               4454               01.0399803703E+027.6673960672E+01+
*       5.3522306483E+02               0
GRID*               4455               01.0399805359E+027.6674000791E+01+
*       5.3419218312E+02               0
GRID*               4456               01.0352027117E+027.5916788744E+01+
*       5.3470783628E+02               0
GRID*               4457               01.0399813706E+027.6674161714E+01+
*       5.3625400064E+02               0
GRID*               4458               01.0352016093E+027.5916649855E+01+
*       5.3676969158E+02               0
GRID*               4459               01.0128514026E+027.4515731791E+01+
*       5.4450254678E+02               0
GRID*               4460               01.0212934611E+027.4810494564E+01+
*       5.4398681389E+02               0
GRID*               4461               01.0128529189E+027.4515766325E+01+
*       5.4347152436E+02               0
GRID*               4462               01.0128513264E+027.4515730049E+01+
*       5.4553342250E+02               0
GRID*               4463               01.0288688391E+027.5285250973E+01+
*       5.4347115710E+02               0
GRID*               4464               01.0288699745E+027.5285341330E+01+
*       5.4244012100E+02               0
GRID*               4465               01.0288675330E+027.5285147049E+01+
*       5.4450209030E+02               0
GRID*               4466               01.0128537421E+027.4515785112E+01+
*       5.3316224732E+02               0
GRID*               4467               01.0128537862E+027.4515786119E+01+
*       5.3213134968E+02               0
GRID*               4468               01.0212963062E+027.4810633281E+01+
*       5.3367742025E+02               0
GRID*               4469               01.0128541251E+027.4515793833E+01+
*       5.3419317933E+02               0
GRID*               4470               01.0288716410E+027.5285474213E+01+
*       5.3419258466E+02               0
GRID*               4471               01.0288712394E+027.5285442239E+01+
*       5.3522351610E+02               0
GRID*               4472               01.0288713872E+027.5285454047E+01+
*       5.3316170923E+02               0
GRID*               4473               01.0128529885E+027.4515767915E+01+
*       5.4244064411E+02               0
GRID*               4474               01.0212952382E+027.4810580366E+01+
*       5.4192488250E+02               0
GRID*               4475               01.0128533551E+027.4515776268E+01+
*       5.4140964651E+02               0
GRID*               4476               01.0288703489E+027.5285371163E+01+
*       5.4140920483E+02               0
GRID*               4477               01.0288696422E+027.5285315007E+01+
*       5.4037821322E+02               0
GRID*               4478               01.0128534186E+027.4515777720E+01+
*       5.4037876212E+02               0
GRID*               4479               01.0212957022E+027.4810603085E+01+
*       5.3986298357E+02               0
GRID*               4480               01.0128535265E+027.4515780182E+01+
*       5.3934777988E+02               0
GRID*               4481               01.0288698015E+027.5285327718E+01+
*       5.3934730532E+02               0
GRID*               4482               01.0288700714E+027.5285349226E+01+
*       5.3831629015E+02               0
GRID*               4483               01.0128540768E+027.4515792730E+01+
*       5.3522407410E+02               0
GRID*               4484               01.0212968359E+027.4810658351E+01+
*       5.3573924506E+02               0
GRID*               4485               01.0128542765E+027.4515797275E+01+
*       5.3625502848E+02               0
GRID*               4486               01.0288713403E+027.5285450230E+01+
*       5.3625440851E+02               0
GRID*               4487               01.0288706505E+027.5285395328E+01+
*       5.3728538643E+02               0
GRID*               4488               01.0128542235E+027.4515796065E+01+
*       5.3728592010E+02               0
GRID*               4489               01.0128535845E+027.4515781507E+01+
*       5.3831689170E+02               0
GRID*               4490               01.0212964139E+027.4810637684E+01+
*       5.3780110359E+02               0
GRID*               4491               09.8658590314E+018.2018341289E+01+
*       5.2233229109E+02               0
GRID*               4492               09.9504585371E+018.2315047692E+01+
*       5.2284811718E+02               0
GRID*               4493               09.7899941606E+018.1540594906E+01+
*       5.2181659007E+02               0
GRID*               4494               09.7264436234E+018.0902624043E+01+
*       5.2130075054E+02               0
GRID*               4495               09.7900035101E+018.1540669485E+01+
*       5.2284833013E+02               0
GRID*               4496               09.7899962694E+018.1540611485E+01+
*       5.2387997865E+02               0
GRID*               4497               09.7264479037E+018.0902663972E+01+
*       5.2336416474E+02               0
GRID*               4498               09.6789295783E+018.0143366635E+01+
*       5.2078539007E+02               0
GRID*               4499               09.6495098466E+017.9296616734E+01+
*       5.2026996086E+02               0
GRID*               4500               09.6789313475E+018.0143405672E+01+
*       5.2388043073E+02               0
GRID*               4501               09.6789368118E+018.0143519264E+01+
*       5.2284876505E+02               0
GRID*               4502               09.6789320337E+018.0143420175E+01+
*       5.2491197749E+02               0
GRID*               4503               09.6495094384E+017.9296662089E+01+
*       5.2439642800E+02               0
GRID*               4504               09.6789387991E+018.0143560043E+01+
*       5.2181716318E+02               0
GRID*               4505               09.6495105684E+017.9296679908E+01+
*       5.2233325655E+02               0
GRID*               4506               09.6795895303E+017.6674740938E+01+
*       5.1872466066E+02               0
GRID*               4507               09.6499924386E+017.7518717975E+01+
*       5.1923962503E+02               0
GRID*               4508               09.6795776421E+017.6674982587E+01+
*       5.1975627466E+02               0
GRID*               4509               09.7273335674E+017.5917631717E+01+
*       5.1821005887E+02               0
GRID*               4510               09.6394374992E+017.8407520203E+01+
*       5.1975466360E+02               0
GRID*               4511               09.6394834416E+017.8407643018E+01+
*       5.2078636269E+02               0
GRID*               4512               09.6795828736E+017.6674869775E+01+
*       5.2078756951E+02               0
GRID*               4513               09.6499887089E+017.7518993109E+01+
*       5.2130273773E+02               0
GRID*               4514               09.6795795359E+017.6674934140E+01+
*       5.2181909600E+02               0
GRID*               4515               09.7273353466E+017.5917609941E+01+
*       5.2027268784E+02               0
GRID*               4516               09.6395329081E+017.8407694250E+01+
*       5.2181786688E+02               0
GRID*               4517               09.6395841067E+017.8407672353E+01+
*       5.2284949738E+02               0
GRID*               4518               09.6396323255E+017.8407752403E+01+
*       5.2388092980E+02               0
GRID*               4519               09.6499888398E+017.7519100847E+01+
*       5.2336569130E+02               0
GRID*               4520               09.6396770155E+017.8407792127E+01+
*       5.2491250664E+02               0
GRID*               4521               09.6397173961E+017.8407509757E+01+
*       5.2594389261E+02               0
GRID*               4522               09.6499965961E+017.7518877925E+01+
*       5.2542853027E+02               0
GRID*               4523               09.6795788966E+017.6674942498E+01+
*       5.2285046227E+02               0
GRID*               4524               09.7273424737E+017.5917521230E+01+
*       5.2233538095E+02               0
GRID*               4525               09.6795743328E+017.6675031938E+01+
*       5.2388191973E+02               0
GRID*               4526               09.6795820048E+017.6674862650E+01+
*       5.2594463043E+02               0
GRID*               4527               09.6795789521E+017.6674920396E+01+
*       5.2697582369E+02               0
GRID*               4528               09.7273285622E+017.5917695745E+01+
*       5.2646060579E+02               0
GRID*               4529               09.6795707762E+017.6675100393E+01+
*       5.2491321570E+02               0
GRID*               4530               09.7273371595E+017.5917587994E+01+
*       5.2439807822E+02               0
GRID*               4531               09.9508676129E+017.4515835929E+01+
*       5.1666675222E+02               0
GRID*               4532               09.8664286677E+017.4810806413E+01+
*       5.1718137224E+02               0
GRID*               4533               09.9508635421E+017.4515845203E+01+
*       5.1769783200E+02               0
GRID*               4534               09.7906689279E+017.5285808476E+01+
*       5.1769557669E+02               0
GRID*               4535               09.7906619714E+017.5285863818E+01+
*       5.1872691036E+02               0
GRID*               4536               09.7906600462E+017.5285879010E+01+
*       5.2697667253E+02               0
GRID*               4537               09.7906648041E+017.5285841170E+01+
*       5.2594543788E+02               0
GRID*               4538               09.7906593224E+017.5285884749E+01+
*       5.2800770938E+02               0
GRID*               4539               09.8664181630E+017.4810856466E+01+
*       5.2749260036E+02               0
GRID*               4540               09.9508596287E+017.4515854103E+01+
*       5.2800807576E+02               0
GRID*               4541               09.9508596306E+017.4515854097E+01+
*       5.2903900359E+02               0
GRID*               4542               09.9508609277E+017.4515851146E+01+
*       5.2697701486E+02               0
GRID*               4543               09.9508635430E+017.4515845200E+01+
*       5.1872875984E+02               0
GRID*               4544               09.8664241087E+017.4810828349E+01+
*       5.1924358895E+02               0
GRID*               4545               09.9508626549E+017.4515847222E+01+
*       5.1975989676E+02               0
GRID*               4546               09.7906614751E+017.5285867755E+01+
*       5.1975803055E+02               0
GRID*               4547               09.7906715553E+017.5285787535E+01+
*       5.2078935692E+02               0
GRID*               4548               09.9508609259E+017.4515851152E+01+
*       5.2594608702E+02               0
GRID*               4549               09.7906658031E+017.5285833241E+01+
*       5.2491434235E+02               0
GRID*               4550               09.7906714951E+017.5285787968E+01+
*       5.2388300858E+02               0
GRID*               4551               09.8664211757E+017.4810842195E+01+
*       5.2543042193E+02               0
GRID*               4552               09.9508625321E+017.4515847494E+01+
*       5.2491496952E+02               0
GRID*               4553               09.9508626560E+017.4515847218E+01+
*       5.2079082459E+02               0
GRID*               4554               09.7906690929E+017.5285807114E+01+
*       5.2182048742E+02               0
GRID*               4555               09.7906686288E+017.5285810791E+01+
*       5.2285188820E+02               0
GRID*               4556               09.8664201257E+017.4810847466E+01+
*       5.2130587471E+02               0
GRID*               4557               09.9508592921E+017.4515854881E+01+
*       5.2182197343E+02               0
GRID*               4558               09.9508592935E+017.4515854876E+01+
*       5.2285290126E+02               0
GRID*               4559               09.9508625305E+017.4515847499E+01+
*       5.2388404168E+02               0
GRID*               4560               09.8664198823E+017.4810848554E+01+
*       5.2336816398E+02               0
GRID*               4561               01.0352077253E+027.5917419353E+01+
*       5.2852242495E+02               0
GRID*               4562               01.0288737739E+027.5285643988E+01+
*       5.2903814911E+02               0
GRID*               4563               01.0399856342E+027.6675089564E+01+
*       5.2800667098E+02               0
GRID*               4564               01.0429497051E+027.7519242088E+01+
*       5.2749087942E+02               0
GRID*               4565               01.0399856684E+027.6675091230E+01+
*       5.2903761821E+02               0
GRID*               4566               01.0399843399E+027.6674810721E+01+
*       5.3006864365E+02               0
GRID*               4567               01.0429491418E+027.7519034980E+01+
*       5.2955292650E+02               0
GRID*               4568               01.0439676547E+027.8407794326E+01+
*       5.3006832287E+02               0
GRID*               4569               01.0439677045E+027.8408125924E+01+
*       5.2903732874E+02               0
GRID*               4570               01.0439676050E+027.8407470071E+01+
*       5.3109930164E+02               0
GRID*               4571               01.0428719243E+027.9292912506E+01+
*       5.3058327843E+02               0
GRID*               4572               01.0439677982E+027.8408367542E+01+
*       5.2697515260E+02               0
GRID*               4573               01.0428990137E+027.9295173773E+01+
*       5.2645891203E+02               0
GRID*               4574               01.0439677549E+027.8408494398E+01+
*       5.2800617719E+02               0
GRID*               4575               01.0428847630E+027.9294138759E+01+
*       5.2852123079E+02               0
GRID*               4576               01.0128549542E+027.4515812725E+01+
*       5.3110042179E+02               0
GRID*               4577               01.0212970432E+027.4810669039E+01+
*       5.3161561658E+02               0
GRID*               4578               01.0128549944E+027.4515813644E+01+
*       5.3006952153E+02               0
GRID*               4579               01.0212969012E+027.4810662545E+01+
*       5.2955382406E+02               0
GRID*               4580               01.0288747974E+027.5285725404E+01+
*       5.3006901791E+02               0
GRID*               4581               01.0288753579E+027.5285769976E+01+
*       5.3109992154E+02               0
GRID*               4582               01.0352078811E+027.5917437538E+01+
*       5.3058427262E+02               0
GRID*               4583               01.0288743708E+027.5285691424E+01+
*       5.3213079774E+02               0
GRID*               4584               01.0352056688E+027.5917159613E+01+
*       5.3264604270E+02               0
GRID*               4585               01.0439674576E+027.8406546949E+01+
*       5.3419192293E+02               0
GRID*               4586               01.0439675114E+027.8407120432E+01+
*       5.3316105156E+02               0
GRID*               4587               01.0429465921E+027.7518001387E+01+
*       5.3367659336E+02               0
GRID*               4588               01.0428485176E+027.9290662864E+01+
*       5.3470674390E+02               0
GRID*               4589               01.0439675599E+027.8407398708E+01+
*       5.3213016983E+02               0
GRID*               4590               01.0429481368E+027.7518635521E+01+
*       5.3161481985E+02               0
GRID*               4591               01.0428595769E+027.9291799089E+01+
*       5.3264505659E+02               0
GRID*               4592               01.0399829062E+027.6674497004E+01+
*       5.3316127425E+02               0
GRID*               4593               01.0399845041E+027.6674833458E+01+
*       5.3213040824E+02               0
GRID*               4594               01.0399847054E+027.6674880803E+01+
*       5.3109950581E+02               0
GRID*               4595               01.0400533061E+028.0142402503E+01+
*       5.3316081925E+02               0
GRID*               4596               01.0400547930E+028.0142095507E+01+
*       5.3419170120E+02               0
GRID*               4597               01.0353116228E+028.0900861201E+01+
*       5.3367594388E+02               0
GRID*               4598               01.0400518966E+028.0142695567E+01+
*       5.3212996384E+02               0
GRID*               4599               01.0400567689E+028.0141688876E+01+
*       5.3522255849E+02               0
GRID*               4600               01.0353170448E+028.0900162390E+01+
*       5.3573774786E+02               0
GRID*               4601               01.0289632768E+028.1539006897E+01+
*       5.3419153127E+02               0
GRID*               4602               01.0289658898E+028.1538798265E+01+
*       5.3522242027E+02               0
GRID*               4603               01.0213813466E+028.2017157135E+01+
*       5.3470700732E+02               0
GRID*               4604               01.0289609696E+028.1539191002E+01+
*       5.3316066575E+02               0
GRID*               4605               01.0289699700E+028.1538472120E+01+
*       5.3625335161E+02               0
GRID*               4606               01.0213864727E+028.2016909278E+01+
*       5.3676882434E+02               0
GRID*               4607               01.0400499009E+028.0143112750E+01+
*       5.3109899628E+02               0
GRID*               4608               01.0400483613E+028.0143436514E+01+
*       5.3006804172E+02               0
GRID*               4609               01.0353067885E+028.0901485633E+01+
*       5.3161411984E+02               0
GRID*               4610               01.0289575452E+028.1539464432E+01+
*       5.3212975051E+02               0
GRID*               4611               01.0213747956E+028.2017473765E+01+
*       5.3264521123E+02               0
GRID*               4612               01.0289541598E+028.1539734664E+01+
*       5.3109879783E+02               0
GRID*               4613               01.0400465913E+028.0143809742E+01+
*       5.2903694508E+02               0
GRID*               4614               01.0400449144E+028.0144164826E+01+
*       5.2800581577E+02               0
GRID*               4615               01.0353013288E+028.0902188939E+01+
*       5.2955207943E+02               0
GRID*               4616               01.0289504647E+028.1540029620E+01+
*       5.3006777212E+02               0
GRID*               4617               01.0213670133E+028.2017849710E+01+
*       5.3058327775E+02               0
GRID*               4618               01.0289473843E+028.1540275395E+01+
*       5.2903668896E+02               0
GRID*               4619               01.0400430505E+028.0144568137E+01+
*       5.2594333157E+02               0
GRID*               4620               01.0352935602E+028.0903197440E+01+
*       5.2542716989E+02               0
GRID*               4621               01.0400434948E+028.0144467457E+01+
*       5.2697456246E+02               0
GRID*               4622               01.0352965448E+028.0902806769E+01+
*       5.2748975157E+02               0
GRID*               4623               01.0289441193E+028.1540535897E+01+
*       5.2800549347E+02               0
GRID*               4624               01.0289415929E+028.1540737344E+01+
*       5.2697425235E+02               0
GRID*               4625               01.0213593980E+028.2018217389E+01+
*       5.2852106338E+02               0
GRID*               4626               01.0289380853E+028.1541016769E+01+
*       5.2491153011E+02               0
GRID*               4627               01.0213485014E+028.2018743151E+01+
*       5.2439559794E+02               0
GRID*               4628               01.0289389176E+028.1540950682E+01+
*       5.2594286784E+02               0
GRID*               4629               01.0213529246E+028.2018529780E+01+
*       5.2645848960E+02               0
GRID*               4630               09.7272437722E+017.5918756721E+01+
*       5.3264661627E+02               0
GRID*               4631               09.7905977093E+017.5286375005E+01+
*       5.3316250776E+02               0
GRID*               4632               09.7905901109E+017.5286435519E+01+
*       5.3213157945E+02               0
GRID*               4633               09.6795018738E+017.6676482002E+01+
*       5.3316167567E+02               0
GRID*               4634               09.6499675920E+017.7520581961E+01+
*       5.3367682000E+02               0
GRID*               4635               09.6795010767E+017.6676492413E+01+
*       5.3419256651E+02               0
GRID*               4636               09.6794980914E+017.6676566426E+01+
*       5.3213080176E+02               0
GRID*               4637               09.6795134432E+017.6676254243E+01+
*       5.3109987317E+02               0
GRID*               4638               09.6499716267E+017.7520296577E+01+
*       5.3161504808E+02               0
GRID*               4639               09.9508371045E+017.4515905424E+01+
*       5.3110090099E+02               0
GRID*               4640               09.8663773276E+017.4811052118E+01+
*       5.3161655868E+02               0
GRID*               4641               09.9508404511E+017.4515897794E+01+
*       5.3213185922E+02               0
GRID*               4642               09.9508371024E+017.4515905431E+01+
*       5.3006997316E+02               0
GRID*               4643               09.8663956473E+017.4810964406E+01+
*       5.2955463085E+02               0
GRID*               4644               09.6795581081E+017.6675346376E+01+
*       5.2800695795E+02               0
GRID*               4645               09.6795311434E+017.6675899169E+01+
*       5.2903791414E+02               0
GRID*               4646               09.7272863796E+017.5918223466E+01+
*       5.2852279718E+02               0
GRID*               4647               09.6499959163E+017.7519020110E+01+
*       5.2749104298E+02               0
GRID*               4648               09.6795175369E+017.6676175287E+01+
*       5.3006892679E+02               0
GRID*               4649               09.7272428398E+017.5918768296E+01+
*       5.3058474562E+02               0
GRID*               4650               09.6499823349E+017.7519720850E+01+
*       5.2955315023E+02               0
GRID*               4651               09.7906114188E+017.5286265970E+01+
*       5.2903871086E+02               0
GRID*               4652               09.7905936689E+017.5286407240E+01+
*       5.3006965397E+02               0
GRID*               4653               09.7905870404E+017.5286459986E+01+
*       5.3110065003E+02               0
GRID*               4654               09.6396942787E+017.8410131581E+01+
*       5.3419195620E+02               0
GRID*               4655               09.6495744765E+017.9299722213E+01+
*       5.3470725565E+02               0
GRID*               4656               09.6396746050E+017.8410074138E+01+
*       5.3522285521E+02               0
GRID*               4657               09.6397121058E+017.8410160089E+01+
*       5.3316111351E+02               0
GRID*               4658               09.6397263585E+017.8409838287E+01+
*       5.3213020517E+02               0
GRID*               4659               09.6495690372E+017.9299442023E+01+
*       5.3264548689E+02               0
GRID*               4660               09.6790523009E+018.0145920223E+01+
*       5.3212990893E+02               0
GRID*               4661               09.6790662114E+018.0146207754E+01+
*       5.3316078164E+02               0
GRID*               4662               09.6790356177E+018.0145574620E+01+
*       5.3109896635E+02               0
GRID*               4663               09.7266051025E+018.0904591980E+01+
*       5.3161411203E+02               0
GRID*               4664               09.6790768451E+018.0146424305E+01+
*       5.3522254320E+02               0
GRID*               4665               09.7266695341E+018.0905378096E+01+
*       5.3573768781E+02               0
GRID*               4666               09.6790810537E+018.0146509186E+01+
*       5.3625344405E+02               0
GRID*               4667               09.6790791118E+018.0146473950E+01+
*       5.3419168302E+02               0
GRID*               4668               09.7266464467E+018.0905099999E+01+
*       5.3367592218E+02               0
GRID*               4669               09.6790232746E+018.0145319050E+01+
*       5.3006800846E+02               0
GRID*               4670               09.6790057727E+018.0144955660E+01+
*       5.2903695466E+02               0
GRID*               4671               09.7265569597E+018.0903998341E+01+
*       5.2955214707E+02               0
GRID*               4672               09.6495561825E+017.9298836026E+01+
*       5.3058362351E+02               0
GRID*               4673               09.6397381879E+017.8409524556E+01+
*       5.3109932036E+02               0
GRID*               4674               09.6397470132E+017.8409231146E+01+
*       5.3006832968E+02               0
GRID*               4675               09.6789489426E+018.0143772855E+01+
*       5.2594341155E+02               0
GRID*               4676               09.6789761566E+018.0144340004E+01+
*       5.2697461680E+02               0
GRID*               4677               09.6495231599E+017.9297303659E+01+
*       5.2645920501E+02               0
GRID*               4678               09.7264632390E+018.0902843509E+01+
*       5.2542723838E+02               0
GRID*               4679               09.6789921347E+018.0144672405E+01+
*       5.2800585563E+02               0
GRID*               4680               09.6495434657E+017.9298237367E+01+
*       5.2852153665E+02               0
GRID*               4681               09.7265097377E+018.0903416354E+01+
*       5.2748988380E+02               0
GRID*               4682               09.6397396679E+017.8408160204E+01+
*       5.2697512789E+02               0
GRID*               4683               09.6397520523E+017.8408615629E+01+
*       5.2800622732E+02               0
GRID*               4684               09.6397520885E+017.8408949786E+01+
*       5.2903735673E+02               0
GRID*               4685               01.0040034621E+028.2415915139E+01+
*       5.3367598010E+02               0
GRID*               4686               09.9508492031E+018.2315940603E+01+
*       5.3419141110E+02               0
GRID*               4687               09.9508161890E+018.2315865289E+01+
*       5.3316051584E+02               0
GRID*               4688               01.0129234246E+028.2314436939E+01+
*       5.3419146154E+02               0
GRID*               4689               01.0129264506E+028.2314367435E+01+
*       5.3522234463E+02               0
GRID*               4690               01.0129200662E+028.2314514047E+01+
*       5.3316057169E+02               0
GRID*               4691               01.0129160400E+028.2314606432E+01+
*       5.3212966187E+02               0
GRID*               4692               01.0129287712E+028.2314314101E+01+
*       5.3625324568E+02               0
GRID*               4693               01.0040092425E+028.2415914628E+01+
*       5.3573777416E+02               0
GRID*               4694               01.0129312464E+028.2314257206E+01+
*       5.3728417613E+02               0
GRID*               4695               01.0040147412E+028.2415914064E+01+
*       5.3779967220E+02               0
GRID*               4696               09.9509168079E+018.2316094880E+01+
*       5.3728411548E+02               0
GRID*               4697               09.9509470194E+018.2316163735E+01+
*       5.3831511548E+02               0
GRID*               4698               09.7903285551E+018.1543263623E+01+
*       5.3625321125E+02               0
GRID*               4699               09.8662794141E+018.2020367079E+01+
*       5.3676868861E+02               0
GRID*               4700               09.7903488232E+018.1543425251E+01+
*       5.3728417199E+02               0
GRID*               4701               09.7903193501E+018.1543190217E+01+
*       5.3522233995E+02               0
GRID*               4702               09.7903040351E+018.1543068081E+01+
*       5.3419146750E+02               0
GRID*               4703               09.8662380767E+018.2020168141E+01+
*       5.3470687590E+02               0
GRID*               4704               09.9508685697E+018.2315984831E+01+
*       5.3522226646E+02               0
GRID*               4705               09.9508911484E+018.2316036358E+01+
*       5.3625317344E+02               0
GRID*               4706               09.7902790230E+018.1542868587E+01+
*       5.3316059307E+02               0
GRID*               4707               09.7902451824E+018.1542598627E+01+
*       5.3212964806E+02               0
GRID*               4708               09.8661812983E+018.2019894801E+01+
*       5.3264507715E+02               0
GRID*               4709               01.0129113988E+028.2314712864E+01+
*       5.3109868121E+02               0
GRID*               4710               01.0129070331E+028.2314812936E+01+
*       5.3006766046E+02               0
GRID*               4711               01.0039952977E+028.2415915717E+01+
*       5.3161410671E+02               0
GRID*               4712               09.9507737954E+018.2315768577E+01+
*       5.3212958641E+02               0
GRID*               4713               09.9507279040E+018.2315663844E+01+
*       5.3109860083E+02               0
GRID*               4714               09.7902131823E+018.1542343304E+01+
*       5.3109873008E+02               0
GRID*               4715               09.7901783619E+018.1542065424E+01+
*       5.3006770059E+02               0
GRID*               4716               09.8661022552E+018.2019514096E+01+
*       5.3058311972E+02               0
GRID*               4717               01.0129027879E+028.2314910201E+01+
*       5.2903655095E+02               0
GRID*               4718               01.0128989411E+028.2314998307E+01+
*       5.2800535998E+02               0
GRID*               4719               01.0039862193E+028.2415916163E+01+
*       5.2955201391E+02               0
GRID*               4720               09.9506843875E+018.2315564472E+01+
*       5.3006758558E+02               0
GRID*               4721               09.9506424097E+018.2315468563E+01+
*       5.2903647156E+02               0
GRID*               4722               09.8660255459E+018.2019144427E+01+
*       5.2852092191E+02               0
GRID*               4723               09.9506025699E+018.2315377488E+01+
*       5.2800530064E+02               0
GRID*               4724               09.7901127423E+018.1541541618E+01+
*       5.2800548533E+02               0
GRID*               4725               09.7900816363E+018.1541293255E+01+
*       5.2697426702E+02               0
GRID*               4726               09.7901447017E+018.1541796754E+01+
*       5.2903666925E+02               0
GRID*               4727               09.7900549091E+018.1541079838E+01+
*       5.2594291674E+02               0
GRID*               4728               09.8659583260E+018.2018820324E+01+
*       5.2645840197E+02               0
GRID*               4729               09.7900219022E+018.1540816215E+01+
*       5.2491150142E+02               0
GRID*               4730               09.8658985730E+018.2018532094E+01+
*       5.2439554197E+02               0
GRID*               4731               01.0039674352E+028.2415916424E+01+
*       5.2336385445E+02               0
GRID*               4732               01.0128880834E+028.2315246926E+01+
*       5.2387974908E+02               0
GRID*               4733               09.9504773880E+018.2315090932E+01+
*       5.2387972104E+02               0
GRID*               4734               09.9505091036E+018.2315163569E+01+
*       5.2491123292E+02               0
GRID*               4735               01.0128897050E+028.2315209767E+01+
*       5.2491125815E+02               0
GRID*               4736               09.9505695227E+018.2315301886E+01+
*       5.2697399328E+02               0
GRID*               4737               01.0039784614E+028.2415916379E+01+
*       5.2748959874E+02               0
GRID*               4738               09.9505363283E+018.2315225919E+01+
*       5.2594265490E+02               0
GRID*               4739               01.0039722191E+028.2415916442E+01+
*       5.2542687508E+02               0
GRID*               4740               01.0128924663E+028.2315146559E+01+
*       5.2594267635E+02               0
GRID*               4741               01.0128955934E+028.2315074966E+01+
*       5.2697405674E+02               0
GRID*               4742               01.0352006530E+027.5916527117E+01+
*       5.4501734681E+02               0
GRID*               4743               01.0288692723E+027.5285285306E+01+
*       5.4553295510E+02               0
GRID*               4744               01.0399824865E+027.6674339094E+01+
*       5.4553242014E+02               0
GRID*               4745               01.0399822928E+027.6674293210E+01+
*       5.4656333841E+02               0
GRID*               4746               01.0429456907E+027.7517816395E+01+
*       5.4604770258E+02               0
GRID*               4747               01.0399814670E+027.6674134056E+01+
*       5.4450163354E+02               0
GRID*               4748               01.0429449905E+027.7517480093E+01+
*       5.4398605266E+02               0
GRID*               4749               01.0439670857E+027.8406201103E+01+
*       5.4347047839E+02               0
GRID*               4750               01.0428128450E+027.9288916572E+01+
*       5.4295420093E+02               0
GRID*               4751               01.0439670569E+027.8406623663E+01+
*       5.4450121639E+02               0
GRID*               4752               01.0439669855E+027.8406642401E+01+
*       5.4656294707E+02               0
GRID*               4753               01.0439669521E+027.8406697623E+01+
*       5.4759376202E+02               0
GRID*               4754               01.0428051122E+027.9289194938E+01+
*       5.4707748839E+02               0
GRID*               4755               01.0439670223E+027.8406715072E+01+
*       5.4553209335E+02               0
GRID*               4756               01.0428076485E+027.9289165857E+01+
*       5.4501585739E+02               0
GRID*               4757               01.0400538372E+028.0141262818E+01+
*       5.4759342066E+02               0
GRID*               4758               01.0400537488E+028.0141302705E+01+
*       5.4862411997E+02               0
GRID*               4759               01.0353163411E+028.0900178469E+01+
*       5.4810844279E+02               0
GRID*               4760               01.0399855814E+028.0138844358E+01+
*       5.4656262665E+02               0
GRID*               4761               01.0353183973E+028.0899929411E+01+
*       5.4604699569E+02               0
GRID*               4762               01.0399035108E+028.0135746879E+01+
*       5.4553180891E+02               0
GRID*               4763               01.0398381207E+028.0132885038E+01+
*       5.4243922193E+02               0
GRID*               4764               01.0353213795E+028.0899575738E+01+
*       5.4192350768E+02               0
GRID*               4765               01.0398184772E+028.0132570753E+01+
*       5.4347001434E+02               0
GRID*               4766               01.0398429036E+028.0133510737E+01+
*       5.4450095239E+02               0
GRID*               4767               01.0353199103E+028.0899749574E+01+
*       5.4398531928E+02               0
GRID*               4768               01.0289634923E+028.1538994051E+01+
*       5.4862381602E+02               0
GRID*               4769               01.0289628603E+028.1539044757E+01+
*       5.4965459352E+02               0
GRID*               4770               01.0213763811E+028.2017397189E+01+
*       5.4913917071E+02               0
GRID*               4771               01.0289647521E+028.1538893083E+01+
*       5.4759314401E+02               0
GRID*               4772               01.0213794406E+028.2017249312E+01+
*       5.4707768688E+02               0
GRID*               4773               01.0289665915E+028.1538745702E+01+
*       5.4656242286E+02               0
GRID*               4774               01.0129259126E+028.2314379201E+01+
*       5.4656232921E+02               0
GRID*               4775               01.0040109229E+028.2415914466E+01+
*       5.4604699866E+02               0
GRID*               4776               01.0129281587E+028.2314327681E+01+
*       5.4553152342E+02               0
GRID*               4777               01.0129234432E+028.2314435838E+01+
*       5.4759304055E+02               0
GRID*               4778               01.0129201621E+028.2314511075E+01+
*       5.4965453774E+02               0
GRID*               4779               01.0129185759E+028.2314547449E+01+
*       5.5068526922E+02               0
GRID*               4780               01.0040020210E+028.2415915255E+01+
*       5.5017000877E+02               0
GRID*               4781               01.0129211112E+028.2314489315E+01+
*       5.4862377097E+02               0
GRID*               4782               01.0040061399E+028.2415914915E+01+
*       5.4810854058E+02               0
GRID*               4783               01.0289682738E+028.1538610856E+01+
*       5.4553166763E+02               0
GRID*               4784               01.0213830026E+028.2017077101E+01+
*       5.4501611692E+02               0
GRID*               4785               01.0289693217E+028.1538526745E+01+
*       5.4450080525E+02               0
GRID*               4786               01.0129296483E+028.2314293521E+01+
*       5.4450067007E+02               0
GRID*               4787               01.0040148234E+028.2415914056E+01+
*       5.4398530303E+02               0
GRID*               4788               01.0129311298E+028.2314259546E+01+
*       5.4346978539E+02               0
GRID*               4789               01.0289721288E+028.1538301191E+01+
*       5.4140809388E+02               0
GRID*               4790               01.0213883221E+028.2016819842E+01+
*       5.4089258304E+02               0
GRID*               4791               01.0289705147E+028.1538430716E+01+
*       5.4243898653E+02               0
GRID*               4792               01.0289699022E+028.1538480026E+01+
*       5.4346990142E+02               0
GRID*               4793               01.0213851766E+028.2016971976E+01+
*       5.4295435212E+02               0
GRID*               4794               01.0129347746E+028.2314175991E+01+
*       5.4037707079E+02               0
GRID*               4795               01.0040173157E+028.2415913774E+01+
*       5.3986158953E+02               0
GRID*               4796               01.0129322342E+028.2314234280E+01+
*       5.4140792882E+02               0
GRID*               4797               01.0129320862E+028.2314237629E+01+
*       5.4243887879E+02               0
GRID*               4798               01.0040165639E+028.2415913861E+01+
*       5.4192346371E+02               0
GRID*               4799               09.7265799562E+018.0904158844E+01+
*       5.5223201788E+02               0
GRID*               4800               09.7902541377E+018.1542670825E+01+
*       5.5171651914E+02               0
GRID*               4801               09.7902320179E+018.1542494431E+01+
*       5.5274737948E+02               0
GRID*               4802               09.6790251758E+018.0145296043E+01+
*       5.5274801833E+02               0
GRID*               4803               09.6790165631E+018.0145115187E+01+
*       5.5377886944E+02               0
GRID*               4804               09.6515676749E+017.9291790616E+01+
*       5.5326355003E+02               0
GRID*               4805               09.6790385335E+018.0145576141E+01+
*       5.5171709644E+02               0
GRID*               4806               09.6515371615E+017.9292307468E+01+
*       5.5120177513E+02               0
GRID*               4807               09.6790472893E+018.0145760794E+01+
*       5.5068624701E+02               0
GRID*               4808               09.9508019272E+018.2315835272E+01+
*       5.5068535781E+02               0
GRID*               4809               09.9507830989E+018.2315792519E+01+
*       5.5171618504E+02               0
GRID*               4810               09.8661801806E+018.2019889541E+01+
*       5.5120094498E+02               0
GRID*               4811               09.9508189813E+018.2315873973E+01+
*       5.4965461482E+02               0
GRID*               4812               09.8662171400E+018.2020067456E+01+
*       5.4913934929E+02               0
GRID*               4813               09.9508397761E+018.2315921182E+01+
*       5.4862387555E+02               0
GRID*               4814               09.6790586787E+018.0146000555E+01+
*       5.4965535382E+02               0
GRID*               4815               09.7266162870E+018.0904626640E+01+
*       5.5017027219E+02               0
GRID*               4816               09.6511870939E+017.9293955433E+01+
*       5.4914006648E+02               0
GRID*               4817               09.6790678741E+018.0146194891E+01+
*       5.4862451313E+02               0
GRID*               4818               09.6790764308E+018.0146376117E+01+
*       5.4759371421E+02               0
GRID*               4819               09.6505692886E+017.9296522852E+01+
*       5.4707840321E+02               0
GRID*               4820               09.6790848621E+018.0146554869E+01+
*       5.4656286292E+02               0
GRID*               4821               09.7266461293E+018.0905013048E+01+
*       5.4810864396E+02               0
GRID*               4822               09.7902701723E+018.1542798655E+01+
*       5.5068565629E+02               0
GRID*               4823               09.7902889876E+018.1542948658E+01+
*       5.4965481923E+02               0
GRID*               4824               09.7903064998E+018.1543088254E+01+
*       5.4862404747E+02               0
GRID*               4825               09.7903203743E+018.1543198831E+01+
*       5.4759329973E+02               0
GRID*               4826               09.9508641843E+018.2315976604E+01+
*       5.4759313464E+02               0
GRID*               4827               09.8662581983E+018.2020265053E+01+
*       5.4707776743E+02               0
GRID*               4828               09.9508875289E+018.2316029588E+01+
*       5.4656231867E+02               0
GRID*               4829               09.6790948285E+018.0146765628E+01+
*       5.4553196156E+02               0
GRID*               4830               09.7266743018E+018.0905378823E+01+
*       5.4604700261E+02               0
GRID*               4831               09.6498752194E+017.9299271958E+01+
*       5.4501670530E+02               0
GRID*               4832               09.6791013290E+018.0146904354E+01+
*       5.4450106902E+02               0
GRID*               4833               09.7903398336E+018.1543353937E+01+
*       5.4656245412E+02               0
GRID*               4834               09.7903563545E+018.1543485602E+01+
*       5.4553159948E+02               0
GRID*               4835               09.9509109845E+018.2316082809E+01+
*       5.4553150335E+02               0
GRID*               4836               09.8662954390E+018.2020444229E+01+
*       5.4501607005E+02               0
GRID*               4837               09.9509276942E+018.2316120671E+01+
*       5.4450064621E+02               0
GRID*               4838               09.6791069570E+018.0147024953E+01+
*       5.4347012216E+02               0
GRID*               4839               09.7266985000E+018.0905694888E+01+
*       5.4398520879E+02               0
GRID*               4840               09.6495864699E+017.9300438651E+01+
*       5.4295485296E+02               0
GRID*               4841               09.6791096842E+018.0147085221E+01+
*       5.4243917366E+02               0
GRID*               4842               09.7903704007E+018.1543597529E+01+
*       5.4450071531E+02               0
GRID*               4843               09.7903791475E+018.1543667207E+01+
*       5.4346981107E+02               0
GRID*               4844               09.9509434190E+018.2316156286E+01+
*       5.4346975286E+02               0
GRID*               4845               09.8663160000E+018.2020543128E+01+
*       5.4295428670E+02               0
GRID*               4846               09.9509487101E+018.2316168170E+01+
*       5.4243884877E+02               0
GRID*               4847               09.9509527819E+018.2316176986E+01+
*       5.3934602962E+02               0
GRID*               4848               09.8663081882E+018.2020505526E+01+
*       5.3883056156E+02               0
GRID*               4849               09.9509467679E+018.2316163459E+01+
*       5.4037695677E+02               0
GRID*               4850               09.9509510197E+018.2316173274E+01+
*       5.4140789094E+02               0
GRID*               4851               09.8663172063E+018.2020548918E+01+
*       5.4089242827E+02               0
GRID*               4852               09.7903839482E+018.1543705430E+01+
*       5.4243888233E+02               0
GRID*               4853               09.7267078891E+018.0905824703E+01+
*       5.4192330470E+02               0
GRID*               4854               09.7903819778E+018.1543689681E+01+
*       5.4140791391E+02               0
GRID*               4855               09.6791093656E+018.0147082115E+01+
*       5.4140816637E+02               0
GRID*               4856               09.6495872390E+017.9300420776E+01+
*       5.4089289114E+02               0
GRID*               4857               09.6791078445E+018.0147053931E+01+
*       5.4037720457E+02               0
GRID*               4858               09.7903687785E+018.1543584371E+01+
*       5.3831508597E+02               0
GRID*               4859               09.7266887092E+018.0905607158E+01+
*       5.3779949555E+02               0
GRID*               4860               09.7903730186E+018.1543618195E+01+
*       5.3934602063E+02               0
GRID*               4861               09.7903790390E+018.1543666218E+01+
*       5.4037695726E+02               0
GRID*               4862               09.7267054921E+018.0905806389E+01+
*       5.3986137145E+02               0
GRID*               4863               09.6790919261E+018.0146732480E+01+
*       5.3728434463E+02               0
GRID*               4864               09.6495784074E+017.9299938067E+01+
*       5.3676905569E+02               0
GRID*               4865               09.6791021568E+018.0146942207E+01+
*       5.3831529097E+02               0
GRID*               4866               09.6791053005E+018.0147004372E+01+
*       5.3934623247E+02               0
GRID*               4867               09.6495851540E+017.9300280704E+01+
*       5.3883094077E+02               0
GRID*               4868               09.9508375864E+017.4515904261E+01+
*       5.5378203961E+02               0
GRID*               4869               09.9508375835E+017.4515904271E+01+
*       5.5275111178E+02               0
GRID*               4870               09.9508174895E+017.4515950065E+01+
*       5.5481301312E+02               0
GRID*               4871               09.9508174924E+017.4515950055E+01+
*       5.5584394096E+02               0
GRID*               4872               09.8663395853E+017.4811222444E+01+
*       5.5429843986E+02               0
GRID*               4873               09.7905877630E+017.5286453590E+01+
*       5.5378213382E+02               0
GRID*               4874               09.7905725986E+017.5286574288E+01+
*       5.5481302884E+02               0
GRID*               4875               09.9508271065E+017.4515928137E+01+
*       5.5687496070E+02               0
GRID*               4876               09.9508271095E+017.4515928127E+01+
*       5.5790588853E+02               0
GRID*               4877               09.8663269373E+017.4811281320E+01+
*       5.5636043328E+02               0
GRID*               4878               09.7905791641E+017.5286521982E+01+
*       5.5584404183E+02               0
GRID*               4879               09.7905879518E+017.5286451988E+01+
*       5.5687497626E+02               0
GRID*               4880               09.7272430667E+017.5918764007E+01+
*       5.5532778322E+02               0
GRID*               4881               09.6794898985E+017.6676602221E+01+
*       5.5481162694E+02               0
GRID*               4882               09.6794936518E+017.6676519224E+01+
*       5.5584249297E+02               0
GRID*               4883               09.9508196988E+017.4515945086E+01+
*       5.3522465895E+02               0
GRID*               4884               09.9508196965E+017.4515945094E+01+
*       5.3419373111E+02               0
GRID*               4885               09.9508214251E+017.4515941149E+01+
*       5.3625561454E+02               0
GRID*               4886               09.9508214275E+017.4515941141E+01+
*       5.3728654237E+02               0
GRID*               4887               09.8663421016E+017.4811220532E+01+
*       5.3574036071E+02               0
GRID*               4888               09.7905610829E+017.5286666554E+01+
*       5.3522435614E+02               0
GRID*               4889               09.7905629240E+017.5286651868E+01+
*       5.3625527717E+02               0
GRID*               4890               09.9508404533E+017.4515897787E+01+
*       5.3316278705E+02               0
GRID*               4891               09.8663605299E+017.4811132443E+01+
*       5.3367846101E+02               0
GRID*               4892               09.7905814502E+017.5286504417E+01+
*       5.3419342012E+02               0
GRID*               4893               09.7272338576E+017.5918880823E+01+
*       5.3470842173E+02               0
GRID*               4894               09.6794893875E+017.6676728514E+01+
*       5.3522344301E+02               0
GRID*               4895               09.7272021638E+017.5919277469E+01+
*       5.3677027785E+02               0
GRID*               4896               09.7905431081E+017.5286809632E+01+
*       5.3728626169E+02               0
GRID*               4897               09.6794658218E+017.6677210842E+01+
*       5.3625439876E+02               0
GRID*               4898               09.6499592745E+017.7521052058E+01+
*       5.3573861463E+02               0
GRID*               4899               09.6794544506E+017.6677440368E+01+
*       5.3728531810E+02               0
GRID*               4900               09.6499519120E+017.7521479368E+01+
*       5.3780047466E+02               0
GRID*               4901               09.6794555216E+017.6677411845E+01+
*       5.3831627928E+02               0
GRID*               4902               09.6396146786E+017.8410733907E+01+
*       5.3831560486E+02               0
GRID*               4903               09.6395933699E+017.8410796269E+01+
*       5.3934659290E+02               0
GRID*               4904               09.6396366852E+017.8410811660E+01+
*       5.3728470140E+02               0
GRID*               4905               09.6396566243E+017.8410568995E+01+
*       5.3625375833E+02               0
GRID*               4906               09.6394034794E+017.8409466299E+01+
*       5.5171781641E+02               0
GRID*               4907               09.6393974374E+017.8409482957E+01+
*       5.5274865591E+02               0
GRID*               4908               09.6499892270E+017.7520537188E+01+
*       5.5223373240E+02               0
GRID*               4909               09.6394113477E+017.8409661162E+01+
*       5.5068688572E+02               0
GRID*               4910               09.6393929208E+017.8409298036E+01+
*       5.5377959613E+02               0
GRID*               4911               09.6393901670E+017.8408928254E+01+
*       5.5481049120E+02               0
GRID*               4912               09.6499986797E+017.7520206017E+01+
*       5.5429557423E+02               0
GRID*               4913               09.7272351578E+017.5918863255E+01+
*       5.5326589310E+02               0
GRID*               4914               09.7905864197E+017.5286464316E+01+
*       5.5275111088E+02               0
GRID*               4915               09.6794754982E+017.6676906006E+01+
*       5.5378061455E+02               0
GRID*               4916               09.6794747560E+017.6676926936E+01+
*       5.5274972585E+02               0
GRID*               4917               09.6794772614E+017.6676880693E+01+
*       5.5171877904E+02               0
GRID*               4918               09.8663396671E+017.4811223809E+01+
*       5.5223641246E+02               0
GRID*               4919               09.9508147089E+017.4515956413E+01+
*       5.5172005804E+02               0
GRID*               4920               09.7272233462E+017.5919011328E+01+
*       5.5120394504E+02               0
GRID*               4921               09.6794708886E+017.6677018570E+01+
*       5.5068784369E+02               0
GRID*               4922               09.7905671454E+017.5286617804E+01+
*       5.5172012827E+02               0
GRID*               4923               09.7905555270E+017.5286710346E+01+
*       5.5068907021E+02               0
GRID*               4924               09.9508147060E+017.4515956423E+01+
*       5.5068913020E+02               0
GRID*               4925               09.9508299609E+017.4515921653E+01+
*       5.4965811897E+02               0
GRID*               4926               09.9508299581E+017.4515921663E+01+
*       5.4862719114E+02               0
GRID*               4927               09.8663349842E+017.4811247902E+01+
*       5.5017434735E+02               0
GRID*               4928               09.7905669553E+017.5286619381E+01+
*       5.4965812452E+02               0
GRID*               4929               09.6394451418E+017.8410204071E+01+
*       5.4759420662E+02               0
GRID*               4930               09.6394326370E+017.8410217008E+01+
*       5.4862507037E+02               0
GRID*               4931               09.6499710319E+017.7521151909E+01+
*       5.4811003951E+02               0
GRID*               4932               09.6394597612E+017.8410401750E+01+
*       5.4656328787E+02               0
GRID*               4933               09.6394212192E+017.8410006294E+01+
*       5.4965598509E+02               0
GRID*               4934               09.6499802123E+017.7520843438E+01+
*       5.5017189395E+02               0
GRID*               4935               09.7272109289E+017.5919166973E+01+
*       5.4914198790E+02               0
GRID*               4936               09.7905646853E+017.5286637488E+01+
*       5.4862710374E+02               0
GRID*               4937               09.6794578551E+017.6677294655E+01+
*       5.4965684489E+02               0
GRID*               4938               09.6794567549E+017.6677323474E+01+
*       5.4862593621E+02               0
GRID*               4939               09.6794593527E+017.6677275707E+01+
*       5.4759498262E+02               0
GRID*               4940               09.8663302613E+017.4811272013E+01+
*       5.4811232009E+02               0
GRID*               4941               09.9508073255E+017.4515973259E+01+
*       5.4759617524E+02               0
GRID*               4942               09.7271995274E+017.5919309891E+01+
*       5.4708004958E+02               0
GRID*               4943               09.6794537337E+017.6677398372E+01+
*       5.4656405657E+02               0
GRID*               4944               09.7905457467E+017.5286788323E+01+
*       5.4759614725E+02               0
GRID*               4945               09.7905352327E+017.5286872082E+01+
*       5.4656511873E+02               0
GRID*               4946               09.9508073226E+017.4515973268E+01+
*       5.4656524740E+02               0
GRID*               4947               09.9508226753E+017.4515938273E+01+
*       5.4553424245E+02               0
GRID*               4948               09.9508226725E+017.4515938282E+01+
*       5.4450331462E+02               0
GRID*               4949               09.8663253879E+017.4811296689E+01+
*       5.4605029913E+02               0
GRID*               4950               09.7905468683E+017.5286779454E+01+
*       5.4553416850E+02               0
GRID*               4951               09.6395117996E+017.8410809067E+01+
*       5.4347050957E+02               0
GRID*               4952               09.6394939086E+017.8410875614E+01+
*       5.4450142547E+02               0
GRID*               4953               09.6499550279E+017.7521654553E+01+
*       5.4398628458E+02               0
GRID*               4954               09.6395313611E+017.8410881231E+01+
*       5.4243950507E+02               0
GRID*               4955               09.6394763703E+017.8410718807E+01+
*       5.4553237946E+02               0
GRID*               4956               09.6499624435E+017.7521430474E+01+
*       5.4604818469E+02               0
GRID*               4957               09.7271891482E+017.5919439996E+01+
*       5.4501810362E+02               0
GRID*               4958               09.7905457136E+017.5286788680E+01+
*       5.4450314949E+02               0
GRID*               4959               09.6794421765E+017.6677644259E+01+
*       5.4553306591E+02               0
GRID*               4960               09.6794418111E+017.6677658118E+01+
*       5.4450214049E+02               0
GRID*               4961               09.6794469212E+017.6677558454E+01+
*       5.4347114933E+02               0
GRID*               4962               09.6395733864E+017.8411071689E+01+
*       5.4037754428E+02               0
GRID*               4963               09.6499493842E+017.7521694983E+01+
*       5.3986238796E+02               0
GRID*               4964               09.6395525750E+017.8411096366E+01+
*       5.4140855710E+02               0
GRID*               4965               09.6499498809E+017.7521777069E+01+
*       5.4192435109E+02               0
GRID*               4966               09.6794430829E+017.6677644400E+01+
*       5.4244019936E+02               0
GRID*               4967               09.6794360923E+017.6677795757E+01+
*       5.4140918242E+02               0
GRID*               4968               09.7271813177E+017.5919538174E+01+
*       5.4295614174E+02               0
GRID*               4969               09.6794483597E+017.6677554036E+01+
*       5.3934722637E+02               0
GRID*               4970               09.7271770719E+017.5919591525E+01+
*       5.3883221018E+02               0
GRID*               4971               09.6794341600E+017.6677842206E+01+
*       5.4037824076E+02               0
GRID*               4972               09.7271712385E+017.5919664477E+01+
*       5.4089417114E+02               0
GRID*               4973               09.9508011750E+017.4515987303E+01+
*       5.4037945276E+02               0
GRID*               4974               09.9508011777E+017.4515987294E+01+
*       5.4141038059E+02               0
GRID*               4975               09.8663213642E+017.4811319646E+01+
*       5.3780230588E+02               0
GRID*               4976               09.9507983281E+017.4515993800E+01+
*       5.3831753189E+02               0
GRID*               4977               09.7905250479E+017.5286953432E+01+
*       5.3831721314E+02               0
GRID*               4978               09.7905127852E+017.5287051072E+01+
*       5.3934823162E+02               0
GRID*               4979               09.9507983306E+017.4515993791E+01+
*       5.3934845973E+02               0
GRID*               4980               09.8663015139E+017.4811414407E+01+
*       5.3986428850E+02               0
GRID*               4981               09.7905156087E+017.5287028554E+01+
*       5.4037918316E+02               0
GRID*               4982               09.7905197338E+017.5286995670E+01+
*       5.4141020296E+02               0
GRID*               4983               09.9507987410E+017.4515992847E+01+
*       5.4244138376E+02               0
GRID*               4984               09.8663006358E+017.4811417799E+01+
*       5.4192628477E+02               0
GRID*               4985               09.9507987437E+017.4515992838E+01+
*       5.4347231159E+02               0
GRID*               4986               09.8663190935E+017.4811328055E+01+
*       5.4398829105E+02               0
GRID*               4987               09.7905183633E+017.5287006556E+01+
*       5.4244116060E+02               0
GRID*               4988               09.7905258523E+017.5286946880E+01+
*       5.4347219605E+02               0
GRID*               4989               09.7272360084E+017.5918852033E+01+
*       5.5738952293E+02               0
GRID*               4990               09.7905703970E+017.5286591718E+01+
*       5.5790586223E+02               0
GRID*               4991               09.6794765844E+017.6676867748E+01+
*       5.5687320768E+02               0
GRID*               4992               09.6500002520E+017.7520209874E+01+
*       5.5635717300E+02               0
GRID*               4993               09.6794670546E+017.6677060308E+01+
*       5.5790393300E+02               0
GRID*               4994               09.6499973660E+017.7520399156E+01+
*       5.5841861211E+02               0
GRID*               4995               09.6794736017E+017.6676919921E+01+
*       5.5893479799E+02               0
GRID*               4996               09.6393887688E+017.8409091864E+01+
*       5.5584120008E+02               0
GRID*               4997               09.6393884781E+017.8409449629E+01+
*       5.5687178652E+02               0
GRID*               4998               09.6513145104E+017.9292635414E+01+
*       5.5532513885E+02               0
GRID*               4999               09.6393928095E+017.8409361968E+01+
*       5.5893317214E+02               0
GRID*               5000               09.6502378321E+017.9296584942E+01+
*       5.5944783169E+02               0
GRID*               5001               09.6393972138E+017.8409223615E+01+
*       5.5996389660E+02               0
GRID*               5002               09.6393897383E+017.8409544842E+01+
*       5.5790244759E+02               0
GRID*               5003               09.6508498184E+017.9294511563E+01+
*       5.5738647211E+02               0
GRID*               5004               09.6790155166E+018.0145101422E+01+
*       5.5996259276E+02               0
GRID*               5005               09.7265556629E+018.0903821465E+01+
*       5.6047703458E+02               0
GRID*               5006               09.6790099992E+018.0144991934E+01+
*       5.6099312565E+02               0
GRID*               5007               09.6790233882E+018.0145261415E+01+
*       5.5893198569E+02               0
GRID*               5008               09.6790229021E+018.0145248496E+01+
*       5.5790146605E+02               0
GRID*               5009               09.7265586594E+018.0903865782E+01+
*       5.5841607794E+02               0
GRID*               5010               09.6790157878E+018.0145098140E+01+
*       5.5480962292E+02               0
GRID*               5011               09.6790219401E+018.0145226123E+01+
*       5.5584023421E+02               0
GRID*               5012               09.7265598989E+018.0903896912E+01+
*       5.5429361832E+02               0
GRID*               5013               09.6790201361E+018.0145189212E+01+
*       5.5687091195E+02               0
GRID*               5014               09.7265577326E+018.0903861439E+01+
*       5.5635496854E+02               0
GRID*               5015               09.9507461623E+018.2315709697E+01+
*       5.6202149811E+02               0
GRID*               5016               09.8661390664E+018.2019691693E+01+
*       5.6150667113E+02               0
GRID*               5017               09.9507494941E+018.2315717162E+01+
*       5.6099107987E+02               0
GRID*               5018               01.0039957663E+028.2415915691E+01+
*       5.6253646678E+02               0
GRID*               5019               09.9507409702E+018.2315697990E+01+
*       5.6305184217E+02               0
GRID*               5020               09.7902193603E+018.1542394346E+01+
*       5.6099187562E+02               0
GRID*               5021               09.7902248585E+018.1542438096E+01+
*       5.5996143164E+02               0
GRID*               5022               09.7902151694E+018.1542361031E+01+
*       5.6202235024E+02               0
GRID*               5023               09.7902236596E+018.1542428054E+01+
*       5.5583938249E+02               0
GRID*               5024               09.7902267225E+018.1542452385E+01+
*       5.5480869748E+02               0
GRID*               5025               09.8661474682E+018.2019732063E+01+
*       5.5532366722E+02               0
GRID*               5026               09.7902233064E+018.1542425350E+01+
*       5.5686998635E+02               0
GRID*               5027               09.7902257402E+018.1542444440E+01+
*       5.5377801139E+02               0
GRID*               5028               09.8661562917E+018.2019774530E+01+
*       5.5326239707E+02               0
GRID*               5029               09.9507588531E+018.2315737686E+01+
*       5.5480809887E+02               0
GRID*               5030               09.9507641960E+018.2315749725E+01+
*       5.5377744014E+02               0
GRID*               5031               01.0039974783E+028.2415915581E+01+
*       5.5429269879E+02               0
GRID*               5032               09.9507564670E+018.2315732385E+01+
*       5.5583874108E+02               0
GRID*               5033               09.9507707252E+018.2315764465E+01+
*       5.5274684728E+02               0
GRID*               5034               01.0039991445E+028.2415915467E+01+
*       5.5223139675E+02               0
GRID*               5035               09.7902273754E+018.1542458057E+01+
*       5.5893092940E+02               0
GRID*               5036               09.8661443946E+018.2019717324E+01+
*       5.5944575584E+02               0
GRID*               5037               09.7902228826E+018.1542422085E+01+
*       5.5790049075E+02               0
GRID*               5038               09.8661455338E+018.2019722777E+01+
*       5.5738480538E+02               0
GRID*               5039               09.9507534367E+018.2315726017E+01+
*       5.5996071396E+02               0
GRID*               5040               01.0039965009E+028.2415915645E+01+
*       5.6047578412E+02               0
GRID*               5041               09.9507548491E+018.2315729103E+01+
*       5.5893026318E+02               0
GRID*               5042               09.9507558772E+018.2315731312E+01+
*       5.5789977824E+02               0
GRID*               5043               01.0039968238E+028.2415915624E+01+
*       5.5841495826E+02               0
GRID*               5044               09.9507548309E+018.2315728792E+01+
*       5.5686932076E+02               0
GRID*               5045               01.0039969238E+028.2415915617E+01+
*       5.5635391643E+02               0
GRID*               5046               01.0400589174E+028.0141445272E+01+
*       5.6511275472E+02               0
GRID*               5047               01.0353138539E+028.0900430546E+01+
*       5.6459694870E+02               0
GRID*               5048               01.0400585676E+028.0141505160E+01+
*       5.6408225227E+02               0
GRID*               5049               01.0428576922E+027.9291055200E+01+
*       5.6562813405E+02               0
GRID*               5050               01.0400590482E+028.0141434865E+01+
*       5.6614326443E+02               0
GRID*               5051               01.0129141078E+028.2314650640E+01+
*       5.6305138684E+02               0
GRID*               5052               01.0213709882E+028.2017657812E+01+
*       5.6356658337E+02               0
GRID*               5053               01.0129133644E+028.2314667821E+01+
*       5.6408173728E+02               0
GRID*               5054               01.0129144177E+028.2314643408E+01+
*       5.6202106274E+02               0
GRID*               5055               01.0289585356E+028.1539391061E+01+
*       5.6408173103E+02               0
GRID*               5056               01.0289585657E+028.1539388589E+01+
*       5.6511216999E+02               0
GRID*               5057               01.0289590098E+028.1539353194E+01+
*       5.6305136030E+02               0
GRID*               5058               01.0401902245E+028.0146550521E+01+
*       5.6305187534E+02               0
GRID*               5059               01.0353139158E+028.0900427401E+01+
*       5.6253605210E+02               0
GRID*               5060               01.0400619644E+028.0141379170E+01+
*       5.6202140967E+02               0
GRID*               5061               01.0428469778E+027.9290445406E+01+
*       5.6356710413E+02               0
GRID*               5062               01.0129147290E+028.2314636160E+01+
*       5.6099067146E+02               0
GRID*               5063               01.0213718199E+028.2017617628E+01+
*       5.6150583092E+02               0
GRID*               5064               01.0129149332E+028.2314631377E+01+
*       5.5996032389E+02               0
GRID*               5065               01.0289594813E+028.1539315531E+01+
*       5.6202095213E+02               0
GRID*               5066               01.0289596128E+028.1539305052E+01+
*       5.6099054253E+02               0
GRID*               5067               01.0400281011E+028.0140399383E+01+
*       5.4965465614E+02               0
GRID*               5068               01.0428045104E+027.9289336874E+01+
*       5.4913885554E+02               0
GRID*               5069               01.0400065614E+028.0139735946E+01+
*       5.5068520704E+02               0
GRID*               5070               01.0353143945E+028.0900414210E+01+
*       5.5016967136E+02               0
GRID*               5071               01.0129169175E+028.2314585477E+01+
*       5.5171583405E+02               0
GRID*               5072               01.0129158108E+028.2314610864E+01+
*       5.5274648364E+02               0
GRID*               5073               01.0213740740E+028.2017508685E+01+
*       5.5120050854E+02               0
GRID*               5074               01.0289613060E+028.1539169231E+01+
*       5.5068512759E+02               0
GRID*               5075               01.0289601016E+028.1539265686E+01+
*       5.5171570409E+02               0
GRID*               5076               01.0399986819E+028.0139363909E+01+
*       5.5171577673E+02               0
GRID*               5077               01.0428059477E+027.9289434827E+01+
*       5.5120004591E+02               0
GRID*               5078               01.0400041155E+028.0139621479E+01+
*       5.5274637826E+02               0
GRID*               5079               01.0353130814E+028.0900570453E+01+
*       5.5223079304E+02               0
GRID*               5080               01.0129151285E+028.2314626530E+01+
*       5.5377707730E+02               0
GRID*               5081               01.0129147376E+028.2314635526E+01+
*       5.5480772214E+02               0
GRID*               5082               01.0213720186E+028.2017608000E+01+
*       5.5326167380E+02               0
GRID*               5083               01.0289596184E+028.1539304429E+01+
*       5.5274626641E+02               0
GRID*               5084               01.0289591902E+028.1539338747E+01+
*       5.5377687282E+02               0
GRID*               5085               01.0129149646E+028.2314630370E+01+
*       5.5583831985E+02               0
GRID*               5086               01.0129149583E+028.2314630569E+01+
*       5.5686888428E+02               0
GRID*               5087               01.0213717059E+028.2017623116E+01+
*       5.5532287256E+02               0
GRID*               5088               01.0129148273E+028.2314633639E+01+
*       5.5789938558E+02               0
GRID*               5089               01.0213719082E+028.2017613348E+01+
*       5.5738397964E+02               0
GRID*               5090               01.0129148973E+028.2314632112E+01+
*       5.5892985378E+02               0
GRID*               5091               01.0213719427E+028.2017611687E+01+
*       5.5944495986E+02               0
GRID*               5092               01.0289594878E+028.1539315074E+01+
*       5.5996006859E+02               0
GRID*               5093               01.0353138840E+028.0900437158E+01+
*       5.6047512574E+02               0
GRID*               5094               01.0289593436E+028.1539326618E+01+
*       5.5892958182E+02               0
GRID*               5095               01.0289598533E+028.1539285851E+01+
*       5.5789911583E+02               0
GRID*               5096               01.0353138708E+028.0900445516E+01+
*       5.5841414620E+02               0
GRID*               5097               01.0403031988E+028.0150813218E+01+
*       5.5789936225E+02               0
GRID*               5098               01.0403493352E+028.0152641561E+01+
*       5.5892987374E+02               0
GRID*               5099               01.0401726854E+028.0145830514E+01+
*       5.5686878174E+02               0
GRID*               5100               01.0428206385E+027.9289438331E+01+
*       5.5738378985E+02               0
GRID*               5101               01.0401682130E+028.0145502509E+01+
*       5.6099094154E+02               0
GRID*               5102               01.0428371408E+027.9289857008E+01+
*       5.6150613243E+02               0
GRID*               5103               01.0402964624E+028.0150548549E+01+
*       5.5996041104E+02               0
GRID*               5104               01.0428283160E+027.9289570818E+01+
*       5.5944501544E+02               0
GRID*               5105               01.0400219524E+028.0140257851E+01+
*       5.5377696749E+02               0
GRID*               5106               01.0400463596E+028.0141224044E+01+
*       5.5480755499E+02               0
GRID*               5107               01.0353127195E+028.0900607080E+01+
*       5.5429191455E+02               0
GRID*               5108               01.0428093004E+027.9289406021E+01+
*       5.5326126931E+02               0
GRID*               5109               01.0400629547E+028.0141736403E+01+
*       5.5583815837E+02               0
GRID*               5110               01.0353133490E+028.0900519092E+01+
*       5.5635306094E+02               0
GRID*               5111               01.0428142453E+027.9289405579E+01+
*       5.5532251977E+02               0
GRID*               5112               01.0289588065E+028.1539369496E+01+
*       5.5480740374E+02               0
GRID*               5113               01.0289591033E+028.1539345804E+01+
*       5.5583801539E+02               0
GRID*               5114               01.0289598435E+028.1539286625E+01+
*       5.5686859931E+02               0
GRID*               5115               01.0128521013E+027.4515747469E+01+
*       5.6615069483E+02               0
GRID*               5116               01.0128522929E+027.4515751843E+01+
*       5.6511989651E+02               0
GRID*               5117               01.0128533984E+027.4515776997E+01+
*       5.6718166235E+02               0
GRID*               5118               01.0128531878E+027.4515772193E+01+
*       5.6821244886E+02               0
GRID*               5119               01.0212959905E+027.4810610754E+01+
*       5.6666481909E+02               0
GRID*               5120               01.0288710803E+027.5285426738E+01+
*       5.6717890236E+02               0
GRID*               5121               01.0288702747E+027.5285362759E+01+
*       5.6614817679E+02               0
GRID*               5122               01.0128518524E+027.4515741776E+01+
*       5.6924357053E+02               0
GRID*               5123               01.0128516211E+027.4515736504E+01+
*       5.7027434448E+02               0
GRID*               5124               01.0212957243E+027.4810597487E+01+
*       5.6872664529E+02               0
GRID*               5125               01.0288707485E+027.5285400265E+01+
*       5.6820990466E+02               0
GRID*               5126               01.0288694185E+027.5285294410E+01+
*       5.6924076220E+02               0
GRID*               5127               01.0352026334E+027.5916773500E+01+
*       5.6769339005E+02               0
GRID*               5128               01.0399840974E+027.6674575569E+01+
*       5.6820767419E+02               0
GRID*               5129               01.0399843078E+027.6674621233E+01+
*       5.6717688326E+02               0
GRID*               5130               01.0212950818E+027.4810567586E+01+
*       5.6460317085E+02               0
GRID*               5131               01.0128523955E+027.4515754190E+01+
*       5.6408897496E+02               0
GRID*               5132               01.0288707105E+027.5285397521E+01+
*       5.6511731737E+02               0
GRID*               5133               01.0352032764E+027.5916853656E+01+
*       5.6563174025E+02               0
GRID*               5134               01.0288710105E+027.5285421496E+01+
*       5.6408661737E+02               0
GRID*               5135               01.0352021942E+027.5916718206E+01+
*       5.6357034119E+02               0
GRID*               5136               01.0288691987E+027.5285277524E+01+
*       5.6305588391E+02               0
GRID*               5137               01.0429446985E+027.7517612181E+01+
*       5.6253817361E+02               0
GRID*               5138               01.0399821963E+027.6674199567E+01+
*       5.6202353306E+02               0
GRID*               5139               01.0399836057E+027.6674487496E+01+
*       5.6305411113E+02               0
GRID*               5140               01.0439666150E+027.8406279933E+01+
*       5.6202238645E+02               0
GRID*               5141               01.0439666245E+027.8406257824E+01+
*       5.6099182852E+02               0
GRID*               5142               01.0439666148E+027.8406566505E+01+
*       5.6305283122E+02               0
GRID*               5143               01.0439666161E+027.8406769244E+01+
*       5.6408331013E+02               0
GRID*               5144               01.0399846185E+027.6674693691E+01+
*       5.6408466783E+02               0
GRID*               5145               01.0439667403E+027.8406904669E+01+
*       5.6614445465E+02               0
GRID*               5146               01.0429454851E+027.7517999133E+01+
*       5.6666065805E+02               0
GRID*               5147               01.0439686870E+027.8406671035E+01+
*       5.6717517482E+02               0
GRID*               5148               01.0439666196E+027.8406905512E+01+
*       5.6511383191E+02               0
GRID*               5149               01.0429456679E+027.7518056254E+01+
*       5.6459927118E+02               0
GRID*               5150               01.0399851411E+027.6674796007E+01+
*       5.6614600159E+02               0
GRID*               5151               01.0399853923E+027.6674850704E+01+
*       5.6511533564E+02               0
GRID*               5152               01.0128523165E+027.4515752449E+01+
*       5.5996552418E+02               0
GRID*               5153               01.0128524614E+027.4515755763E+01+
*       5.5893469523E+02               0
GRID*               5154               01.0128534316E+027.4515777827E+01+
*       5.6099641611E+02               0
GRID*               5155               01.0128532726E+027.4515774191E+01+
*       5.6202723564E+02               0
GRID*               5156               01.0212957659E+027.4810601431E+01+
*       5.6047991922E+02               0
GRID*               5157               01.0288703568E+027.5285369923E+01+
*       5.6099434992E+02               0
GRID*               5158               01.0288696510E+027.5285313940E+01+
*       5.5996364301E+02               0
GRID*               5159               01.0128525699E+027.4515758176E+01+
*       5.6305816563E+02               0
GRID*               5160               01.0352010699E+027.5916577566E+01+
*       5.6150897820E+02               0
GRID*               5161               01.0399823951E+027.6674244407E+01+
*       5.6099288813E+02               0
GRID*               5162               01.0288699653E+027.5285338631E+01+
*       5.6202515650E+02               0
GRID*               5163               01.0212960008E+027.4810612221E+01+
*       5.6254153970E+02               0
GRID*               5164               01.0352019552E+027.5916688153E+01+
*       5.5944752006E+02               0
GRID*               5165               01.0288703510E+027.5285369765E+01+
*       5.5893282963E+02               0
GRID*               5166               01.0399835301E+027.6674483062E+01+
*       5.5996213282E+02               0
GRID*               5167               01.0429447229E+027.7517598162E+01+
*       5.6047697564E+02               0
GRID*               5168               01.0399838911E+027.6674561901E+01+
*       5.5893146718E+02               0
GRID*               5169               01.0429450237E+027.7517702910E+01+
*       5.5841567256E+02               0
GRID*               5170               01.0399830033E+027.6674382638E+01+
*       5.5790079574E+02               0
GRID*               5171               01.0439666740E+027.8406425339E+01+
*       5.5790001372E+02               0
GRID*               5172               01.0439666955E+027.8406504372E+01+
*       5.5686935009E+02               0
GRID*               5173               01.0439666602E+027.8406596839E+01+
*       5.5893057396E+02               0
GRID*               5174               01.0439666440E+027.8406554366E+01+
*       5.5996119517E+02               0
GRID*               5175               01.0128541282E+027.4515793749E+01+
*       5.5687293447E+02               0
GRID*               5176               01.0128539961E+027.4515790728E+01+
*       5.5790377203E+02               0
GRID*               5177               01.0128532908E+027.4515774690E+01+
*       5.5584204376E+02               0
GRID*               5178               01.0128534111E+027.4515777443E+01+
*       5.5481119829E+02               0
GRID*               5179               01.0212970382E+027.4810663534E+01+
*       5.5635664212E+02               0
GRID*               5180               01.0288720590E+027.5285505895E+01+
*       5.5687126342E+02               0
GRID*               5181               01.0288715426E+027.5285464942E+01+
*       5.5584052697E+02               0
GRID*               5182               01.0212962822E+027.4810626724E+01+
*       5.5841828803E+02               0
GRID*               5183               01.0352027782E+027.5916791025E+01+
*       5.5738604239E+02               0
GRID*               5184               01.0399831383E+027.6674415109E+01+
*       5.5687011858E+02               0
GRID*               5185               01.0288717547E+027.5285481553E+01+
*       5.5790207549E+02               0
GRID*               5186               01.0352037606E+027.5916913903E+01+
*       5.5532458017E+02               0
GRID*               5187               01.0288724274E+027.5285535439E+01+
*       5.5480974192E+02               0
GRID*               5188               01.0399844471E+027.6674690558E+01+
*       5.5583936531E+02               0
GRID*               5189               01.0429454211E+027.7517848514E+01+
*       5.5635436067E+02               0
GRID*               5190               01.0399848992E+027.6674788972E+01+
*       5.5480870351E+02               0
GRID*               5191               01.0429459152E+027.7518035058E+01+
*       5.5429303562E+02               0
GRID*               5192               01.0399841871E+027.6674646681E+01+
*       5.5377802872E+02               0
GRID*               5193               01.0439667722E+027.8406793029E+01+
*       5.5377745284E+02               0
GRID*               5194               01.0439668003E+027.8406850385E+01+
*       5.5274681018E+02               0
GRID*               5195               01.0439667496E+027.8406926767E+01+
*       5.5480803490E+02               0
GRID*               5196               01.0439667243E+027.8406837996E+01+
*       5.5583869852E+02               0
GRID*               5197               01.0128549939E+027.4515813514E+01+
*       5.5274945798E+02               0
GRID*               5198               01.0128548840E+027.4515811001E+01+
*       5.5378031065E+02               0
GRID*               5199               01.0128539702E+027.4515790207E+01+
*       5.5171860517E+02               0
GRID*               5200               01.0128540704E+027.4515792499E+01+
*       5.5068774591E+02               0
GRID*               5201               01.0212982166E+027.4810721121E+01+
*       5.5223341651E+02               0
GRID*               5202               01.0288740977E+027.5285668538E+01+
*       5.5274823119E+02               0
GRID*               5203               01.0288734047E+027.5285613505E+01+
*       5.5171750685E+02               0
GRID*               5204               01.0212977208E+027.4810696817E+01+
*       5.5429501705E+02               0
GRID*               5205               01.0352047897E+027.5917042690E+01+
*       5.5326315431E+02               0
GRID*               5206               01.0399843357E+027.6674682583E+01+
*       5.5274737727E+02               0
GRID*               5207               01.0288737516E+027.5285640897E+01+
*       5.5377899514E+02               0
GRID*               5208               01.0128537786E+027.4515785885E+01+
*       5.4656427096E+02               0
GRID*               5209               01.0212942924E+027.4810534035E+01+
*       5.4604858774E+02               0
GRID*               5210               01.0128536951E+027.4515783975E+01+
*       5.4759514168E+02               0
GRID*               5211               01.0128537829E+027.4515785968E+01+
*       5.4862602884E+02               0
GRID*               5212               01.0212966036E+027.4810644589E+01+
*       5.4811021703E+02               0
GRID*               5213               01.0128536914E+027.4515783876E+01+
*       5.4965689409E+02               0
GRID*               5214               01.0212969814E+027.4810662263E+01+
*       5.5017183951E+02               0
GRID*               5215               01.0352036327E+027.5916899009E+01+
*       5.4707887904E+02               0
GRID*               5216               01.0399835300E+027.6674543409E+01+
*       5.4759400560E+02               0
GRID*               5217               01.0288711451E+027.5285434186E+01+
*       5.4656370590E+02               0
GRID*               5218               01.0288732796E+027.5285603906E+01+
*       5.4759445869E+02               0
GRID*               5219               01.0288732435E+027.5285600950E+01+
*       5.4862523880E+02               0
GRID*               5220               01.0288741812E+027.5285675376E+01+
*       5.5068673901E+02               0
GRID*               5221               01.0352057467E+027.5917162562E+01+
*       5.5120173489E+02               0
GRID*               5222               01.0288739942E+027.5285660587E+01+
*       5.4965600448E+02               0
GRID*               5223               01.0352058434E+027.5917174965E+01+
*       5.4914030394E+02               0
GRID*               5224               01.0429462457E+027.7518149601E+01+
*       5.5223174525E+02               0
GRID*               5225               01.0399853171E+027.6674890958E+01+
*       5.5171666773E+02               0
GRID*               5226               01.0439668336E+027.8407106800E+01+
*       5.5171618542E+02               0
GRID*               5227               01.0439668644E+027.8407165113E+01+
*       5.5068554910E+02               0
GRID*               5228               01.0399857008E+027.6674975772E+01+
*       5.5068600266E+02               0
GRID*               5229               01.0439669258E+027.8407068500E+01+
*       5.4862431445E+02               0
GRID*               5230               01.0429462807E+027.7518104120E+01+
*       5.4810917244E+02               0
GRID*               5231               01.0439668961E+027.8407199787E+01+
*       5.4965492431E+02               0
GRID*               5232               01.0429469617E+027.7518430618E+01+
*       5.5017041935E+02               0
GRID*               5233               01.0399857249E+027.6674986296E+01+
*       5.4965530050E+02               0
GRID*               5234               01.0399852580E+027.6674895282E+01+
*       5.4862462861E+02               0
GRID*               5235               01.0352042312E+027.5916973491E+01+
*       5.6975552811E+02               0
GRID*               5236               01.0288717987E+027.5285483662E+01+
*       5.7027212929E+02               0
GRID*               5237               01.0399875484E+027.6675285907E+01+
*       5.7027001562E+02               0
GRID*               5238               01.0399879158E+027.6675360708E+01+
*       5.7130177754E+02               0
GRID*               5239               01.0429472052E+027.7518786627E+01+
*       5.7078533921E+02               0
GRID*               5240               01.0399862701E+027.6675023042E+01+
*       5.6923887918E+02               0
GRID*               5241               01.0429460320E+027.7518257470E+01+
*       5.6872256684E+02               0
GRID*               5242               01.0439723313E+027.8407073963E+01+
*       5.6820607494E+02               0
GRID*               5243               01.0428690940E+027.9291884526E+01+
*       5.6768958037E+02               0
GRID*               5244               01.0439765764E+027.8407559686E+01+
*       5.6923710273E+02               0
GRID*               5245               01.0439843533E+027.8407888231E+01+
*       5.7130013775E+02               0
GRID*               5246               01.0439877024E+027.8408240600E+01+
*       5.7233242141E+02               0
GRID*               5247               01.0428930930E+027.9293987787E+01+
*       5.7181551849E+02               0
GRID*               5248               01.0439806734E+027.8407816340E+01+
*       5.7026856925E+02               0
GRID*               5249               01.0428809841E+027.9292964326E+01+
*       5.6975186408E+02               0
GRID*               5250               01.0400533630E+028.0142783725E+01+
*       5.7233083966E+02               0
GRID*               5251               01.0400514104E+028.0143224597E+01+
*       5.7336374404E+02               0
GRID*               5252               01.0352977141E+028.0902464188E+01+
*       5.7284670629E+02               0
GRID*               5253               01.0400543309E+028.0142550027E+01+
*       5.7129870731E+02               0
GRID*               5254               01.0353045013E+028.0901606177E+01+
*       5.7078211755E+02               0
GRID*               5255               01.0400557147E+028.0142230439E+01+
*       5.7026693445E+02               0
GRID*               5256               01.0400581616E+028.0141640841E+01+
*       5.6717382676E+02               0
GRID*               5257               01.0353121441E+028.0900643232E+01+
*       5.6665793806E+02               0
GRID*               5258               01.0400567827E+028.0141952977E+01+
*       5.6820460273E+02               0
GRID*               5259               01.0400563269E+028.0142074262E+01+
*       5.6923560537E+02               0
GRID*               5260               01.0353088483E+028.0901057657E+01+
*       5.6871942482E+02               0
GRID*               5261               01.0289346325E+028.1541300423E+01+
*       5.7336246658E+02               0
GRID*               5262               01.0289304999E+028.1541630258E+01+
*       5.7439557469E+02               0
GRID*               5263               01.0213397504E+028.2019165248E+01+
*       5.7387858483E+02               0
GRID*               5264               01.0289394638E+028.1540914685E+01+
*       5.7232964933E+02               0
GRID*               5265               01.0213493067E+028.2018704449E+01+
*       5.7181339073E+02               0
GRID*               5266               01.0289435687E+028.1540586862E+01+
*       5.7129751145E+02               0
GRID*               5267               01.0128941276E+028.2315109745E+01+
*       5.7129644729E+02               0
GRID*               5268               01.0039776073E+028.2415916393E+01+
*       5.7078067483E+02               0
GRID*               5269               01.0128980771E+028.2315019116E+01+
*       5.7026515511E+02               0
GRID*               5270               01.0128888705E+028.2315230253E+01+
*       5.7232855072E+02               0
GRID*               5271               01.0128789876E+028.2315456736E+01+
*       5.7439386828E+02               0
GRID*               5272               01.0128744391E+028.2315560970E+01+
*       5.7542721726E+02               0
GRID*               5273               01.0039587130E+028.2415916240E+01+
*       5.7490982868E+02               0
GRID*               5274               01.0128842234E+028.2315336784E+01+
*       5.7336080084E+02               0
GRID*               5275               01.0039684607E+028.2415916432E+01+
*       5.7284422619E+02               0
GRID*               5276               01.0289472928E+028.1540289385E+01+
*       5.7026581828E+02               0
GRID*               5277               01.0213571779E+028.2018324671E+01+
*       5.6975011049E+02               0
GRID*               5278               01.0289499289E+028.1540078797E+01+
*       5.6923463112E+02               0
GRID*               5279               01.0129015221E+028.2314940022E+01+
*       5.6923399752E+02               0
GRID*               5280               01.0039848825E+028.2415916212E+01+
*       5.6871868286E+02               0
GRID*               5281               01.0129043601E+028.2314874819E+01+
*       5.6820330941E+02               0
GRID*               5282               01.0289561676E+028.1539580293E+01+
*       5.6614251725E+02               0
GRID*               5283               01.0213675496E+028.2017823916E+01+
*       5.6562727048E+02               0
GRID*               5284               01.0289536934E+028.1539778043E+01+
*       5.6717301203E+02               0
GRID*               5285               01.0289518173E+028.1539927941E+01+
*       5.6820370164E+02               0
GRID*               5286               01.0213624987E+028.2018067826E+01+
*       5.6768827283E+02               0
GRID*               5287               01.0129117375E+028.2314705261E+01+
*       5.6511192854E+02               0
GRID*               5288               01.0039935482E+028.2415915821E+01+
*       5.6459699397E+02               0
GRID*               5289               01.0129085867E+028.2314777621E+01+
*       5.6614225321E+02               0
GRID*               5290               01.0129068607E+028.2314817345E+01+
*       5.6717264548E+02               0
GRID*               5291               01.0039898507E+028.2415916011E+01+
*       5.6665758994E+02               0
GRID*               5292               09.7263764031E+018.0901547262E+01+
*       5.7697249178E+02               0
GRID*               5293               09.7899586071E+018.1540313900E+01+
*       5.7645707661E+02               0
GRID*               5294               09.7899570338E+018.1540301469E+01+
*       5.7748974489E+02               0
GRID*               5295               09.6788336740E+018.0141680363E+01+
*       5.7748846047E+02               0
GRID*               5296               09.6788451646E+018.0141950309E+01+
*       5.7852061586E+02               0
GRID*               5297               09.6511737746E+017.9291823717E+01+
*       5.7800385198E+02               0
GRID*               5298               09.6788414036E+018.0141812198E+01+
*       5.7645565017E+02               0
GRID*               5299               09.6507792730E+017.9292648487E+01+
*       5.7593968699E+02               0
GRID*               5300               09.6788436873E+018.0141828935E+01+
*       5.7542380308E+02               0
GRID*               5301               09.9503839875E+018.2314883843E+01+
*       5.7542560076E+02               0
GRID*               5302               09.9503571100E+018.2314822402E+01+
*       5.7645861568E+02               0
GRID*               5303               09.8658260693E+018.2018182564E+01+
*       5.7594146648E+02               0
GRID*               5304               09.9504319735E+018.2314993567E+01+
*       5.7439223582E+02               0
GRID*               5305               09.8658833639E+018.2018459079E+01+
*       5.7387600880E+02               0
GRID*               5306               09.9504646673E+018.2315068253E+01+
*       5.7335985677E+02               0
GRID*               5307               09.6788591495E+018.0142121561E+01+
*       5.7439165031E+02               0
GRID*               5308               09.7263908360E+018.0901725784E+01+
*       5.7490768183E+02               0
GRID*               5309               09.6501638662E+017.9294703879E+01+
*       5.7387636179E+02               0
GRID*               5310               09.6788707102E+018.0142332250E+01+
*       5.7336028007E+02               0
GRID*               5311               09.6788876599E+018.0142656137E+01+
*       5.7232845528E+02               0
GRID*               5312               09.6495780499E+017.9296960318E+01+
*       5.7181398674E+02               0
GRID*               5313               09.6789034164E+018.0142955618E+01+
*       5.7129754673E+02               0
GRID*               5314               09.7264195631E+018.0902086632E+01+
*       5.7284385547E+02               0
GRID*               5315               09.7899824917E+018.1540504656E+01+
*       5.7542398452E+02               0
GRID*               5316               09.7899982511E+018.1540630454E+01+
*       5.7439197758E+02               0
GRID*               5317               09.7900269844E+018.1540859903E+01+
*       5.7335951554E+02               0
GRID*               5318               09.7900459456E+018.1541011245E+01+
*       5.7232783140E+02               0
GRID*               5319               09.9505140562E+018.2315181074E+01+
*       5.7232758508E+02               0
GRID*               5320               09.8659509187E+018.2018784964E+01+
*       5.7181219332E+02               0
GRID*               5321               09.9505520748E+018.2315267849E+01+
*       5.7129621711E+02               0
GRID*               5322               09.6789232266E+018.0143340942E+01+
*       5.7026659228E+02               0
GRID*               5323               09.7264560531E+018.0902547051E+01+
*       5.7078122018E+02               0
GRID*               5324               09.6495543120E+017.9297527251E+01+
*       5.6975234837E+02               0
GRID*               5325               09.6789391337E+018.0143645796E+01+
*       5.6923605008E+02               0
GRID*               5326               09.7900788560E+018.1541273988E+01+
*       5.7129638118E+02               0
GRID*               5327               09.7901039616E+018.1541474350E+01+
*       5.7026555874E+02               0
GRID*               5328               09.9505944932E+018.2315364630E+01+
*       5.7026490124E+02               0
GRID*               5329               09.8660173640E+018.2019105340E+01+
*       5.6974992762E+02               0
GRID*               5330               09.9506262270E+018.2315436970E+01+
*       5.6923407124E+02               0
GRID*               5331               09.6789562458E+018.0143977511E+01+
*       5.6820543891E+02               0
GRID*               5332               09.7264947658E+018.0903036867E+01+
*       5.6871978974E+02               0
GRID*               5333               09.6495647923E+017.9298032023E+01+
*       5.6769128398E+02               0
GRID*               5334               09.6789706753E+018.0144255087E+01+
*       5.6717509227E+02               0
GRID*               5335               09.7901316466E+018.1541695277E+01+
*       5.6923465046E+02               0
GRID*               5336               09.7901530915E+018.1541866349E+01+
*       5.6820416175E+02               0
GRID*               5337               09.6789846639E+018.0144525803E+01+
*       5.6614465543E+02               0
GRID*               5338               09.7265274904E+018.0903452273E+01+
*       5.6665886828E+02               0
GRID*               5339               09.6789957974E+018.0144739573E+01+
*       5.6511436389E+02               0
GRID*               5340               09.6790032304E+018.0144879175E+01+
*       5.6408402050E+02               0
GRID*               5341               09.7265492773E+018.0903730738E+01+
*       5.6459820706E+02               0
GRID*               5342               09.6495736554E+017.9298475966E+01+
*       5.6563048836E+02               0
GRID*               5343               09.6790123977E+018.0145049223E+01+
*       5.6202342872E+02               0
GRID*               5344               09.6496924306E+017.9298452997E+01+
*       5.6150894004E+02               0
GRID*               5345               09.6790119244E+018.0145048592E+01+
*       5.6305368508E+02               0
GRID*               5346               09.6495806624E+017.9298815244E+01+
*       5.6356972133E+02               0
GRID*               5347               09.7265532190E+018.0903785048E+01+
*       5.6253771942E+02               0
GRID*               5348               09.9506573636E+018.2315507918E+01+
*       5.6820335927E+02               0
GRID*               5349               09.8660704581E+018.2019361227E+01+
*       5.6768855172E+02               0
GRID*               5350               09.9506811991E+018.2315562182E+01+
*       5.6717287777E+02               0
GRID*               5351               09.7901742389E+018.1542035025E+01+
*       5.6717360729E+02               0
GRID*               5352               09.7901916817E+018.1542174112E+01+
*       5.6614328380E+02               0
GRID*               5353               09.9507351206E+018.2315684782E+01+
*       5.6408195116E+02               0
GRID*               5354               09.8661294569E+018.2019645434E+01+
*       5.6356724897E+02               0
GRID*               5355               09.9507165462E+018.2315642556E+01+
*       5.6511216403E+02               0
GRID*               5356               09.9507009919E+018.2315607208E+01+
*       5.6614246253E+02               0
GRID*               5357               09.8661083677E+018.2019543865E+01+
*       5.6562771173E+02               0
GRID*               5358               09.7902200235E+018.1542399897E+01+
*       5.6305250919E+02               0
GRID*               5359               09.7902136623E+018.1542349266E+01+
*       5.6408267982E+02               0
GRID*               5360               09.7902059965E+018.1542288223E+01+
*       5.6511291802E+02               0
GRID*               5361               09.9508217133E+017.4515940364E+01+
*       5.7852560556E+02               0
GRID*               5362               09.9508217107E+017.4515940372E+01+
*       5.7749467773E+02               0
GRID*               5363               09.9507717614E+017.4516054258E+01+
*       5.7955694041E+02               0
GRID*               5364               09.9507717639E+017.4516054249E+01+
*       5.8058786824E+02               0
GRID*               5365               09.8662617644E+017.4811583021E+01+
*       5.7904366632E+02               0
GRID*               5366               09.7905744700E+017.5286558663E+01+
*       5.7852560106E+02               0
GRID*               5367               09.7905361932E+017.5286863422E+01+
*       5.7955665607E+02               0
GRID*               5368               09.9507296126E+017.4516150409E+01+
*       5.8161875885E+02               0
GRID*               5369               09.9507296150E+017.4516150401E+01+
*       5.8264968668E+02               0
GRID*               5370               09.8661767321E+017.4811992390E+01+
*       5.8110589176E+02               0
GRID*               5371               09.7904884550E+017.5287243629E+01+
*       5.8058789042E+02               0
GRID*               5372               09.7904559012E+017.5287502961E+01+
*       5.8161842377E+02               0
GRID*               5373               09.7271951309E+017.5919359844E+01+
*       5.8006991844E+02               0
GRID*               5374               09.6794691499E+017.6676979166E+01+
*       5.7955328322E+02               0
GRID*               5375               09.6794414948E+017.6677554528E+01+
*       5.8058397074E+02               0
GRID*               5376               09.8663180416E+017.4811312299E+01+
*       5.7698099329E+02               0
GRID*               5377               09.9508325873E+017.4515915584E+01+
*       5.7646333954E+02               0
GRID*               5378               09.7905966278E+017.5286382289E+01+
*       5.7749403969E+02               0
GRID*               5379               09.7272502664E+017.5918670130E+01+
*       5.7800763758E+02               0
GRID*               5380               09.7906033267E+017.5286328992E+01+
*       5.7646293401E+02               0
GRID*               5381               09.7906263951E+017.5286145406E+01+
*       5.7543133088E+02               0
GRID*               5382               09.7272844246E+017.5918243129E+01+
*       5.7594490852E+02               0
GRID*               5383               09.6521297980E+017.7525812060E+01+
*       5.7903609905E+02               0
GRID*               5384               09.6794866534E+017.6676614673E+01+
*       5.7852165828E+02               0
GRID*               5385               09.6396089201E+017.8408209927E+01+
*       5.7852055397E+02               0
GRID*               5386               09.6395970342E+017.8407859758E+01+
*       5.7748814628E+02               0
GRID*               5387               09.6396200151E+017.8408671012E+01+
*       5.7955180485E+02               0
GRID*               5388               09.6395574947E+017.8407402463E+01+
*       5.7439326050E+02               0
GRID*               5389               09.6395705505E+017.8407608046E+01+
*       5.7542463541E+02               0
GRID*               5390               09.6523330223E+017.7525324472E+01+
*       5.7490996368E+02               0
GRID*               5391               09.6395427614E+017.8407547914E+01+
*       5.7336166098E+02               0
GRID*               5392               09.6395842113E+017.8407664807E+01+
*       5.7645672761E+02               0
GRID*               5393               09.6523149757E+017.7525672231E+01+
*       5.7697306280E+02               0
GRID*               5394               09.6795181041E+017.6675960273E+01+
*       5.7542758515E+02               0
GRID*               5395               09.6795061385E+017.6676208595E+01+
*       5.7645879623E+02               0
GRID*               5396               09.6795268463E+017.6675779117E+01+
*       5.7439590708E+02               0
GRID*               5397               09.6794987285E+017.6676363105E+01+
*       5.7749055239E+02               0
GRID*               5398               09.9508373561E+017.4515904728E+01+
*       5.7233909872E+02               0
GRID*               5399               09.9508373533E+017.4515904737E+01+
*       5.7130817088E+02               0
GRID*               5400               09.9508209579E+017.4515942100E+01+
*       5.7337030272E+02               0
GRID*               5401               09.9508209606E+017.4515942091E+01+
*       5.7440123056E+02               0
GRID*               5402               09.8663224347E+017.4811291608E+01+
*       5.7285608874E+02               0
GRID*               5403               09.7906168173E+017.5286221728E+01+
*       5.7233805319E+02               0
GRID*               5404               09.7906056194E+017.5286310831E+01+
*       5.7336907649E+02               0
GRID*               5405               09.9508325847E+017.4515915593E+01+
*       5.7543241171E+02               0
GRID*               5406               09.7272927908E+017.5918138843E+01+
*       5.7388241024E+02               0
GRID*               5407               09.7906150166E+017.5286236001E+01+
*       5.7440035135E+02               0
GRID*               5408               09.6795205448E+017.6675909681E+01+
*       5.7336497836E+02               0
GRID*               5409               09.8663175403E+017.4811314834E+01+
*       5.7491847393E+02               0
GRID*               5410               09.6394989218E+017.8408116183E+01+
*       5.7026884554E+02               0
GRID*               5411               09.6395125378E+017.8408084541E+01+
*       5.7129961375E+02               0
GRID*               5412               09.6517005316E+017.7524073211E+01+
*       5.7078555448E+02               0
GRID*               5413               09.6394847312E+017.8408366174E+01+
*       5.6923811111E+02               0
GRID*               5414               09.6395274158E+017.8407844300E+01+
*       5.7233073309E+02               0
GRID*               5415               09.6521340906E+017.7524893546E+01+
*       5.7284742210E+02               0
GRID*               5416               09.7272793211E+017.5918307704E+01+
*       5.7182030931E+02               0
GRID*               5417               09.7906127851E+017.5286253854E+01+
*       5.7130688851E+02               0
GRID*               5418               09.6795078603E+017.6676172785E+01+
*       5.7233377773E+02               0
GRID*               5419               09.6795045787E+017.6676241684E+01+
*       5.7130292277E+02               0
GRID*               5420               09.6795037487E+017.6676260211E+01+
*       5.7027190811E+02               0
GRID*               5421               09.8663174938E+017.4811315890E+01+
*       5.7079384951E+02               0
GRID*               5422               09.9508147654E+017.4515956226E+01+
*       5.7027713571E+02               0
GRID*               5423               09.7272621510E+017.5918522878E+01+
*       5.6975847344E+02               0
GRID*               5424               09.6794949552E+017.6676443972E+01+
*       5.6924121238E+02               0
GRID*               5425               09.7905927794E+017.5286413135E+01+
*       5.7027601503E+02               0
GRID*               5426               09.7905787426E+017.5286524916E+01+
*       5.6924503958E+02               0
GRID*               5427               09.9508147626E+017.4515956235E+01+
*       5.6924620788E+02               0
GRID*               5428               09.9508264936E+017.4515929498E+01+
*       5.6821520141E+02               0
GRID*               5429               09.9508264908E+017.4515929507E+01+
*       5.6718427357E+02               0
GRID*               5430               09.8663085816E+017.4811359504E+01+
*       5.6873180779E+02               0
GRID*               5431               09.7905864267E+017.5286463772E+01+
*       5.6821418100E+02               0
GRID*               5432               09.6394463561E+017.8408986891E+01+
*       5.6614661774E+02               0
GRID*               5433               09.6394577267E+017.8408956853E+01+
*       5.6717705812E+02               0
GRID*               5434               09.6503486281E+017.7521228146E+01+
*       5.6666309037E+02               0
GRID*               5435               09.6394352303E+017.8409162953E+01+
*       5.6511616871E+02               0
GRID*               5436               09.6394706199E+017.8408726618E+01+
*       5.6820757910E+02               0
GRID*               5437               09.6510611439E+017.7522759076E+01+
*       5.6872414182E+02               0
GRID*               5438               09.7272430603E+017.5918762109E+01+
*       5.6769689810E+02               0
GRID*               5439               09.7905798719E+017.5286515988E+01+
*       5.6718330490E+02               0
GRID*               5440               09.6794799883E+017.6676755962E+01+
*       5.6821045713E+02               0
GRID*               5441               09.6794755146E+017.6676851013E+01+
*       5.6717983487E+02               0
GRID*               5442               09.6794751106E+017.6676862092E+01+
*       5.6614919157E+02               0
GRID*               5443               09.8663004528E+017.4811399607E+01+
*       5.6666984884E+02               0
GRID*               5444               09.9508043379E+017.4515980011E+01+
*       5.6615332118E+02               0
GRID*               5445               09.7272248819E+017.5918989954E+01+
*       5.6563544305E+02               0
GRID*               5446               09.6794671294E+017.6677030436E+01+
*       5.6511859297E+02               0
GRID*               5447               09.7905604678E+017.5286670515E+01+
*       5.6615248628E+02               0
GRID*               5448               09.7905473997E+017.5286774606E+01+
*       5.6512165648E+02               0
GRID*               5449               09.9508043350E+017.4515980021E+01+
*       5.6512239334E+02               0
GRID*               5450               09.9508165535E+017.4515952169E+01+
*       5.6409148697E+02               0
GRID*               5451               09.9508165506E+017.4515952179E+01+
*       5.6306055914E+02               0
GRID*               5452               09.8662931878E+017.4811435832E+01+
*       5.6460798995E+02               0
GRID*               5453               09.7905557267E+017.5286708332E+01+
*       5.6409087306E+02               0
GRID*               5454               09.9508146614E+017.4515956499E+01+
*       5.5893682963E+02               0
GRID*               5455               09.9508146644E+017.4515956489E+01+
*       5.5996775747E+02               0
GRID*               5456               09.8663210179E+017.4811307603E+01+
*       5.5842239431E+02               0
GRID*               5457               09.9508105350E+017.4515965899E+01+
*       5.6099869902E+02               0
GRID*               5458               09.8663023782E+017.4811395069E+01+
*       5.6048427716E+02               0
GRID*               5459               09.9508105379E+017.4515965889E+01+
*       5.6202962686E+02               0
GRID*               5460               09.8663012860E+017.4811398441E+01+
*       5.6254615116E+02               0
GRID*               5461               09.7272132153E+017.5919136976E+01+
*       5.5945108771E+02               0
GRID*               5462               09.6794665591E+017.6677061329E+01+
*       5.5996547538E+02               0
GRID*               5463               09.7905615584E+017.5286662059E+01+
*       5.5893670957E+02               0
GRID*               5464               09.7905482692E+017.5286767846E+01+
*       5.5996756286E+02               0
GRID*               5465               09.7905462126E+017.5286784190E+01+
*       5.6099840199E+02               0
GRID*               5466               09.7905476856E+017.5286772395E+01+
*       5.6306005276E+02               0
GRID*               5467               09.7272056629E+017.5919230847E+01+
*       5.6357402211E+02               0
GRID*               5468               09.7905414848E+017.5286821806E+01+
*       5.6202923236E+02               0
GRID*               5469               09.7272008368E+017.5919291592E+01+
*       5.6151258044E+02               0
GRID*               5470               09.6499974813E+017.7520519176E+01+
*       5.6460206946E+02               0
GRID*               5471               09.6794568844E+017.6677246003E+01+
*       5.6408795155E+02               0
GRID*               5472               09.6394247584E+017.8409422049E+01+
*       5.6408571198E+02               0
GRID*               5473               09.6394157060E+017.8409568326E+01+
*       5.6305523505E+02               0
GRID*               5474               09.6794518579E+017.6677353745E+01+
*       5.6305734220E+02               0
GRID*               5475               09.6394018023E+017.8409536588E+01+
*       5.6099432378E+02               0
GRID*               5476               09.6499951410E+017.7520550111E+01+
*       5.6047990412E+02               0
GRID*               5477               09.6394079384E+017.8409649422E+01+
*       5.6202475534E+02               0
GRID*               5478               09.6499901880E+017.7520808218E+01+
*       5.6254096458E+02               0
GRID*               5479               09.6794494903E+017.6677406652E+01+
*       5.6202669405E+02               0
GRID*               5480               09.6794516641E+017.6677365688E+01+
*       5.6099605619E+02               0
GRID*               5481               01.0278766734E+028.1622938518E+01+
*       5.9285007320E+02               0
GRID*               5482               01.0338790872E+028.1072068162E+01+
*       5.9334899918E+02               0
GRID*               5483               01.0280437290E+028.1610417527E+01+
*       5.9186975158E+02               0
GRID*               5484               01.0283620876E+028.1586177031E+01+
*       5.9086870982E+02               0
GRID*               5485               01.0344810398E+028.1002422716E+01+
*       5.9138717982E+02               0
GRID*               5486               01.0206663330E+028.2050857078E+01+
*       5.9233137290E+02               0
GRID*               5487               01.0126612677E+028.2320377061E+01+
*       5.9183503919E+02               0
GRID*               5488               01.0284824430E+028.1576881473E+01+
*       5.8986721470E+02               0
GRID*               5489               01.0286575964E+028.1563222870E+01+
*       5.8884771857E+02               0
GRID*               5490               01.0348891057E+028.0953301642E+01+
*       5.8936952850E+02               0
GRID*               5491               01.0209538441E+028.2037513571E+01+
*       5.9034646590E+02               0
GRID*               5492               01.0041026639E+028.2415894752E+01+
*       5.9132808657E+02               0
GRID*               5493               09.9549310459E+018.2325017457E+01+
*       5.9083552548E+02               0
GRID*               5494               01.0126662770E+028.2320265344E+01+
*       5.9084296569E+02               0
GRID*               5495               01.0127986201E+028.2317294658E+01+
*       5.8984049337E+02               0
GRID*               5496               01.0287169807E+028.1558556611E+01+
*       5.8782798908E+02               0
GRID*               5497               01.0287975463E+028.1552197007E+01+
*       5.8680153797E+02               0
GRID*               5498               01.0351002671E+028.0927256224E+01+
*       5.8732414370E+02               0
GRID*               5499               01.0211477457E+028.2028357495E+01+
*       5.8832499655E+02               0
GRID*               5500               01.0127842955E+028.2317617823E+01+
*       5.8882926893E+02               0
GRID*               5501               01.0128509612E+028.2316105000E+01+
*       5.8780934384E+02               0
GRID*               5502               01.0288275764E+028.1549818038E+01+
*       5.8577700470E+02               0
GRID*               5503               01.0288625255E+028.1547043509E+01+
*       5.8474582612E+02               0
GRID*               5504               01.0351963551E+028.0915253143E+01+
*       5.8526668939E+02               0
GRID*               5505               01.0212446785E+028.2023732537E+01+
*       5.8628070831E+02               0
GRID*               5506               01.0040279135E+028.2415912416E+01+
*       5.8729422616E+02               0
GRID*               5507               09.9520978419E+018.2318769294E+01+
*       5.8780069203E+02               0
GRID*               5508               09.9518992842E+018.2318323243E+01+
*       5.8678149966E+02               0
GRID*               5509               01.0128371472E+028.2316418266E+01+
*       5.8679005867E+02               0
GRID*               5510               01.0128702172E+028.2315663918E+01+
*       5.8576549902E+02               0
GRID*               5511               09.7313083118E+018.0962718906E+01+
*       5.8932627330E+02               0
GRID*               5512               09.7939593867E+018.1571879799E+01+
*       5.8881268034E+02               0
GRID*               5513               09.7957862016E+018.1586021004E+01+
*       5.8983471198E+02               0
GRID*               5514               09.6816392363E+018.0199361037E+01+
*       5.8882220738E+02               0
GRID*               5515               09.8691382097E+018.2033984052E+01+
*       5.8830417662E+02               0
GRID*               5516               09.9531245296E+018.2321058389E+01+
*       5.8881711319E+02               0
GRID*               5517               09.7930637211E+018.1564884762E+01+
*       5.8779664537E+02               0
GRID*               5518               09.8716192526E+018.2045577452E+01+
*       5.9032683252E+02               0
GRID*               5519               09.9534015115E+018.2321671161E+01+
*       5.8982833795E+02               0
GRID*               5520               01.0040668077E+028.2415904978E+01+
*       5.8932456252E+02               0
GRID*               5521               01.0288920478E+028.1544695198E+01+
*       5.8164409094E+02               0
GRID*               5522               01.0288875794E+028.1545050835E+01+
*       5.8267805979E+02               0
GRID*               5523               01.0213029309E+028.2020937744E+01+
*       5.8215724688E+02               0
GRID*               5524               01.0289000751E+028.1544055924E+01+
*       5.8060764688E+02               0
GRID*               5525               01.0352574801E+028.0907556503E+01+
*       5.8112858388E+02               0
GRID*               5526               01.0288729202E+028.1546217178E+01+
*       5.8371330072E+02               0
GRID*               5527               01.0212878048E+028.2021664566E+01+
*       5.8422367740E+02               0
GRID*               5528               01.0352381472E+028.0909997864E+01+
*       5.8320030623E+02               0
GRID*               5529               01.0128564624E+028.2315976635E+01+
*       5.8473452677E+02               0
GRID*               5530               01.0128667666E+028.2315740863E+01+
*       5.8370203494E+02               0
GRID*               5531               01.0039946677E+028.2415915758E+01+
*       5.8524412104E+02               0
GRID*               5532               09.9512943256E+018.2316957871E+01+
*       5.8575455147E+02               0
GRID*               5533               09.9511230464E+018.2316569441E+01+
*       5.8472368848E+02               0
GRID*               5534               01.0128564158E+028.2315976016E+01+
*       5.8267156022E+02               0
GRID*               5535               01.0128604942E+028.2315882343E+01+
*       5.8163764698E+02               0
GRID*               5536               01.0039672264E+028.2415916421E+01+
*       5.8318279622E+02               0
GRID*               5537               09.8666492633E+018.2022144706E+01+
*       5.8420561100E+02               0
GRID*               5538               09.7909742984E+018.1548406680E+01+
*       5.8471609276E+02               0
GRID*               5539               09.7906681155E+018.1545972961E+01+
*       5.8368733358E+02               0
GRID*               5540               09.9507612401E+018.2315746433E+01+
*       5.8369477789E+02               0
GRID*               5541               09.9506402496E+018.2315470364E+01+
*       5.8266438415E+02               0
GRID*               5542               09.7276539186E+018.0917641246E+01+
*       5.8522500821E+02               0
GRID*               5543               09.6798166451E+018.0162279378E+01+
*       5.8573531872E+02               0
GRID*               5544               09.6794940722E+018.0155600036E+01+
*       5.8470851046E+02               0
GRID*               5545               09.7915521497E+018.1552986410E+01+
*       5.8574318995E+02               0
GRID*               5546               09.8675723239E+018.2026560037E+01+
*       5.8626121776E+02               0
GRID*               5547               09.7920729753E+018.1557099395E+01+
*       5.8676987035E+02               0
GRID*               5548               09.6504170293E+017.7551093050E+01+
*       5.8727466175E+02               0
GRID*               5549               09.6396254982E+017.8438494713E+01+
*       5.8675999832E+02               0
GRID*               5550               09.6396300015E+017.8447290932E+01+
*       5.8779023717E+02               0
GRID*               5551               09.6787254984E+017.6692492969E+01+
*       5.8675822729E+02               0
GRID*               5552               09.6515241440E+017.9321376871E+01+
*       5.8624785839E+02               0
GRID*               5553               09.6802734446E+018.0171673425E+01+
*       5.8676416504E+02               0
GRID*               5554               09.6396319768E+017.8428102977E+01+
*       5.8573156455E+02               0
GRID*               5555               09.6519199104E+017.9349969170E+01+
*       5.8830765476E+02               0
GRID*               5556               09.6808422673E+018.0183274541E+01+
*       5.8779032679E+02               0
GRID*               5557               09.7289560225E+018.0933855067E+01+
*       5.8727839529E+02               0
GRID*               5558               09.8658884970E+017.4813381940E+01+
*       5.8522705663E+02               0
GRID*               5559               09.9506298783E+017.4516378123E+01+
*       5.8471126245E+02               0
GRID*               5560               09.7900155070E+017.5291016957E+01+
*       5.8573682184E+02               0
GRID*               5561               09.7265053259E+017.5928018890E+01+
*       5.8624662240E+02               0
GRID*               5562               09.7900744076E+017.5290546400E+01+
*       5.8470864317E+02               0
GRID*               5563               09.7902565434E+017.5289092416E+01+
*       5.8367884113E+02               0
GRID*               5564               09.7268108185E+017.5924177885E+01+
*       5.8419003717E+02               0
GRID*               5565               09.7903365179E+017.5288454544E+01+
*       5.8264870127E+02               0
GRID*               5566               09.7270594970E+017.5921058411E+01+
*       5.8213079505E+02               0
GRID*               5567               09.8660457680E+017.4812623384E+01+
*       5.8316743027E+02               0
GRID*               5568               09.9506298759E+017.4516378131E+01+
*       5.8368033461E+02               0
GRID*               5569               09.6788444941E+017.6689997690E+01+
*       5.8573151474E+02               0
GRID*               5570               09.6790448352E+017.6685811357E+01+
*       5.8470324786E+02               0
GRID*               5571               09.6509355392E+017.7538674073E+01+
*       5.8521646152E+02               0
GRID*               5572               09.6793650395E+017.6679142327E+01+
*       5.8161490493E+02               0
GRID*               5573               09.6792945675E+017.6680608221E+01+
*       5.8264449522E+02               0
GRID*               5574               09.6518067176E+017.7527277653E+01+
*       5.8109829273E+02               0
GRID*               5575               09.6791559397E+017.6683493347E+01+
*       5.8367435743E+02               0
GRID*               5576               09.6513949997E+017.7531481628E+01+
*       5.8315870162E+02               0
GRID*               5577               09.6396321213E+017.8423076806E+01+
*       5.8470359075E+02               0
GRID*               5578               09.6396337555E+017.8418401928E+01+
*       5.8367464825E+02               0
GRID*               5579               09.6513940004E+017.9305880701E+01+
*       5.8419030943E+02               0
GRID*               5580               09.6396266058E+017.8410150156E+01+
*       5.8058393425E+02               0
GRID*               5581               09.6396316576E+017.8412026644E+01+
*       5.8161446419E+02               0
GRID*               5582               09.6513467387E+017.9293218263E+01+
*       5.8006810315E+02               0
GRID*               5583               09.6396330426E+017.8414983882E+01+
*       5.8264518705E+02               0
GRID*               5584               09.6513875830E+017.9297801128E+01+
*       5.8213073805E+02               0
GRID*               5585               09.6792886746E+018.0151322217E+01+
*       5.8367956159E+02               0
GRID*               5586               09.6791501003E+018.0148420251E+01+
*       5.8264852971E+02               0
GRID*               5587               09.7269654758E+018.0908996062E+01+
*       5.8316701723E+02               0
GRID*               5588               09.6788773040E+018.0142651255E+01+
*       5.7955396410E+02               0
GRID*               5589               09.6789390946E+018.0143970343E+01+
*       5.8058585607E+02               0
GRID*               5590               09.7264326171E+018.0902263180E+01+
*       5.7903850972E+02               0
GRID*               5591               09.6790220522E+018.0145727766E+01+
*       5.8161797773E+02               0
GRID*               5592               09.7266221632E+018.0904663041E+01+
*       5.8110387878E+02               0
GRID*               5593               09.7904110626E+018.1543925960E+01+
*       5.8265623453E+02               0
GRID*               5594               09.7902807941E+018.1542887204E+01+
*       5.8162283389E+02               0
GRID*               5595               09.8661585592E+018.2019785666E+01+
*       5.8214338416E+02               0
GRID*               5596               09.7899726617E+018.1540426525E+01+
*       5.7852395575E+02               0
GRID*               5597               09.7900435803E+018.1540993353E+01+
*       5.7955718607E+02               0
GRID*               5598               09.8658191553E+018.2018149187E+01+
*       5.7800868221E+02               0
GRID*               5599               09.7901191482E+018.1541597039E+01+
*       5.8059076893E+02               0
GRID*               5600               09.8659248861E+018.2018659404E+01+
*       5.8007641362E+02               0
GRID*               5601               01.0213116739E+028.2020517273E+01+
*       5.8008715454E+02               0
GRID*               5602               01.0128578755E+028.2315941325E+01+
*       5.8060222198E+02               0
GRID*               5603               01.0128621966E+028.2315842228E+01+
*       5.7956608032E+02               0
GRID*               5604               01.0289041333E+028.1543732686E+01+
*       5.7957144567E+02               0
GRID*               5605               01.0289104691E+028.1543227786E+01+
*       5.7853506782E+02               0
GRID*               5606               01.0352696252E+028.0906019302E+01+
*       5.7905568703E+02               0
GRID*               5607               09.9504849676E+018.2315115498E+01+
*       5.8163093393E+02               0
GRID*               5608               01.0039526267E+028.2415915997E+01+
*       5.8111698285E+02               0
GRID*               5609               09.9504513718E+018.2315038561E+01+
*       5.8059555333E+02               0
GRID*               5610               09.9503580311E+018.2314824812E+01+
*       5.7956198986E+02               0
GRID*               5611               09.9503565653E+018.2314821356E+01+
*       5.7852708810E+02               0
GRID*               5612               01.0039495242E+028.2415915837E+01+
*       5.7904669321E+02               0
GRID*               5613               09.9503351910E+018.2314772298E+01+
*       5.7749293601E+02               0
GRID*               5614               01.0039516896E+028.2415915952E+01+
*       5.7697748607E+02               0
GRID*               5615               01.0289145136E+028.1542905419E+01+
*       5.7749972555E+02               0
GRID*               5616               01.0289204685E+028.1542430563E+01+
*       5.7646422893E+02               0
GRID*               5617               01.0352798064E+028.0904730215E+01+
*       5.7698372296E+02               0
GRID*               5618               01.0213204938E+028.2020092842E+01+
*       5.7801568805E+02               0
GRID*               5619               01.0128622191E+028.2315841134E+01+
*       5.7853116366E+02               0
GRID*               5620               01.0128669749E+028.2315732180E+01+
*       5.7749587647E+02               0
GRID*               5621               01.0289248275E+028.1542082887E+01+
*       5.7542983756E+02               0
GRID*               5622               01.0352892721E+028.0903532170E+01+
*       5.7491387241E+02               0
GRID*               5623               01.0213299854E+028.2019635790E+01+
*       5.7594602393E+02               0
GRID*               5624               01.0128690447E+028.2315684487E+01+
*       5.7646156076E+02               0
GRID*               5625               01.0128552404E+027.4515818914E+01+
*       5.7439897313E+02               0
GRID*               5626               01.0128555151E+027.4515825173E+01+
*       5.7336822739E+02               0
GRID*               5627               01.0128560763E+027.4515837954E+01+
*       5.7543118408E+02               0
GRID*               5628               01.0128557837E+027.4515831286E+01+
*       5.7646191258E+02               0
GRID*               5629               01.0213020603E+027.4810900515E+01+
*       5.7491528427E+02               0
GRID*               5630               01.0288794907E+027.5286095492E+01+
*       5.7543120880E+02               0
GRID*               5631               01.0288791336E+027.5286067094E+01+
*       5.7439934047E+02               0
GRID*               5632               01.0128544213E+027.4515800264E+01+
*       5.7233650176E+02               0
GRID*               5633               01.0213006003E+027.4810830810E+01+
*       5.7285168768E+02               0
GRID*               5634               01.0128546745E+027.4515806034E+01+
*       5.7130574129E+02               0
GRID*               5635               01.0212970533E+027.4810660855E+01+
*       5.7078887727E+02               0
GRID*               5636               01.0429485282E+027.7519379849E+01+
*       5.7284963610E+02               0
GRID*               5637               01.0439905467E+027.8408787527E+01+
*       5.7336495862E+02               0
GRID*               5638               01.0399899511E+027.6675780971E+01+
*       5.7233348525E+02               0
GRID*               5639               01.0352091021E+027.5917582827E+01+
*       5.7181860203E+02               0
GRID*               5640               01.0399924024E+027.6676287797E+01+
*       5.7336623207E+02               0
GRID*               5641               01.0352127029E+027.5918033550E+01+
*       5.7388301737E+02               0
GRID*               5642               01.0399927735E+027.6676364499E+01+
*       5.7439868922E+02               0
GRID*               5643               01.0288783230E+027.5286002607E+01+
*       5.7336660946E+02               0
GRID*               5644               01.0288739700E+027.5285656336E+01+
*       5.7130323843E+02               0
GRID*               5645               01.0288777473E+027.5285956832E+01+
*       5.7233519749E+02               0
GRID*               5646               01.0400384876E+028.0146085142E+01+
*       5.7853710512E+02               0
GRID*               5647               01.0400354483E+028.0146747764E+01+
*       5.7957357613E+02               0
GRID*               5648               01.0400415169E+028.0145422385E+01+
*       5.7750146051E+02               0
GRID*               5649               01.0400441789E+028.0144834735E+01+
*       5.7646586580E+02               0
GRID*               5650               01.0429278633E+027.9299268680E+01+
*       5.7801947788E+02               0
GRID*               5651               01.0439955648E+027.8411293873E+01+
*       5.7750110396E+02               0
GRID*               5652               01.0439953376E+027.8412114351E+01+
*       5.7853692132E+02               0
GRID*               5653               01.0400487843E+028.0143806845E+01+
*       5.7439708046E+02               0
GRID*               5654               01.0429051951E+027.9295530548E+01+
*       5.7388119766E+02               0
GRID*               5655               01.0400463580E+028.0144347011E+01+
*       5.7543143750E+02               0
GRID*               5656               01.0429169149E+027.9297366708E+01+
*       5.7594918364E+02               0
GRID*               5657               01.0439952729E+027.8410793009E+01+
*       5.7646634699E+02               0
GRID*               5658               01.0439943611E+027.8410161437E+01+
*       5.7543174540E+02               0
GRID*               5659               01.0429536864E+027.7521657455E+01+
*       5.7698392495E+02               0
GRID*               5660               01.0399977411E+027.6677394143E+01+
*       5.7646530028E+02               0
GRID*               5661               01.0400000586E+027.6677875414E+01+
*       5.7750029346E+02               0
GRID*               5662               01.0439928084E+027.8409530641E+01+
*       5.7439845927E+02               0
GRID*               5663               01.0429511386E+027.7520532240E+01+
*       5.7491566488E+02               0
GRID*               5664               01.0352164451E+027.5918502111E+01+
*       5.7594884696E+02               0
GRID*               5665               01.0288834515E+027.5286410744E+01+
*       5.7646460542E+02               0
GRID*               5666               01.0399956253E+027.6676955246E+01+
*       5.7543220027E+02               0
GRID*               5667               01.0400030995E+027.6678507235E+01+
*       5.7853340106E+02               0
GRID*               5668               01.0352240265E+027.5919451490E+01+
*       5.7801534834E+02               0
GRID*               5669               01.0429569995E+027.7523116740E+01+
*       5.7905341137E+02               0
GRID*               5670               01.0439945950E+027.8413073081E+01+
*       5.7957143060E+02               0
GRID*               5671               01.0400074110E+027.6679403324E+01+
*       5.7956814604E+02               0
GRID*               5672               01.0352332195E+027.5920603389E+01+
*       5.8008312272E+02               0
GRID*               5673               01.0400106929E+027.6680086786E+01+
*       5.8060250051E+02               0
GRID*               5674               01.0128602587E+027.4515933258E+01+
*       5.7749409586E+02               0
GRID*               5675               01.0128599576E+027.4515926394E+01+
*       5.7852480139E+02               0
GRID*               5676               01.0213066457E+027.4811120464E+01+
*       5.7697930668E+02               0
GRID*               5677               01.0288867494E+027.5286673297E+01+
*       5.7749641206E+02               0
GRID*               5678               01.0128678172E+027.4516105620E+01+
*       5.8162140617E+02               0
GRID*               5679               01.0213215989E+027.4811838836E+01+
*       5.8110909005E+02               0
GRID*               5680               01.0128636863E+027.4516011402E+01+
*       5.8058801796E+02               0
GRID*               5681               01.0128675674E+027.4516099925E+01+
*       5.8265201265E+02               0
GRID*               5682               01.0289012354E+027.5287827308E+01+
*       5.8059665591E+02               0
GRID*               5683               01.0288953512E+027.5287358414E+01+
*       5.7956196366E+02               0
GRID*               5684               01.0289045475E+027.5288091333E+01+
*       5.8162955764E+02               0
GRID*               5685               01.0128639769E+027.4516018026E+01+
*       5.7955734818E+02               0
GRID*               5686               01.0213142178E+027.4811484143E+01+
*       5.7904362465E+02               0
GRID*               5687               01.0288923367E+027.5287118267E+01+
*       5.7852983839E+02               0
GRID*               5688               01.0399920553E+028.0155872416E+01+
*       5.8475031907E+02               0
GRID*               5689               01.0399719951E+028.0160032081E+01+
*       5.8578140348E+02               0
GRID*               5690               01.0400093274E+028.0152274327E+01+
*       5.8371578400E+02               0
GRID*               5691               01.0400176375E+028.0150529541E+01+
*       5.8268052954E+02               0
GRID*               5692               01.0429448345E+027.9312072731E+01+
*       5.8423098987E+02               0
GRID*               5693               01.0439871268E+027.8420612062E+01+
*       5.8371224254E+02               0
GRID*               5694               01.0439840880E+027.8424702767E+01+
*       5.8474675136E+02               0
GRID*               5695               01.0400304606E+028.0147814485E+01+
*       5.8060854763E+02               0
GRID*               5696               01.0429374357E+027.9301795481E+01+
*       5.8009030239E+02               0
GRID*               5697               01.0400262123E+028.0148723281E+01+
*       5.8164506143E+02               0
GRID*               5698               01.0429444005E+027.9305564808E+01+
*       5.8216090969E+02               0
GRID*               5699               01.0429723287E+027.7529859418E+01+
*       5.8319222229E+02               0
GRID*               5700               01.0400251881E+027.6683104759E+01+
*       5.8267013860E+02               0
GRID*               5701               01.0400360580E+027.6685371363E+01+
*       5.8370658518E+02               0
GRID*               5702               01.0439896016E+027.8418109029E+01+
*       5.8267593664E+02               0
GRID*               5703               01.0439917010E+027.8416019752E+01+
*       5.8164037409E+02               0
GRID*               5704               01.0352480739E+027.5922466261E+01+
*       5.8215140430E+02               0
GRID*               5705               01.0289169876E+027.5289083461E+01+
*       5.8266350931E+02               0
GRID*               5706               01.0400181037E+027.6681628601E+01+
*       5.8163653139E+02               0
GRID*               5707               01.0429629580E+027.7525734680E+01+
*       5.8112194486E+02               0
GRID*               5708               01.0439933749E+027.8414339052E+01+
*       5.8060655408E+02               0
GRID*               5709               01.0213369960E+027.4812579798E+01+
*       5.8317369099E+02               0
GRID*               5710               01.0289273084E+027.5289907195E+01+
*       5.8369469806E+02               0
GRID*               5711               01.0128799137E+027.4516381792E+01+
*       5.8368378554E+02               0
GRID*               5712               01.0128797333E+027.4516377672E+01+
*       5.8471427415E+02               0
GRID*               5713               01.0429905920E+027.7537944925E+01+
*       5.8526062559E+02               0
GRID*               5714               01.0400509281E+027.6688477104E+01+
*       5.8473790443E+02               0
GRID*               5715               01.0400755335E+027.6693628994E+01+
*       5.8576996045E+02               0
GRID*               5716               01.0439804363E+027.8430442896E+01+
*       5.8577881497E+02               0
GRID*               5717               01.0352793606E+027.5926396868E+01+
*       5.8421663105E+02               0
GRID*               5718               01.0289532895E+027.5291983265E+01+
*       5.8472634358E+02               0
GRID*               5719               01.0213700750E+027.4814174901E+01+
*       5.8523615193E+02               0
GRID*               5720               01.0289725098E+027.5293521391E+01+
*       5.8575701179E+02               0
GRID*               5721               01.0129023769E+027.4516895688E+01+
*       5.8574567630E+02               0
GRID*               5722               01.0129022117E+027.4516891906E+01+
*       5.8677595376E+02               0
GRID*               5723               01.0353311231E+027.5932921815E+01+
*       5.8628172045E+02               0
GRID*               5724               01.0400969954E+027.6698139597E+01+
*       5.8680349783E+02               0
GRID*               5725               01.0290097532E+027.5296507331E+01+
*       5.8679082998E+02               0
GRID*               5726               01.0129349367E+027.4517642984E+01+
*       5.8780800806E+02               0
GRID*               5727               01.0129343765E+027.4517630106E+01+
*       5.8883796329E+02               0
GRID*               5728               01.0214225871E+027.4816715021E+01+
*       5.8729863085E+02               0
GRID*               5729               01.0290374853E+027.5298735479E+01+
*       5.8782194203E+02               0
GRID*               5730               01.0397983332E+028.0195446214E+01+
*       5.8887097110E+02               0
GRID*               5731               01.0396978677E+028.0215515541E+01+
*       5.8988987633E+02               0
GRID*               5732               01.0398821480E+028.0178473265E+01+
*       5.8783749222E+02               0
GRID*               5733               01.0399283234E+028.0169030414E+01+
*       5.8681131756E+02               0
GRID*               5734               01.0427749520E+027.9351949754E+01+
*       5.8835806206E+02               0
GRID*               5735               01.0439701540E+027.8451998678E+01+
*       5.8784284146E+02               0
GRID*               5736               01.0439698221E+027.8470923081E+01+
*       5.8887560130E+02               0
GRID*               5737               01.0430279172E+027.7554770084E+01+
*       5.8732688704E+02               0
GRID*               5738               01.0401454009E+027.6708360516E+01+
*       5.8783762373E+02               0
GRID*               5739               01.0439753543E+027.8440551808E+01+
*       5.8680847747E+02               0
GRID*               5740               01.0428965889E+027.9325399532E+01+
*       5.8629526940E+02               0
GRID*               5741               01.0394996817E+028.0254293740E+01+
*       5.9092646937E+02               0
GRID*               5742               01.0393139496E+028.0289691446E+01+
*       5.9192614921E+02               0
GRID*               5743               01.0426231395E+027.9411994950E+01+
*       5.9042652447E+02               0
GRID*               5744               01.0439699588E+027.8493919310E+01+
*       5.8991961885E+02               0
GRID*               5745               01.0439598548E+027.8536839553E+01+
*       5.9095409741E+02               0
GRID*               5746               01.0354288834E+027.5945320933E+01+
*       5.8834715169E+02               0
GRID*               5747               01.0401917087E+027.6718210618E+01+
*       5.8886941896E+02               0
GRID*               5748               01.0291199073E+027.5305381641E+01+
*       5.8885401987E+02               0
GRID*               5749               01.0430448200E+027.7589890994E+01+
*       5.8940478265E+02               0
GRID*               5750               01.0402862418E+027.6738533517E+01+
*       5.8991313610E+02               0
GRID*               5751               01.0130227347E+027.4519672352E+01+
*       5.8986720291E+02               0
GRID*               5752               01.0215352268E+027.4822195978E+01+
*       5.8935857864E+02               0
GRID*               5753               01.0130206337E+027.4519623552E+01+
*       5.9089688145E+02               0
GRID*               5754               01.0132284397E+027.4524508765E+01+
*       5.9191842985E+02               0
GRID*               5755               01.0218058822E+027.4835545338E+01+
*       5.9140781960E+02               0
GRID*               5756               01.0387988454E+028.0383600517E+01+
*       5.9293276110E+02               0
GRID*               5757               01.0385119456E+028.0433404148E+01+
*       5.9389201019E+02               0
GRID*               5758               01.0422902066E+027.9549341269E+01+
*       5.9245955864E+02               0
GRID*               5759               01.0439437775E+027.8571614038E+01+
*       5.9207257908E+02               0
GRID*               5760               01.0438882555E+027.8664955565E+01+
*       5.9307231090E+02               0
GRID*               5761               01.0431492443E+027.7645998423E+01+
*       5.9156675137E+02               0
GRID*               5762               01.0403400386E+027.6750238287E+01+
*       5.9094284635E+02               0
GRID*               5763               01.0404733548E+027.6779673480E+01+
*       5.9206351299E+02               0
GRID*               5764               01.0355775830E+027.5964374744E+01+
*       5.9040889417E+02               0
GRID*               5765               01.0291900684E+027.5311067562E+01+
*       5.8988212022E+02               0
GRID*               5766               01.0292933398E+027.5319484638E+01+
*       5.9091274603E+02               0
GRID*               5767               01.0416968014E+027.9742036328E+01+
*       5.9437841756E+02               0
GRID*               5768               01.0434607848E+027.9040104703E+01+
*       5.9401219070E+02               0
GRID*               5769               01.0294486371E+027.5332250283E+01+
*       5.9193333389E+02               0
GRID*               5770               01.0293727347E+027.5325994720E+01+
*       5.9287722794E+02               0
GRID*               5771               01.0355847683E+027.5965301528E+01+
*       5.9238260492E+02               0
GRID*               5772               01.0438189349E+027.8067757536E+01+
*       5.9365939141E+02               0
GRID*               5773               01.0424618225E+027.7334674240E+01+
*       5.9340285083E+02               0
GRID*               5774               01.0432260745E+027.7658458235E+01+
*       5.9430133152E+02               0
GRID*               5775               01.0404182187E+027.6767434679E+01+
*       5.9300395932E+02               0
GRID*               5776               01.0387670761E+027.6442935676E+01+
*       5.9373956988E+02               0
GRID*               5777               01.0413762561E+027.6996776944E+01+
*       5.9475411539E+02               0
GRID*               5778               01.0391880717E+027.6518984895E+01+
*       5.9443279588E+02               0
GRID*               5779               01.0360934833E+027.6032371996E+01+
*       5.9400745092E+02               0
GRID*               5780               01.0395784885E+027.6593228193E+01+
*       5.9505585198E+02               0
GRID*               5781               01.0355181668E+027.5956733388E+01+
*       5.9534032624E+02               0
GRID*               5782               01.0127992470E+027.4514547658E+01+
*       5.9611939521E+02               0
GRID*               5783               01.0132195854E+027.4524298229E+01+
*       5.9294878076E+02               0
GRID*               5784               01.0142822718E+027.4551096898E+01+
*       5.9402920906E+02               0
GRID*               5785               01.0142707216E+027.4550788934E+01+
*       5.9506598042E+02               0
GRID*               5786               01.0229460702E+027.4894621934E+01+
*       5.9350938580E+02               0
GRID*               5787               01.0301401383E+027.5390711998E+01+
*       5.9395485754E+02               0
GRID*               5788               01.0225305017E+027.4872550316E+01+
*       5.9565425476E+02               0
GRID*               5789               01.0308848349E+027.5456764739E+01+
*       5.9463466713E+02               0
GRID*               5790               01.0295665943E+027.5342034323E+01+
*       5.9529846705E+02               0
GRID*               5791               01.0138909422E+027.4269828411E+01+
*       6.1615228271E+02               0
GRID*               5792               01.0240234369E+027.4660377150E+01+
*       6.1615228271E+02               0
GRID*               5793               01.0039713283E+027.4164204197E+01+
*       6.1615228271E+02               0
GRID*               5794               01.0437448776E+027.6822058425E+01+
*       6.1615228271E+02               0
GRID*               5795               01.0394330553E+027.6042463837E+01+
*       6.1615228271E+02               0
GRID*               5796               01.0465326781E+027.7981990680E+01+
*       6.1615228271E+02               0
GRID*               5797               01.0319222333E+027.5173381112E+01+
*       6.1615228271E+02               0
GRID*               5798               01.0465337945E+027.8849597677E+01+
*       6.1615228271E+02               0
GRID*               5799               01.0138981027E+028.2561681263E+01+
*       6.1615228271E+02               0
GRID*               5800               01.0039713981E+028.2667675091E+01+
*       6.1615228271E+02               0
GRID*               5801               01.0240222799E+028.2171662971E+01+
*       6.1615228271E+02               0
GRID*               5802               01.0437430810E+028.0010439332E+01+
*       6.1615228271E+02               0
GRID*               5803               01.0394358196E+028.0789178514E+01+
*       6.1615228271E+02               0
GRID*               5804               01.0319240432E+028.1658045438E+01+
*       6.1615228271E+02               0
GRID*               5805               09.9405171792E+017.4269830100E+01+
*       6.1615228271E+02               0
GRID*               5806               09.8391922884E+017.4660380757E+01+
*       6.1615228271E+02               0
GRID*               5807               09.6419783902E+017.6822066572E+01+
*       6.1615228271E+02               0
GRID*               5808               09.6140998932E+017.7982001475E+01+
*       6.1615228271E+02               0
GRID*               5809               09.6850963029E+017.6042470486E+01+
*       6.1615228271E+02               0
GRID*               5810               09.7602044281E+017.5173386085E+01+
*       6.1615228271E+02               0
GRID*               5811               09.6140888324E+017.8849601244E+01+
*       6.1615228271E+02               0
GRID*               5812               09.9404469097E+018.2561682641E+01+
*       6.1615228271E+02               0
GRID*               5813               09.8392050921E+018.2171665907E+01+
*       6.1615228271E+02               0
GRID*               5814               09.6419968291E+018.0010443720E+01+
*       6.1615228271E+02               0
GRID*               5815               09.6850694659E+018.0789183624E+01+
*       6.1615228271E+02               0
GRID*               5816               09.7601873749E+018.1658049425E+01+
*       6.1615228271E+02               0
GRID*               5817               01.0222875328E+027.4305601450E+01+
*       6.0072316906E+02               0
GRID*               5818               01.0374897090E+027.5413425142E+01+
*       5.9975606350E+02               0
GRID*               5819               01.0466222403E+027.6981417654E+01+
*       5.9878895659E+02               0
GRID*               5820               09.8586252701E+017.4296428876E+01+
*       6.0063547413E+02               0
GRID*               5821               09.7088666902E+017.5365685876E+01+
*       5.9955854489E+02               0
GRID*               5822               09.6171254375E+017.6868991700E+01+
*       5.9861961761E+02               0
GRID*               5823               09.6151605148E+017.6923729370E+01+
*       5.9401186515E+02               0
GRID*               5824               09.7060950063E+017.5396031871E+01+
*       5.9358674037E+02               0
GRID*               5825               09.8612269561E+017.4285091811E+01+
*       5.9245756686E+02               0
GRID*               5826               09.8643738992E+017.4271636559E+01+
*       5.9450474480E+02               0
GRID*               5827               09.7308058283E+017.5143678853E+01+
*       5.9547311181E+02               0
GRID*               5828               09.6548911378E+017.6083297724E+01+
*       5.9596142879E+02               0
GRID*               5829               09.6535097919E+017.6106235458E+01+
*       5.9490915016E+02               0
GRID*               5830               09.8587792081E+017.4295752795E+01+
*       5.9855779110E+02               0
GRID*               5831               09.8634554218E+017.4275534363E+01+
*       5.9650191259E+02               0
GRID*               5832               09.7034922855E+017.5425046731E+01+
*       5.9738038659E+02               0
GRID*               5833               01.0220736694E+027.4296140324E+01+
*       6.0486788351E+02               0
GRID*               5834               01.0372070243E+027.5382153905E+01+
*       6.0389970000E+02               0
GRID*               5835               01.0467215306E+027.7011317500E+01+
*       6.0292028682E+02               0
GRID*               5836               01.0486765543E+027.8929710978E+01+
*       6.0192553331E+02               0
GRID*               5837               01.0422742131E+028.0777195373E+01+
*       6.0101100240E+02               0
GRID*               5838               01.0292707547E+028.2137357402E+01+
*       6.0015061367E+02               0
GRID*               5839               01.0127091627E+028.2830239972E+01+
*       5.9921173120E+02               0
GRID*               5840               09.9499161575E+018.2825391943E+01+
*       5.9819482340E+02               0
GRID*               5841               09.7929487981E+018.2178957316E+01+
*       5.9714802762E+02               0
GRID*               5842               09.6794177874E+018.1110638845E+01+
*       5.9617062812E+02               0
GRID*               5843               09.8549901287E+017.4312597382E+01+
*       6.0681340338E+02               0
GRID*               5844               09.7041152566E+017.5418061063E+01+
*       6.0572071087E+02               0
GRID*               5845               09.6116116704E+017.7029662885E+01+
*       6.0461855800E+02               0
GRID*               5846               09.5919907875E+017.8867251565E+01+
*       6.0348921289E+02               0
GRID*               5847               09.6484956522E+018.0639156231E+01+
*       6.0231328079E+02               0
GRID*               5848               09.7770249072E+018.2069547149E+01+
*       6.0119587382E+02               0
GRID*               5849               09.9487145187E+018.2822928957E+01+
*       6.0018824046E+02               0
GRID*               5850               09.6135156715E+017.6972025881E+01+
*       6.0254752360E+02               0
GRID*               5851               09.6160852056E+017.6898102915E+01+
*       6.0052023871E+02               0
GRID*               5852               09.7085213620E+017.5369437659E+01+
*       6.0160181758E+02               0
GRID*               5853               09.7063983873E+017.5392687663E+01+
*       6.0365600729E+02               0
GRID*               5854               09.8565989077E+017.4305394380E+01+
*       6.0475181056E+02               0
GRID*               5855               09.8579434446E+017.4299432239E+01+
*       6.0269191297E+02               0
GRID*               5856               09.5910036147E+017.8755475370E+01+
*       6.0137902463E+02               0
GRID*               5857               09.6423913350E+018.0528381483E+01+
*       5.9995892591E+02               0
GRID*               5858               09.7834340859E+018.2114795090E+01+
*       5.9909692451E+02               0
GRID*               5859               09.6712591747E+018.0998123243E+01+
*       5.9793232633E+02               0
GRID*               5860               09.5898487816E+017.8522030632E+01+
*       5.9941868608E+02               0
GRID*               5861               09.6080674802E+017.9687925342E+01+
*       5.9839693586E+02               0
GRID*               5862               09.8523091966E+017.4324769138E+01+
*       6.0886967480E+02               0
GRID*               5863               09.7014601485E+017.5448061688E+01+
*       6.0777965061E+02               0
GRID*               5864               09.6101238788E+017.7076773104E+01+
*       6.0669021663E+02               0
GRID*               5865               09.5927275959E+017.8934922194E+01+
*       6.0558888446E+02               0
GRID*               5866               09.6521582796E+018.0702312412E+01+
*       6.0446807711E+02               0
GRID*               5867               09.7793249145E+018.2085977758E+01+
*       6.0334643337E+02               0
GRID*               5868               09.9501173623E+018.2825799148E+01+
*       6.0225681300E+02               0
GRID*               5869               01.0131626653E+028.2821028092E+01+
*       6.0119882042E+02               0
GRID*               5870               01.0301635604E+028.2075051980E+01+
*       6.0215373151E+02               0
GRID*               5871               01.0429487985E+028.0664300404E+01+
*       6.0309668921E+02               0
GRID*               5872               01.0487658582E+027.8844297829E+01+
*       6.0405750751E+02               0
GRID*               5873               01.0465622647E+027.6963752838E+01+
*       6.0502682238E+02               0
GRID*               5874               01.0369640366E+027.5355738793E+01+
*       6.0599077915E+02               0
GRID*               5875               01.0218322555E+027.4285618475E+01+
*       6.0694726474E+02               0
GRID*               5876               09.8475574283E+017.4346865085E+01+
*       6.1091476926E+02               0
GRID*               5877               09.6977158044E+017.5491300796E+01+
*       6.0981771288E+02               0
GRID*               5878               09.6088164983E+017.7119176586E+01+
*       6.0874887400E+02               0
GRID*               5879               09.5933024658E+017.8982332952E+01+
*       6.0768481477E+02               0
GRID*               5880               09.6550468051E+018.0750571491E+01+
*       6.0659741807E+02               0
GRID*               5881               09.7834550101E+018.2114940868E+01+
*       6.0549187833E+02               0
GRID*               5882               09.9547709662E+018.2834990409E+01+
*       6.0438044243E+02               0
GRID*               5883               01.0137993011E+028.2807273304E+01+
*       6.0327004954E+02               0
GRID*               5884               01.0310181377E+028.2012336627E+01+
*       6.0425585887E+02               0
GRID*               5885               01.0435165736E+028.0562738240E+01+
*       6.0522398042E+02               0
GRID*               5886               01.0488476949E+027.8747860104E+01+
*       6.0617839205E+02               0
GRID*               5887               01.0463181074E+027.6894248291E+01+
*       6.0713250152E+02               0
GRID*               5888               01.0365190963E+027.5308446041E+01+
*       6.0808223667E+02               0
GRID*               5889               01.0213736387E+027.4266088592E+01+
*       6.0901334449E+02               0
GRID*               5890               09.8392366585E+017.4387196022E+01+
*       6.1296210625E+02               0
GRID*               5891               09.6901081125E+017.5582700265E+01+
*       6.1182653124E+02               0
GRID*               5892               09.6079442611E+017.7148267141E+01+
*       6.1074709113E+02               0
GRID*               5893               09.5934130522E+017.8991106174E+01+
*       6.0976998984E+02               0
GRID*               5894               09.6565473985E+018.0775213969E+01+
*       6.0872630188E+02               0
GRID*               5895               09.7867797087E+018.2137760158E+01+
*       6.0764330615E+02               0
GRID*               5896               09.9603313971E+018.2845307902E+01+
*       6.0654366236E+02               0
GRID*               5897               01.0146220278E+028.2788058863E+01+
*       6.0541301502E+02               0
GRID*               5898               01.0320276457E+028.1934151960E+01+
*       6.0641403904E+02               0
GRID*               5899               01.0441698531E+028.0438287166E+01+
*       6.0735773592E+02               0
GRID*               5900               01.0489148963E+027.8639839623E+01+
*       6.0828191450E+02               0
GRID*               5901               01.0460215014E+027.6814006063E+01+
*       6.0923611282E+02               0
GRID*               5902               01.0357833773E+027.5233161225E+01+
*       6.1016403865E+02               0
GRID*               5903               01.0205327079E+027.4231815832E+01+
*       6.1101372945E+02               0
GRID*               5904               01.0155342437E+028.2764829629E+01+
*       6.0763283864E+02               0
GRID*               5905               01.0334324206E+028.1817410354E+01+
*       6.0861591595E+02               0
GRID*               5906               01.0449476995E+028.0275811506E+01+
*       6.0941895720E+02               0
GRID*               5907               01.0489420236E+027.8577218064E+01+
*       6.1034466590E+02               0
GRID*               5908               01.0457380419E+027.6741321854E+01+
*       6.1141118253E+02               0
GRID*               5909               01.0341718448E+027.5079866561E+01+
*       6.1222393721E+02               0
GRID*               5910               01.0191488606E+027.4179640250E+01+
*       6.1268848437E+02               0
GRID*               5911               01.0363536234E+028.1540642803E+01+
*       6.1074027407E+02               0
GRID*               5912               01.0256355503E+028.2360106565E+01+
*       6.1243519700E+02               0
GRID*               5913               01.0145507717E+028.2789787836E+01+
*       6.1429162582E+02               0
GRID*               5914               01.0451504016E+028.0230483552E+01+
*       6.1445407041E+02               0
GRID*               5915               01.0410537779E+028.0965044583E+01+
*       6.1263268723E+02               0
GRID*               5916               01.0330368628E+028.1851263242E+01+
*       6.1435467404E+02               0
GRID*               5917               01.0487669157E+027.8843729404E+01+
*       6.1265419095E+02               0
GRID*               5918               01.0456271357E+028.0118198176E+01+
*       6.1114292573E+02               0
GRID*               5919               01.0489606022E+027.8513850488E+01+
*       6.1469593103E+02               0
GRID*               5920               01.0449354096E+027.6553413290E+01+
*       6.1393031895E+02               0
GRID*               5921               01.0293485247E+027.4699743626E+01+
*       6.1421221432E+02               0
GRID*               5922               09.9616866508E+018.2847713157E+01+
*       6.0872562774E+02               0
GRID*               5923               01.0161228235E+028.2748752028E+01+
*       6.1016156546E+02               0
GRID*               5924               09.5899938472E+017.8574330099E+01+
*       6.1407850847E+02               0
GRID*               5925               09.5924182165E+017.8907917100E+01+
*       6.1182610325E+02               0
GRID*               5926               09.6072862961E+017.7170755991E+01+
*       6.1248547966E+02               0
GRID*               5927               09.6633593960E+017.5949034185E+01+
*       6.1408019879E+02               0
GRID*               5928               09.8373840924E+017.4396464680E+01+
*       6.1488983440E+02               0
GRID*               5929               09.6557225168E+018.0761992389E+01+
*       6.1088578018E+02               0
GRID*               5930               09.7881122947E+018.2146784316E+01+
*       6.0979062636E+02               0
GRID*               5931               09.6458279048E+018.0592001130E+01+
*       6.1303649938E+02               0
GRID*               5932               09.8048765337E+018.2254548751E+01+
*       6.1220624030E+02               0
GRID*               5933               09.9464264882E+018.2818142182E+01+
*       6.1063605670E+02               0
GRID*               5934               01.0041283610E+028.2915888760E+01+
*       6.1235043617E+02               0
GRID*               5935               09.9305042050E+018.2781388881E+01+
*       6.1428046225E+02               0
GRID*               5936               09.7426964290E+018.1796421867E+01+
*       6.1445251913E+02               0
GRID*               5937               09.6369336362E+018.0422578028E+01+
*       6.1478695635E+02               0
GRID*               5938               01.0218709759E+027.4287293465E+01+
*       5.9236415304E+02               0
GRID*               5939               01.0369942948E+027.5359006179E+01+
*       5.9323097742E+02               0
GRID*               5940               01.0461206660E+027.6839601491E+01+
*       5.9390778474E+02               0
GRID*               5941               01.0390095669E+027.5592311497E+01+
*       5.9541315829E+02               0
GRID*               5942               01.0225909993E+027.4319254180E+01+
*       5.9443835929E+02               0
GRID*               5943               01.0225214071E+027.4316100195E+01+
*       5.9865704674E+02               0
GRID*               5944               01.0228632296E+027.4331733400E+01+
*       5.9656326532E+02               0
GRID*               5945               01.0379389086E+027.5464354546E+01+
*       5.9770775667E+02               0
GRID*               5946               01.0399513558E+028.1117296290E+01+
*       5.9746773858E+02               0
GRID*               5947               01.0283911637E+028.2195678424E+01+
*       5.9827614984E+02               0
GRID*               5948               01.0221788468E+027.4300776765E+01+
*       6.0279504179E+02               0
GRID*               5949               01.0373686304E+027.5399958909E+01+
*       6.0182090335E+02               0
GRID*               5950               01.0468336320E+027.7045579098E+01+
*       6.0081335838E+02               0
GRID*               5951               01.0408235077E+028.0997205501E+01+
*       5.9910568140E+02               0
GRID*               5952               01.0462125910E+027.9967285526E+01+
*       5.9816567384E+02               0
GRID*               5953               01.0485142069E+027.9055149990E+01+
*       5.9965501108E+02               0
GRID*               5954               01.0123322893E+028.2837527040E+01+
*       5.9728232842E+02               0
GRID*               5955               01.0282791561E+028.2202894259E+01+
*       5.9643107128E+02               0
GRID*               5956               01.0402873412E+028.1071870737E+01+
*       5.9583511741E+02               0
GRID*               5957               01.0211642329E+027.4257369162E+01+
*       5.1409015871E+02               0
GRID*               5958               01.0357472209E+027.5229551480E+01+
*       5.1512000703E+02               0
GRID*               5959               01.0455151370E+027.6687377902E+01+
*       5.1614983960E+02               0
GRID*               5960               01.0489680950E+027.8405578346E+01+
*       5.1718001366E+02               0
GRID*               5961               01.0455868496E+028.0128050368E+01+
*       5.1821064115E+02               0
GRID*               5962               01.0358375793E+028.1593252505E+01+
*       5.1924116126E+02               0
GRID*               5963               01.0212446504E+028.2571192452E+01+
*       5.2027192529E+02               0
GRID*               5964               01.0040145763E+028.2915914339E+01+
*       5.2130288972E+02               0
GRID*               5965               09.8677499779E+018.2574380871E+01+
*       5.2233401651E+02               0
GRID*               5966               09.7215784986E+018.1598528696E+01+
*       5.2336527944E+02               0
GRID*               5967               09.6237821814E+018.0133463523E+01+
*       5.2439675252E+02               0
GRID*               5968               09.5897297273E+017.8412262161E+01+
*       5.2542843553E+02               0
GRID*               5969               09.6241318997E+017.6690515893E+01+
*       5.2646007849E+02               0
GRID*               5970               09.7218139608E+017.5230959877E+01+
*       5.2749177285E+02               0
GRID*               5971               09.8677122795E+017.4257669655E+01+
*       5.2852317980E+02               0
GRID*               5972               01.0211668508E+027.4257477928E+01+
*       5.6563588895E+02               0
GRID*               5973               01.0357426283E+027.5229093577E+01+
*       5.6666086676E+02               0
GRID*               5974               01.0455174543E+027.6686854049E+01+
*       5.6768643562E+02               0
GRID*               5975               01.0489751245E+027.8404228688E+01+
*       5.6871272631E+02               0
GRID*               5976               01.0455983700E+028.0125149418E+01+
*       5.6973982571E+02               0
GRID*               5977               01.0358403581E+028.1592973790E+01+
*       5.7076753536E+02               0
GRID*               5978               01.0212454307E+028.2571161065E+01+
*       5.7179604034E+02               0
GRID*               5979               01.0040141529E+028.2915914369E+01+
*       5.7282542680E+02               0
GRID*               5980               09.8677466238E+018.2574367820E+01+
*       5.7385575633E+02               0
GRID*               5981               09.7215730815E+018.1598474545E+01+
*       5.7488708519E+02               0
GRID*               5982               09.6237109061E+018.0131825066E+01+
*       5.7591958862E+02               0
GRID*               5983               09.5896785071E+017.8412101080E+01+
*       5.7695334421E+02               0
GRID*               5984               09.6239757520E+017.6693608637E+01+
*       5.7798823603E+02               0
GRID*               5985               09.7215366536E+017.5233730158E+01+
*       5.7902423462E+02               0
GRID*               5986               09.8674026379E+017.4258952039E+01+
*       5.8006159037E+02               0
GRID*               5987               09.7218608031E+018.1601348057E+01+
*       5.7694773204E+02               0
GRID*               5988               09.8686019846E+018.2577895235E+01+
*       5.7797723906E+02               0
GRID*               5989               01.0041751878E+028.2915869474E+01+
*       5.7900820804E+02               0
GRID*               5990               01.0214594257E+028.2562200998E+01+
*       5.8004006419E+02               0
GRID*               5991               01.0360480128E+028.1572006962E+01+
*       5.8107212056E+02               0
GRID*               5992               01.0457244183E+028.0094350779E+01+
*       5.8210315221E+02               0
GRID*               5993               01.0489697624E+027.8374853798E+01+
*       5.8313249299E+02               0
GRID*               5994               01.0454418777E+027.6668785541E+01+
*       5.8416207251E+02               0
GRID*               5995               01.0356890529E+027.5223761474E+01+
*       5.8519655175E+02               0
GRID*               5996               01.0211757817E+027.4257847075E+01+
*       5.8624217058E+02               0
GRID*               5997               01.0212534879E+028.2570826085E+01+
*       5.7385655758E+02               0
GRID*               5998               01.0358509894E+028.1591907004E+01+
*       5.7488896277E+02               0
GRID*               5999               01.0456079980E+028.0122863464E+01+
*       5.7592279432E+02               0
GRID*               6000               01.0489729976E+027.8401666349E+01+
*       5.7695789044E+02               0
GRID*               6001               01.0455071430E+027.6684355621E+01+
*       5.7799420953E+02               0
GRID*               6002               01.0357248966E+027.5227326824E+01+
*       5.7903171811E+02               0
GRID*               6003               01.0211553825E+027.4257003761E+01+
*       5.8007056303E+02               0
GRID*               6004               01.0211677241E+027.4257513990E+01+
*       5.6975994765E+02               0
GRID*               6005               01.0357430954E+027.5229140140E+01+
*       5.7078438625E+02               0
GRID*               6006               01.0455176809E+027.6686896800E+01+
*       5.7180942552E+02               0
GRID*               6007               01.0489742041E+027.8404093094E+01+
*       5.7283519825E+02               0
GRID*               6008               01.0456017631E+028.0124324080E+01+
*       5.7386178139E+02               0
GRID*               6009               01.0455172308E+027.6686783904E+01+
*       5.7387111172E+02               0
GRID*               6010               01.0357418760E+027.5229018575E+01+
*       5.7490828671E+02               0
GRID*               6011               01.0211673130E+027.4257496919E+01+
*       5.7594657115E+02               0
GRID*               6012               01.0211692382E+027.4257576576E+01+
*       5.7182214092E+02               0
GRID*               6013               01.0357446338E+027.5229293519E+01+
*       5.7284637034E+02               0
GRID*               6014               01.0211698917E+027.4257603579E+01+
*       5.7388435053E+02               0
GRID*               6015               01.0455140440E+027.6686014567E+01+
*       5.7593271199E+02               0
GRID*               6016               01.0489736350E+027.8403216444E+01+
*       5.7489659980E+02               0
GRID*               6017               01.0357357664E+027.5228409637E+01+
*       5.7697010184E+02               0
GRID*               6018               01.0211618470E+027.4257270929E+01+
*       5.7800866052E+02               0
GRID*               6019               01.0455184756E+027.6687093325E+01+
*       5.6974796114E+02               0
GRID*               6020               01.0357451020E+027.5229340202E+01+
*       5.6872270958E+02               0
GRID*               6021               01.0211695843E+027.4257590931E+01+
*       5.6769798792E+02               0
GRID*               6022               01.0489747044E+027.8404434230E+01+
*       5.7077402776E+02               0
GRID*               6023               01.0456066976E+028.0125281238E+01+
*       5.7180085071E+02               0
GRID*               6024               01.0358437412E+028.1592634393E+01+
*       5.7282833128E+02               0
GRID*               6025               01.0489720226E+027.8396740610E+01+
*       5.7901890638E+02               0
GRID*               6026               01.0456657689E+028.0108831007E+01+
*       5.8004442175E+02               0
GRID*               6027               01.0489705260E+027.8386514574E+01+
*       5.8107741710E+02               0
GRID*               6028               01.0454876921E+027.6679696237E+01+
*       5.8005422147E+02               0
GRID*               6029               01.0357046448E+027.5225311404E+01+
*       5.8109127427E+02               0
GRID*               6030               01.0211465893E+027.4256640547E+01+
*       5.8213079365E+02               0
GRID*               6031               01.0356848830E+027.5223347218E+01+
*       5.8314669458E+02               0
GRID*               6032               01.0211431720E+027.4256499425E+01+
*       5.8418795752E+02               0
GRID*               6033               01.0454613325E+027.6673407763E+01+
*       5.8211015459E+02               0
GRID*               6034               01.0456292562E+028.0117736142E+01+
*       5.7798380217E+02               0
GRID*               6035               01.0359471280E+028.1582227612E+01+
*       5.7901103881E+02               0
GRID*               6036               01.0358849728E+028.1588492199E+01+
*       5.7694993009E+02               0
GRID*               6037               01.0213535568E+028.2566650025E+01+
*       5.7797845535E+02               0
GRID*               6038               01.0212883901E+028.2569372781E+01+
*       5.7591733314E+02               0
GRID*               6039               01.0040912918E+028.2915900169E+01+
*       5.7694684827E+02               0
GRID*               6040               09.8680978555E+018.2575818744E+01+
*       5.7591639123E+02               0
GRID*               6041               01.0040436808E+028.2915910522E+01+
*       5.7488607031E+02               0
GRID*               6042               09.8640971896E+017.4272808650E+01+
*       5.8831175614E+02               0
GRID*               6043               09.7168897502E+017.5280890659E+01+
*       5.8727948284E+02               0
GRID*               6044               09.6206820383E+017.6775374842E+01+
*       5.8624579824E+02               0
GRID*               6045               09.5898038655E+017.8508314970E+01+
*       5.8520848617E+02               0
GRID*               6046               09.6271525037E+018.0213674675E+01+
*       5.8417149858E+02               0
GRID*               6047               09.7268954646E+018.1650792760E+01+
*       5.8313650134E+02               0
GRID*               6048               09.8729363875E+018.2595452563E+01+
*       5.8210257318E+02               0
GRID*               6049               01.0044181229E+028.2915691282E+01+
*       5.8107043913E+02               0
GRID*               6050               09.7226584269E+018.1609286479E+01+
*       5.7900927858E+02               0
GRID*               6051               09.7243521482E+018.1626010745E+01+
*       5.8107209323E+02               0
GRID*               6052               09.8705054130E+018.2585670381E+01+
*       5.8003961756E+02               0
GRID*               6053               09.5896723288E+017.8420218258E+01+
*       5.7901445013E+02               0
GRID*               6054               09.6245176774E+018.0151545303E+01+
*       5.8004235116E+02               0
GRID*               6055               09.6240279734E+018.0139620875E+01+
*       5.7798070351E+02               0
GRID*               6056               09.5896806420E+017.8437463443E+01+
*       5.8107646062E+02               0
GRID*               6057               09.5897239925E+017.8467185981E+01+
*       5.8314048552E+02               0
GRID*               6058               09.6256556185E+018.0178736598E+01+
*       5.8210604432E+02               0
GRID*               6059               09.7209407202E+017.5239700079E+01+
*       5.8108518855E+02               0
GRID*               6060               09.6229266061E+017.6719152320E+01+
*       5.8211121366E+02               0
GRID*               6061               09.6235146767E+017.6704778931E+01+
*       5.8004950429E+02               0
GRID*               6062               09.8661718854E+017.4264075481E+01+
*       5.8418428876E+02               0
GRID*               6063               09.7198697268E+017.5250486481E+01+
*       5.8314706934E+02               0
GRID*               6064               09.8667773529E+017.4261549705E+01+
*       5.8212302752E+02               0
GRID*               6065               09.6218754873E+017.6745206260E+01+
*       5.8417632053E+02               0
GRID*               6066               09.7183678474E+017.5265737561E+01+
*       5.8521251296E+02               0
GRID*               6067               09.8650248822E+017.4268888637E+01+
*       5.8624909072E+02               0
GRID*               6068               01.0217354867E+028.2550449642E+01+
*       5.8209997229E+02               0
GRID*               6069               01.0362670171E+028.1549593106E+01+
*       5.8312674636E+02               0
GRID*               6070               01.0458246817E+028.0069178151E+01+
*       5.8414991693E+02               0
GRID*               6071               01.0489687995E+027.8357744368E+01+
*       5.8517168441E+02               0
GRID*               6072               01.0454207984E+027.6663795285E+01+
*       5.8619544123E+02               0
GRID*               6073               01.0357213446E+027.5226973156E+01+
*       5.8723014427E+02               0
GRID*               6074               01.0212497138E+027.4260913579E+01+
*       5.8828718741E+02               0
GRID*               6075               01.0489667027E+027.8340831327E+01+
*       5.8718960920E+02               0
GRID*               6076               01.0461029186E+027.9996839023E+01+
*       5.8818352409E+02               0
GRID*               6077               01.0375717311E+028.1409243557E+01+
*       5.8918539770E+02               0
GRID*               6078               01.0247962912E+028.2405054617E+01+
*       5.9021345411E+02               0
GRID*               6079               01.0091914734E+028.2885485202E+01+
*       5.9126554604E+02               0
GRID*               6080               09.9267738052E+018.2771887636E+01+
*       5.9231449392E+02               0
GRID*               6081               09.7793337862E+018.2086039288E+01+
*       5.9335240839E+02               0
GRID*               6082               09.6707575344E+018.0990799909E+01+
*       5.9438447624E+02               0
GRID*               6083               01.0358533692E+027.5240172481E+01+
*       5.8924504039E+02               0
GRID*               6084               01.0361834236E+027.5273658079E+01+
*       5.9123675496E+02               0
GRID*               6085               01.0214301911E+027.4268464071E+01+
*       5.9032222300E+02               0
GRID*               6086               01.0489632664E+027.8323080022E+01+
*       5.8916667491E+02               0
GRID*               6087               01.0454915485E+027.6680634622E+01+
*       5.9017262489E+02               0
GRID*               6088               01.0454144810E+027.6662306935E+01+
*       5.8819860800E+02               0
GRID*               6089               01.0489603535E+027.8312132192E+01+
*       5.9108246491E+02               0
GRID*               6090               01.0466066738E+027.9855510416E+01+
*       5.9200125932E+02               0
GRID*               6091               01.0399372265E+028.1118999411E+01+
*       5.9297322808E+02               0
GRID*               6092               01.0299431081E+028.2090738020E+01+
*       5.9436863553E+02               0
GRID*               6093               01.0122090923E+028.2839836788E+01+
*       5.9532644956E+02               0
GRID*               6094               09.9487501508E+018.2823004083E+01+
*       5.9625343110E+02               0
GRID*               6095               01.0489632299E+027.8328500896E+01+
*       5.9290601354E+02               0
GRID*               6096               01.0456788033E+027.6726138151E+01+
*       5.9208612508E+02               0
GRID*               6097               01.0468950221E+027.9766770952E+01+
*       5.9369289582E+02               0
GRID*               6098               01.0421287732E+028.0800416631E+01+
*       5.9446201912E+02               0
GRID*               6099               01.0266698649E+028.2301502751E+01+
*       5.9220099903E+02               0
GRID*               6100               01.0385359442E+028.1296668836E+01+
*       5.9112134960E+02               0
GRID*               6101               01.0463501758E+027.9929400179E+01+
*       5.9012504561E+02               0
GRID*               6102               01.0111467542E+028.2858291907E+01+
*       5.9329133134E+02               0
GRID*               6103               09.9415222430E+018.2807476145E+01+
*       5.9430133628E+02               0
GRID*               6104               09.7910547981E+018.2166464535E+01+
*       5.9527054296E+02               0
GRID*               6105               09.8777854476E+018.2614475910E+01+
*       5.8416477890E+02               0
GRID*               6106               01.0054073150E+028.2913609458E+01+
*       5.8518570523E+02               0
GRID*               6107               01.0227218273E+028.2506663344E+01+
*       5.8619550330E+02               0
GRID*               6108               01.0369898572E+028.1473336341E+01+
*       5.8719080399E+02               0
GRID*               6109               01.0048425822E+028.2915063331E+01+
*       5.8312951161E+02               0
GRID*               6110               01.0365791890E+028.1517096915E+01+
*       5.8516702853E+02               0
GRID*               6111               01.0459599664E+028.0034462761E+01+
*       5.8617483887E+02               0
GRID*               6112               01.0221781503E+028.2531149222E+01+
*       5.8415012586E+02               0
GRID*               6113               09.7317269480E+018.1696815363E+01+
*       5.8520057854E+02               0
GRID*               6114               09.8854568533E+018.2643261540E+01+
*       5.8621981348E+02               0
GRID*               6115               01.0063406511E+028.2909659402E+01+
*       5.8722428727E+02               0
GRID*               6116               01.0236242566E+028.2464081756E+01+
*       5.8821022226E+02               0
GRID*               6117               09.5899743936E+017.8574524403E+01+
*       5.8729147744E+02               0
GRID*               6118               09.6342510638E+018.0368568286E+01+
*       5.8832746206E+02               0
GRID*               6119               09.7486247090E+018.1847596218E+01+
*       5.8932906838E+02               0
GRID*               6120               09.9102714890E+018.2725729528E+01+
*       5.9030001639E+02               0
GRID*               6121               09.7388501106E+018.1762255919E+01+
*       5.8726470158E+02               0
GRID*               6122               09.6302087203E+018.0282376133E+01+
*       5.8624312605E+02               0
GRID*               6123               09.8964444024E+018.2681753159E+01+
*       5.8826516319E+02               0
GRID*               6124               01.0076355251E+028.2900940033E+01+
*       5.8924566607E+02               0
GRID*               6125               09.6551005522E+018.0751289233E+01+
*       5.9248373322E+02               0
GRID*               6126               09.5911083473E+017.8764768716E+01+
*       5.9172410943E+02               0
GRID*               6127               09.6178054186E+017.6850862685E+01+
*       5.9043716766E+02               0
GRID*               6128               09.7148823549E+017.5301699805E+01+
*       5.8935939723E+02               0
GRID*               6129               09.7128296409E+017.5323254622E+01+
*       5.9143639876E+02               0
GRID*               6130               09.8624921594E+017.4279648482E+01+
*       5.9038552287E+02               0
GRID*               6131               09.6031208440E+017.9506133509E+01+
*       5.9362742035E+02               0
GRID*               6132               09.5909924833E+017.8080025019E+01+
*       5.9331581934E+02               0
GRID*               6133               09.6193123770E+017.6810812254E+01+
*       5.9242038835E+02               0
GRID*               6134               09.7631369492E+018.1965571648E+01+
*       5.9137002911E+02               0
GRID*               6135               09.6413295658E+018.0508814472E+01+
*       5.9044013560E+02               0
GRID*               6136               09.5903961421E+017.8663035519E+01+
*       5.8941899692E+02               0
GRID*               6137               09.6188745852E+017.6822327290E+01+
*       5.8833794426E+02               0
GRID*               6138               09.7218076882E+017.5231022486E+01+
*       5.2955414198E+02               0
GRID*               6139               09.6241181230E+017.6690349540E+01+
*       5.3058512818E+02               0
GRID*               6140               09.5897305720E+017.8412085715E+01+
*       5.3161599370E+02               0
GRID*               6141               09.6236776343E+018.0133096880E+01+
*       5.3264658290E+02               0
GRID*               6142               09.7215410074E+018.1598153889E+01+
*       5.3367698744E+02               0
GRID*               6143               09.8676782733E+018.2574084162E+01+
*       5.3470733107E+02               0
GRID*               6144               01.0040056213E+028.2915915118E+01+
*       5.3573771474E+02               0
GRID*               6145               01.0212369210E+028.2571513980E+01+
*       5.3676825927E+02               0
GRID*               6146               01.0358329481E+028.1593716913E+01+
*       5.3779901880E+02               0
GRID*               6147               01.0455796990E+028.0127102951E+01+
*       5.3883006521E+02               0
GRID*               6148               01.0489722548E+027.8406106175E+01+
*       5.3986121993E+02               0
GRID*               6149               01.0455168746E+027.6687492201E+01+
*       5.4089270443E+02               0
GRID*               6150               01.0357484975E+027.5229678803E+01+
*       5.4192458859E+02               0
GRID*               6151               01.0211702564E+027.4257618848E+01+
*       5.4295690940E+02               0
GRID*               6152               01.0455838966E+028.0127638027E+01+
*       5.3676841426E+02               0
GRID*               6153               01.0455872249E+028.0127973870E+01+
*       5.3470656799E+02               0
GRID*               6154               01.0455868275E+028.0128068205E+01+
*       5.3264453363E+02               0
GRID*               6155               01.0455867812E+028.0128077324E+01+
*       5.3058237896E+02               0
GRID*               6156               01.0455870823E+028.0128002148E+01+
*       5.2852018460E+02               0
GRID*               6157               01.0455873044E+028.0127946281E+01+
*       5.2645805262E+02               0
GRID*               6158               01.0455876926E+028.0127850156E+01+
*       5.2439598181E+02               0
GRID*               6159               01.0455878889E+028.0127800777E+01+
*       5.2233401501E+02               0
GRID*               6160               01.0455872150E+028.0127963037E+01+
*       5.2027228807E+02               0
GRID*               6161               09.6237787597E+018.0133382511E+01+
*       5.2645928079E+02               0
GRID*               6162               09.7215626115E+018.1598369880E+01+
*       5.2749012162E+02               0
GRID*               6163               09.8677066700E+018.2574201686E+01+
*       5.2852098053E+02               0
GRID*               6164               01.0040079054E+028.2915914937E+01+
*       5.2955180540E+02               0
GRID*               6165               01.0212374303E+028.2571492689E+01+
*       5.3058260107E+02               0
GRID*               6166               01.0358316092E+028.1593851144E+01+
*       5.3161347050E+02               0
GRID*               6167               09.8677352127E+018.2574319785E+01+
*       5.2439610853E+02               0
GRID*               6168               01.0040117120E+028.2915914608E+01+
*       5.2542697986E+02               0
GRID*               6169               01.0212411749E+028.2571337015E+01+
*       5.2645794586E+02               0
GRID*               6170               01.0358341323E+028.1593598177E+01+
*       5.2748902505E+02               0
GRID*               6171               01.0358367956E+028.1593331105E+01+
*       5.2336472399E+02               0
GRID*               6172               01.0212423782E+028.2571286969E+01+
*       5.2439574298E+02               0
GRID*               6173               01.0358349860E+028.1593512575E+01+
*       5.2542686350E+02               0
GRID*               6174               01.0358368331E+028.1593327338E+01+
*       5.2130291380E+02               0
GRID*               6175               01.0212429739E+028.2571262173E+01+
*       5.2233379024E+02               0
GRID*               6176               01.0040119778E+028.2915914584E+01+
*       5.2336488671E+02               0
GRID*               6177               01.0358325060E+028.1593761239E+01+
*       5.2955126041E+02               0
GRID*               6178               01.0212385886E+028.2571444524E+01+
*       5.2852027898E+02               0
GRID*               6179               01.0040090118E+028.2915914844E+01+
*       5.2748935380E+02               0
GRID*               6180               09.7215672717E+018.1598416468E+01+
*       5.2542760803E+02               0
GRID*               6181               09.8677120689E+018.2574224043E+01+
*       5.2645847448E+02               0
GRID*               6182               09.6241147935E+017.6690693580E+01+
*       5.2852257239E+02               0
GRID*               6183               09.5897300859E+017.8412450225E+01+
*       5.2749100413E+02               0
GRID*               6184               01.0358309872E+028.1593913500E+01+
*       5.3367553308E+02               0
GRID*               6185               01.0212357072E+028.2571564360E+01+
*       5.3470658262E+02               0
GRID*               6186               01.0358312597E+028.1593886186E+01+
*       5.3573730063E+02               0
GRID*               6187               09.7215435012E+018.1598178823E+01+
*       5.3161490128E+02               0
GRID*               6188               09.8676867470E+018.2574119254E+01+
*       5.3058330753E+02               0
GRID*               6189               09.6237723457E+018.0133229172E+01+
*       5.2852181372E+02               0
GRID*               6190               09.7215493742E+018.1598237541E+01+
*       5.2955250648E+02               0
GRID*               6191               09.5897303694E+017.8412449830E+01+
*       5.2955344538E+02               0
GRID*               6192               09.6236995655E+018.0133311271E+01+
*       5.3058410451E+02               0
GRID*               6193               01.0040057367E+028.2915915110E+01+
*       5.3161398393E+02               0
GRID*               6194               01.0212357068E+028.2571564332E+01+
*       5.3264464984E+02               0
GRID*               6195               01.0040047835E+028.2915915182E+01+
*       5.3367589723E+02               0
GRID*               6196               09.8676745748E+018.2574068880E+01+
*       5.3264531151E+02               0
GRID*               6197               01.0211693293E+027.4257580473E+01+
*       5.3677130876E+02               0
GRID*               6198               01.0357494049E+027.5229769296E+01+
*       5.3780114432E+02               0
GRID*               6199               01.0455093652E+027.6688104245E+01+
*       5.3883107637E+02               0
GRID*               6200               01.0211710435E+027.4257651391E+01+
*       5.4089514026E+02               0
GRID*               6201               01.0357510286E+027.5229931248E+01+
*       5.3986291657E+02               0
GRID*               6202               01.0211721653E+027.4257697769E+01+
*       5.3883325062E+02               0
GRID*               6203               01.0455172255E+027.6687335939E+01+
*       5.1821156462E+02               0
GRID*               6204               01.0357481592E+027.5229645057E+01+
*       5.1924345943E+02               0
GRID*               6205               01.0211674833E+027.4257503802E+01+
*       5.2027560929E+02               0
GRID*               6206               01.0211663208E+027.4257455577E+01+
*       5.1615191897E+02               0
GRID*               6207               01.0357497148E+027.5229800202E+01+
*       5.1718175113E+02               0
GRID*               6208               01.0211685572E+027.4257548137E+01+
*       5.1821378520E+02               0
GRID*               6209               01.0357503792E+027.5229866471E+01+
*       5.3573912558E+02               0
GRID*               6210               01.0455102293E+027.6688171299E+01+
*       5.3470722933E+02               0
GRID*               6211               01.0489705857E+027.8406814570E+01+
*       5.3367568984E+02               0
GRID*               6212               01.0489709229E+027.8406795762E+01+
*       5.3573771042E+02               0
GRID*               6213               01.0489715094E+027.8406650405E+01+
*       5.3779952006E+02               0
GRID*               6214               01.0455069856E+027.6688551430E+01+
*       5.3676921114E+02               0
GRID*               6215               01.0489690982E+027.8405903326E+01+
*       5.2336535471E+02               0
GRID*               6216               01.0455195561E+027.6687362660E+01+
*       5.2233519067E+02               0
GRID*               6217               01.0357496227E+027.5229791018E+01+
*       5.2130533089E+02               0
GRID*               6218               01.0489686903E+027.8405907012E+01+
*       5.2130351407E+02               0
GRID*               6219               01.0489683451E+027.8405904147E+01+
*       5.1924178278E+02               0
GRID*               6220               01.0455199303E+027.6687648136E+01+
*       5.2027347480E+02               0
GRID*               6221               01.0211691022E+027.4257571001E+01+
*       5.3058518324E+02               0
GRID*               6222               01.0357503524E+027.5229863801E+01+
*       5.3161498555E+02               0
GRID*               6223               01.0455195699E+027.6687998321E+01+
*       5.3264516865E+02               0
GRID*               6224               01.0211712713E+027.4257660758E+01+
*       5.3470928669E+02               0
GRID*               6225               01.0357524945E+027.5230077472E+01+
*       5.3367712556E+02               0
GRID*               6226               01.0211722344E+027.4257700566E+01+
*       5.3264728910E+02               0
GRID*               6227               01.0357505142E+027.5229879935E+01+
*       5.2955296596E+02               0
GRID*               6228               01.0455218024E+027.6687678107E+01+
*       5.2852098719E+02               0
GRID*               6229               01.0489699361E+027.8406478742E+01+
*       5.2748937830E+02               0
GRID*               6230               01.0489702870E+027.8406771589E+01+
*       5.2955149589E+02               0
GRID*               6231               01.0489705142E+027.8406982104E+01+
*       5.3161363490E+02               0
GRID*               6232               01.0455221907E+027.6688061980E+01+
*       5.3058315322E+02               0
GRID*               6233               01.0211681991E+027.4257533522E+01+
*       5.2439939264E+02               0
GRID*               6234               01.0357496750E+027.5229796232E+01+
*       5.2542908068E+02               0
GRID*               6235               01.0455227596E+027.6687740412E+01+
*       5.2645904480E+02               0
GRID*               6236               01.0211705178E+027.4257629501E+01+
*       5.2852328061E+02               0
GRID*               6237               01.0357520869E+027.5230036807E+01+
*       5.2749109115E+02               0
GRID*               6238               01.0211711877E+027.4257657162E+01+
*       5.2646137347E+02               0
GRID*               6239               01.0357506501E+027.5229893494E+01+
*       5.2336722562E+02               0
GRID*               6240               01.0211699084E+027.4257604153E+01+
*       5.2233753312E+02               0
GRID*               6241               01.0455224892E+027.6687775892E+01+
*       5.2439714480E+02               0
GRID*               6242               01.0489695125E+027.8406469715E+01+
*       5.2542741027E+02               0
GRID*               6243               01.0357427941E+027.5229110107E+01+
*       5.6459931915E+02               0
GRID*               6244               01.0455165411E+027.6686648285E+01+
*       5.6356394255E+02               0
GRID*               6245               01.0489760941E+027.8403894059E+01+
*       5.6252982882E+02               0
GRID*               6246               01.0456000593E+028.0124776935E+01+
*       5.6149692707E+02               0
GRID*               6247               01.0358489697E+028.1592109722E+01+
*       5.6046492014E+02               0
GRID*               6248               01.0212605184E+028.2570533347E+01+
*       5.5943380738E+02               0
GRID*               6249               01.0040317004E+028.2915912327E+01+
*       5.5840343817E+02               0
GRID*               6250               09.8679047729E+018.2575020586E+01+
*       5.5737363925E+02               0
GRID*               6251               09.7216907372E+018.1599650228E+01+
*       5.5634427980E+02               0
GRID*               6252               09.6237955893E+018.0133569103E+01+
*       5.5531528890E+02               0
GRID*               6253               09.5898812965E+017.8413282409E+01+
*       5.5428649762E+02               0
GRID*               6254               09.6240761308E+017.6691237368E+01+
*       5.5325806443E+02               0
GRID*               6255               09.7217745895E+017.5231352897E+01+
*       5.5222965313E+02               0
GRID*               6256               09.8676991065E+017.4257724005E+01+
*       5.5120129256E+02               0
GRID*               6257               09.6237882926E+018.0133365575E+01+
*       5.5737606856E+02               0
GRID*               6258               09.6237764777E+018.0133059923E+01+
*       5.5943690346E+02               0
GRID*               6259               09.6237613952E+018.0132686142E+01+
*       5.6149767162E+02               0
GRID*               6260               09.6237413683E+018.0132208516E+01+
*       5.6355827474E+02               0
GRID*               6261               09.6237160171E+018.0131624007E+01+
*       5.6561868482E+02               0
GRID*               6262               09.6238531706E+018.0130535541E+01+
*       5.6767886631E+02               0
GRID*               6263               09.6238511959E+018.0129981563E+01+
*       5.6973892383E+02               0
GRID*               6264               09.6236750986E+018.0130218247E+01+
*       5.7179902274E+02               0
GRID*               6265               09.6236694512E+018.0130740708E+01+
*       5.7385924362E+02               0
GRID*               6266               01.0455983580E+028.0125145389E+01+
*       5.6767911226E+02               0
GRID*               6267               01.0358434361E+028.1592665006E+01+
*       5.6664657203E+02               0
GRID*               6268               01.0212522429E+028.2570877715E+01+
*       5.6561517712E+02               0
GRID*               6269               01.0040217033E+028.2915913575E+01+
*       5.6458474778E+02               0
GRID*               6270               09.8678095152E+018.2574627193E+01+
*       5.6355511856E+02               0
GRID*               6271               09.7216288883E+018.1599032309E+01+
*       5.6252610189E+02               0
GRID*               6272               01.0212463615E+028.2571122335E+01+
*       5.6973575919E+02               0
GRID*               6273               01.0040140378E+028.2915914381E+01+
*       5.6870513699E+02               0
GRID*               6274               09.8677315551E+018.2574305070E+01+
*       5.6767552542E+02               0
GRID*               6275               09.7215671717E+018.1598415467E+01+
*       5.6664672438E+02               0
GRID*               6276               09.8676965300E+018.2574160468E+01+
*       5.7179562671E+02               0
GRID*               6277               09.7215174150E+018.1597917985E+01+
*       5.7076684303E+02               0
GRID*               6278               09.7215384178E+018.1598127997E+01+
*       5.7282695979E+02               0
GRID*               6279               01.0040122182E+028.2915914552E+01+
*       5.7076531779E+02               0
GRID*               6280               09.8677016122E+018.2574181349E+01+
*       5.6973561324E+02               0
GRID*               6281               09.7215383806E+018.1598127625E+01+
*       5.6870681326E+02               0
GRID*               6282               01.0040170112E+028.2915914084E+01+
*       5.6664499553E+02               0
GRID*               6283               09.7215969760E+018.1598713384E+01+
*       5.6458647510E+02               0
GRID*               6284               09.8677628701E+018.2574434455E+01+
*       5.6561536651E+02               0
GRID*               6285               01.0358410508E+028.1592904303E+01+
*       5.6870712201E+02               0
GRID*               6286               01.0212479796E+028.2571055027E+01+
*       5.6767555900E+02               0
GRID*               6287               09.7216550353E+018.1599293568E+01+
*       5.6046554048E+02               0
GRID*               6288               09.8678733927E+018.2574891012E+01+
*       5.5943417241E+02               0
GRID*               6289               09.7216697179E+018.1599440256E+01+
*       5.5840491626E+02               0
GRID*               6290               01.0455178414E+027.6686953759E+01+
*       5.6562527732E+02               0
GRID*               6291               01.0489755264E+027.8404331861E+01+
*       5.6665187207E+02               0
GRID*               6292               01.0455992504E+028.0124952079E+01+
*       5.6355772707E+02               0
GRID*               6293               01.0358450940E+028.1592498657E+01+
*       5.6458611802E+02               0
GRID*               6294               01.0455981896E+028.0125193575E+01+
*       5.6561853271E+02               0
GRID*               6295               01.0489758611E+027.8404345007E+01+
*       5.6459098939E+02               0
GRID*               6296               01.0358465717E+028.1592350378E+01+
*       5.6252559699E+02               0
GRID*               6297               01.0212542014E+028.2570796224E+01+
*       5.6355485229E+02               0
GRID*               6298               01.0040278519E+028.2915912834E+01+
*       5.6046395107E+02               0
GRID*               6299               01.0212564665E+028.2570701964E+01+
*       5.6149440228E+02               0
GRID*               6300               01.0040236551E+028.2915913349E+01+
*       5.6252442709E+02               0
GRID*               6301               09.8678321108E+018.2574720500E+01+
*       5.6149468942E+02               0
GRID*               6302               09.8677164457E+017.4257652291E+01+
*       5.5738601473E+02               0
GRID*               6303               09.7217783160E+017.5231315692E+01+
*       5.5635227223E+02               0
GRID*               6304               09.6240673499E+017.6691444551E+01+
*       5.5531913664E+02               0
GRID*               6305               09.8676909037E+017.4257757953E+01+
*       5.5326280496E+02               0
GRID*               6306               09.7217511447E+017.5231586979E+01+
*       5.5429091373E+02               0
GRID*               6307               09.8676809108E+017.4257799312E+01+
*       5.5532437795E+02               0
GRID*               6308               09.6240780211E+017.6691144237E+01+
*       5.7592737235E+02               0
GRID*               6309               09.7218480413E+017.5230619744E+01+
*       5.7490217478E+02               0
GRID*               6310               09.8677511141E+017.4257509030E+01+
*       5.7387754513E+02               0
GRID*               6311               09.8676013330E+017.4258128865E+01+
*       5.7800026166E+02               0
GRID*               6312               09.7217013879E+017.5232083887E+01+
*       5.7696319814E+02               0
GRID*               6313               09.8676730376E+017.4257832054E+01+
*       5.7593890207E+02               0
GRID*               6314               09.7217788663E+017.5231310199E+01+
*       5.5841371382E+02               0
GRID*               6315               09.6240773700E+017.6691193357E+01+
*       5.5944154696E+02               0
GRID*               6316               09.5898042963E+017.8412221917E+01+
*       5.6046944382E+02               0
GRID*               6317               09.5898426711E+017.8412857452E+01+
*       5.5840840983E+02               0
GRID*               6318               09.6240626017E+017.6691554287E+01+
*       5.5738028149E+02               0
GRID*               6319               09.5898698135E+017.8413375954E+01+
*       5.5634741445E+02               0
GRID*               6320               09.5897228292E+017.8409386994E+01+
*       5.7077203802E+02               0
GRID*               6321               09.6241320440E+017.6689848967E+01+
*       5.7180609995E+02               0
GRID*               6322               09.7218548397E+017.5230551904E+01+
*       5.7284124768E+02               0
GRID*               6323               09.5897059577E+017.8409547838E+01+
*       5.7283232957E+02               0
GRID*               6324               09.6241043783E+017.6690511942E+01+
*       5.7386669261E+02               0
GRID*               6325               09.5896893951E+017.8410852491E+01+
*       5.7489278320E+02               0
GRID*               6326               09.8677336190E+017.4257581292E+01+
*       5.6357081866E+02               0
GRID*               6327               09.7218025407E+017.5231073865E+01+
*       5.6253643370E+02               0
GRID*               6328               09.6240777364E+017.6691179573E+01+
*       5.6150263103E+02               0
GRID*               6329               09.8677000895E+017.4257719975E+01+
*       5.5944761943E+02               0
GRID*               6330               09.7217676892E+017.5231421788E+01+
*       5.6047501679E+02               0
GRID*               6331               09.8676946015E+017.4257742697E+01+
*       5.6150916608E+02               0
GRID*               6332               09.7218121548E+017.5230977900E+01+
*       5.6459758799E+02               0
GRID*               6333               09.6241003451E+017.6690625036E+01+
*       5.6562447115E+02               0
GRID*               6334               09.5897263412E+017.8410408728E+01+
*       5.6665148740E+02               0
GRID*               6335               09.5897290849E+017.8410997285E+01+
*       5.6459098240E+02               0
GRID*               6336               09.5897612982E+017.8411730285E+01+
*       5.6253024817E+02               0
GRID*               6337               09.6240782875E+017.6691161374E+01+
*       5.6356351288E+02               0
GRID*               6338               09.8677546487E+017.4257494366E+01+
*       5.6975490585E+02               0
GRID*               6339               09.7218439308E+017.5230660765E+01+
*       5.6871950054E+02               0
GRID*               6340               09.6241046835E+017.6690515962E+01+
*       5.6768503211E+02               0
GRID*               6341               09.8677221875E+017.4257628599E+01+
*       5.6563217255E+02               0
GRID*               6342               09.7218069725E+017.5231029626E+01+
*       5.6665849206E+02               0
GRID*               6343               09.8677190278E+017.4257641689E+01+
*       5.6769350783E+02               0
GRID*               6344               09.7218424895E+017.5230675147E+01+
*       5.7078034413E+02               0
GRID*               6345               09.8677335222E+017.4257581771E+01+
*       5.7181620556E+02               0
GRID*               6346               09.6241091438E+017.6690404284E+01+
*       5.6974555428E+02               0
GRID*               6347               09.5897277922E+017.8410184592E+01+
*       5.6871174236E+02               0
GRID*               6348               09.8677031517E+017.4257707263E+01+
*       5.4707844246E+02               0
GRID*               6349               09.7217699987E+017.5231398731E+01+
*       5.4604641611E+02               0
GRID*               6350               09.6240792810E+017.6691175339E+01+
*       5.4501480499E+02               0
GRID*               6351               09.5897284312E+017.8412527128E+01+
*       5.4398349417E+02               0
GRID*               6352               09.6237825088E+018.0133431205E+01+
*       5.4295232818E+02               0
GRID*               6353               09.7216167979E+018.1598911488E+01+
*       5.4192138158E+02               0
GRID*               6354               09.8677623342E+018.2574431780E+01+
*       5.4089064723E+02               0
GRID*               6355               01.0040119796E+028.2915914580E+01+
*       5.3986005827E+02               0
GRID*               6356               01.0212396457E+028.2571400821E+01+
*       5.3882948219E+02               0
GRID*               6357               09.8677270768E+017.4257608295E+01+
*       5.4089416406E+02               0
GRID*               6358               09.7218072194E+017.5231027165E+01+
*       5.3986312629E+02               0
GRID*               6359               09.6241522536E+017.6690535412E+01+
*       5.3883217056E+02               0
GRID*               6360               09.5897303832E+017.8411949913E+01+
*       5.3780108343E+02               0
GRID*               6361               09.6237531011E+018.0132759977E+01+
*       5.3676980319E+02               0
GRID*               6362               09.7215447505E+018.1598191313E+01+
*       5.3573847296E+02               0
GRID*               6363               09.8677254527E+017.4257615044E+01+
*       5.3677094463E+02               0
GRID*               6364               09.7218101654E+017.5230997760E+01+
*       5.3574016607E+02               0
GRID*               6365               09.6241824419E+017.6690615573E+01+
*       5.3470918833E+02               0
GRID*               6366               09.5897306471E+017.8412109798E+01+
*       5.3367789196E+02               0
GRID*               6367               09.8677161405E+017.4257653615E+01+
*       5.3264724452E+02               0
GRID*               6368               09.7217944787E+017.5231154344E+01+
*       5.3161623727E+02               0
GRID*               6369               09.8676924082E+017.4257751833E+01+
*       5.3058515512E+02               0
GRID*               6370               09.6241039896E+017.6690644282E+01+
*       5.3264705440E+02               0
GRID*               6371               09.7217804192E+017.5231294698E+01+
*       5.3367809381E+02               0
GRID*               6372               09.8676949451E+017.4257741282E+01+
*       5.3470898864E+02               0
GRID*               6373               09.6241967669E+017.6690919948E+01+
*       5.3677063225E+02               0
GRID*               6374               09.5897305822E+017.8412227691E+01+
*       5.3573943891E+02               0
GRID*               6375               09.6237581866E+018.0132885424E+01+
*       5.3470807765E+02               0
GRID*               6376               09.7217845619E+017.5231253340E+01+
*       5.3780151156E+02               0
GRID*               6377               09.8676985437E+017.4257726357E+01+
*       5.3883242935E+02               0
GRID*               6378               09.5897299679E+017.8412134683E+01+
*       5.3986200843E+02               0
GRID*               6379               09.6237687005E+018.0133116092E+01+
*       5.4089163095E+02               0
GRID*               6380               09.7215592175E+018.1598335950E+01+
*       5.3779970974E+02               0
GRID*               6381               09.8677175647E+018.2574246658E+01+
*       5.3882977556E+02               0
GRID*               6382               01.0040076843E+028.2915914953E+01+
*       5.3779892974E+02               0
GRID*               6383               09.8676883204E+018.2574125710E+01+
*       5.3676855713E+02               0
GRID*               6384               09.7215805929E+018.1598549630E+01+
*       5.3986058356E+02               0
GRID*               6385               09.6237607373E+018.0132936899E+01+
*       5.3883068109E+02               0
GRID*               6386               09.6240615437E+017.6690695124E+01+
*       5.4089302738E+02               0
GRID*               6387               09.5897293165E+017.8412494728E+01+
*       5.4192267347E+02               0
GRID*               6388               09.8677031570E+017.4257707248E+01+
*       5.4295554967E+02               0
GRID*               6389               09.7217715118E+017.5231383625E+01+
*       5.4192412618E+02               0
GRID*               6390               09.6240692796E+017.6691241774E+01+
*       5.4295380486E+02               0
GRID*               6391               09.7217480624E+017.5231617758E+01+
*       5.4398517845E+02               0
GRID*               6392               09.8676767198E+017.4257816638E+01+
*       5.4501691555E+02               0
GRID*               6393               01.0211687104E+027.4257554924E+01+
*       5.4708008018E+02               0
GRID*               6394               01.0357462143E+027.5229451107E+01+
*       5.4810818442E+02               0
GRID*               6395               01.0455177810E+027.6686994841E+01+
*       5.4913634989E+02               0
GRID*               6396               01.0489755872E+027.8404717041E+01+
*       5.5016478886E+02               0
GRID*               6397               01.0455980399E+028.0125372074E+01+
*       5.5119369823E+02               0
GRID*               6398               01.0358492119E+028.1592085420E+01+
*       5.5222289295E+02               0
GRID*               6399               01.0212622399E+028.2570461587E+01+
*       5.5325254572E+02               0
GRID*               6400               01.0040333752E+028.2915912097E+01+
*       5.5428261953E+02               0
GRID*               6401               09.8679067447E+018.2575028682E+01+
*       5.5531318428E+02               0
GRID*               6402               01.0211668868E+027.4257479512E+01+
*       5.5326478841E+02               0
GRID*               6403               01.0357429368E+027.5229124330E+01+
*       5.5429164104E+02               0
GRID*               6404               01.0455155871E+027.6686448214E+01+
*       5.5531889423E+02               0
GRID*               6405               01.0489763428E+027.8403920682E+01+
*       5.5634679792E+02               0
GRID*               6406               01.0456000062E+028.0124836944E+01+
*       5.5737536576E+02               0
GRID*               6407               01.0358492949E+028.1592077089E+01+
*       5.5840432251E+02               0
GRID*               6408               01.0211667827E+027.4257475183E+01+
*       5.5738839006E+02               0
GRID*               6409               01.0357424979E+027.5229080575E+01+
*       5.5841466278E+02               0
GRID*               6410               01.0455159991E+027.6686532682E+01+
*       5.5944144669E+02               0
GRID*               6411               01.0489762801E+027.8403988350E+01+
*       5.6046890132E+02               0
GRID*               6412               01.0211674141E+027.4257501257E+01+
*       5.6151215931E+02               0
GRID*               6413               01.0357438194E+027.5229212325E+01+
*       5.6253786103E+02               0
GRID*               6414               01.0211691623E+027.4257573523E+01+
*       5.6357411853E+02               0
GRID*               6415               01.0455173491E+027.6686849751E+01+
*       5.6150285879E+02               0
GRID*               6416               01.0357449671E+027.5229326749E+01+
*       5.6047639677E+02               0
GRID*               6417               01.0211691481E+027.4257572972E+01+
*       5.5945037518E+02               0
GRID*               6418               01.0455165430E+027.6686670749E+01+
*       5.5738027479E+02               0
GRID*               6419               01.0489763711E+027.8404152187E+01+
*       5.5840797786E+02               0
GRID*               6420               01.0455991648E+028.0125017727E+01+
*       5.5943629566E+02               0
GRID*               6421               01.0357446410E+027.5229294241E+01+
*       5.5635328437E+02               0
GRID*               6422               01.0211689459E+027.4257564639E+01+
*       5.5532669423E+02               0
GRID*               6423               01.0489762148E+027.8404164528E+01+
*       5.5428599435E+02               0
GRID*               6424               01.0455986659E+028.0125204051E+01+
*       5.5325416544E+02               0
GRID*               6425               01.0358495946E+028.1592047005E+01+
*       5.5634374143E+02               0
GRID*               6426               01.0212612507E+028.2570502792E+01+
*       5.5531289704E+02               0
GRID*               6427               01.0212601010E+028.2570550675E+01+
*       5.5737336938E+02               0
GRID*               6428               01.0040307838E+028.2915912452E+01+
*       5.5634303760E+02               0
GRID*               6429               01.0358486904E+028.1592137753E+01+
*       5.5428331484E+02               0
GRID*               6430               01.0455988055E+028.0125150702E+01+
*       5.5531481977E+02               0
GRID*               6431               01.0455168368E+027.6686755455E+01+
*       5.5325802251E+02               0
GRID*               6432               01.0489759626E+027.8404612947E+01+
*       5.5222547305E+02               0
GRID*               6433               01.0211687435E+027.4257556287E+01+
*       5.5120322774E+02               0
GRID*               6434               01.0357458659E+027.5229416375E+01+
*       5.5223054281E+02               0
GRID*               6435               01.0455182631E+027.6687104777E+01+
*       5.5119729435E+02               0
GRID*               6436               01.0357478899E+027.5229618209E+01+
*       5.5016944702E+02               0
GRID*               6437               01.0211707908E+027.4257640952E+01+
*       5.4914172793E+02               0
GRID*               6438               09.6238030776E+018.0133781160E+01+
*       5.5325467541E+02               0
GRID*               6439               09.6238021040E+018.0133790554E+01+
*       5.5119416965E+02               0
GRID*               6440               09.6237975521E+018.0133713178E+01+
*       5.4913375078E+02               0
GRID*               6441               09.6237949726E+018.0133681438E+01+
*       5.4707331032E+02               0
GRID*               6442               09.6237922133E+018.0133642231E+01+
*       5.4501280325E+02               0
GRID*               6443               09.5898022660E+017.8412854273E+01+
*       5.4810459778E+02               0
GRID*               6444               09.6240775663E+017.6691210709E+01+
*       5.4913633582E+02               0
GRID*               6445               09.7217588715E+017.5231509829E+01+
*       5.5016851860E+02               0
GRID*               6446               09.5898461937E+017.8413298776E+01+
*       5.5016512172E+02               0
GRID*               6447               09.6240630027E+017.6691558040E+01+
*       5.5119714480E+02               0
GRID*               6448               09.5898736137E+017.8413600649E+01+
*       5.5222576510E+02               0
GRID*               6449               09.7217506757E+017.5231591663E+01+
*       5.4810742182E+02               0
GRID*               6450               09.8676748568E+017.4257824347E+01+
*       5.4913982471E+02               0
GRID*               6451               09.6240662452E+017.6691486880E+01+
*       5.4707551742E+02               0
GRID*               6452               09.5897542970E+017.8412862810E+01+
*       5.4604398717E+02               0
GRID*               6453               01.0455823002E+028.0126893898E+01+
*       5.4089126147E+02               0
GRID*               6454               01.0455906741E+028.0126719690E+01+
*       5.4295218477E+02               0
GRID*               6455               01.0455939481E+028.0126388727E+01+
*       5.4501276564E+02               0
GRID*               6456               01.0455952647E+028.0126065916E+01+
*       5.4707312599E+02               0
GRID*               6457               01.0455963669E+028.0125790583E+01+
*       5.4913345604E+02               0
GRID*               6458               01.0357474296E+027.5229572301E+01+
*       5.4604715252E+02               0
GRID*               6459               01.0455187635E+027.6687240782E+01+
*       5.4501493126E+02               0
GRID*               6460               01.0489737787E+027.8405693730E+01+
*       5.4398326741E+02               0
GRID*               6461               01.0455189946E+027.6687291859E+01+
*       5.4707570017E+02               0
GRID*               6462               01.0489744716E+027.8405529111E+01+
*       5.4604388552E+02               0
GRID*               6463               01.0489750798E+027.8405293609E+01+
*       5.4810442108E+02               0
GRID*               6464               01.0357494492E+027.5229773715E+01+
*       5.4398593921E+02               0
GRID*               6465               01.0211714932E+027.4257670000E+01+
*       5.4501854150E+02               0
GRID*               6466               01.0455202429E+027.6687599995E+01+
*       5.4295388461E+02               0
GRID*               6467               01.0489730082E+027.8406149135E+01+
*       5.4192229375E+02               0
GRID*               6468               01.0212606314E+028.2570528480E+01+
*       5.5119235396E+02               0
GRID*               6469               01.0040320160E+028.2915912287E+01+
*       5.5016218735E+02               0
GRID*               6470               09.8679023826E+018.2575010568E+01+
*       5.4913231541E+02               0
GRID*               6471               09.7216818721E+018.1599561675E+01+
*       5.4810267576E+02               0
GRID*               6472               09.7217014497E+018.1599757231E+01+
*       5.5222335442E+02               0
GRID*               6473               09.8679065346E+018.2575027742E+01+
*       5.5119254058E+02               0
GRID*               6474               09.7216863928E+018.1599606833E+01+
*       5.5016299187E+02               0
GRID*               6475               09.7216924607E+018.1599667445E+01+
*       5.5428377442E+02               0
GRID*               6476               01.0040314954E+028.2915912357E+01+
*       5.5222237192E+02               0
GRID*               6477               09.8678981394E+018.2574993097E+01+
*       5.5325282747E+02               0
GRID*               6478               01.0358402946E+028.1592980159E+01+
*       5.4398179540E+02               0
GRID*               6479               01.0212519047E+028.2570891363E+01+
*       5.4501162571E+02               0
GRID*               6480               01.0040254678E+028.2915913137E+01+
*       5.4604168001E+02               0
GRID*               6481               09.8678668131E+018.2574863610E+01+
*       5.4707199903E+02               0
GRID*               6482               01.0212549911E+028.2570763046E+01+
*       5.4707192799E+02               0
GRID*               6483               01.0358447473E+028.1592533446E+01+
*       5.4810247916E+02               0
GRID*               6484               01.0358420066E+028.1592808422E+01+
*       5.4604216334E+02               0
GRID*               6485               01.0358464028E+028.1592367329E+01+
*       5.5016271343E+02               0
GRID*               6486               01.0212568253E+028.2570686791E+01+
*       5.4913215341E+02               0
GRID*               6487               01.0040270021E+028.2915912946E+01+
*       5.4810192157E+02               0
GRID*               6488               01.0212434254E+028.2571243796E+01+
*       5.4089044632E+02               0
GRID*               6489               01.0358371174E+028.1593298828E+01+
*       5.4192109416E+02               0
GRID*               6490               01.0358344901E+028.1593562298E+01+
*       5.3986012140E+02               0
GRID*               6491               01.0040161633E+028.2915914177E+01+
*       5.4192072580E+02               0
GRID*               6492               01.0212467135E+028.2571107166E+01+
*       5.4295106338E+02               0
GRID*               6493               09.7216431883E+018.1599175199E+01+
*       5.4398185151E+02               0
GRID*               6494               09.8677954565E+018.2574568708E+01+
*       5.4295116528E+02               0
GRID*               6495               09.7216598134E+018.1599341307E+01+
*       5.4604226115E+02               0
GRID*               6496               09.8678265990E+018.2574697429E+01+
*       5.4501160046E+02               0
GRID*               6497               01.0040193620E+028.2915913841E+01+
*       5.4398119856E+02               0
GRID*               6498               01.0211672979E+027.4257495438E+01+
*       4.7903942169E+02               0
GRID*               6499               01.0357575232E+027.5230579190E+01+
*       4.8007060944E+02               0
GRID*               6500               01.0455235434E+027.6689425972E+01+
*       4.8110170748E+02               0
GRID*               6501               01.0489703385E+027.8410188503E+01+
*       4.8213282330E+02               0
GRID*               6502               01.0455658370E+028.0133132834E+01+
*       4.8316407250E+02               0
GRID*               6503               01.0358057048E+028.1596446068E+01+
*       4.8419502604E+02               0
GRID*               6504               01.0211994683E+028.2573067193E+01+
*       4.8522594455E+02               0
GRID*               6505               01.0039654881E+028.2915916404E+01+
*       4.8625685635E+02               0
GRID*               6506               09.8673244459E+018.2572619539E+01+
*       4.8728781856E+02               0
GRID*               6507               09.7212936727E+018.1595679013E+01+
*       4.8831888588E+02               0
GRID*               6508               09.6237237344E+018.0132031027E+01+
*       4.8935007010E+02               0
GRID*               6509               09.5897201766E+017.8410210966E+01+
*       4.9038123974E+02               0
GRID*               6510               09.6241728966E+017.6689007211E+01+
*       4.9141216999E+02               0
GRID*               6511               09.7218587883E+017.5230512513E+01+
*       4.9244279713E+02               0
GRID*               6512               09.8676846439E+017.4257784797E+01+
*       4.9347297357E+02               0
GRID*               6513               09.7218427778E+017.5230672279E+01+
*       4.9450508418E+02               0
GRID*               6514               09.6241548875E+017.6689437924E+01+
*       4.9553705623E+02               0
GRID*               6515               09.5897217332E+017.8411075487E+01+
*       4.9656874496E+02               0
GRID*               6516               09.6237613538E+018.0132944646E+01+
*       4.9760001093E+02               0
GRID*               6517               09.7214195200E+018.1596938744E+01+
*       4.9863105161E+02               0
GRID*               6518               09.8675232205E+018.2573442993E+01+
*       4.9966200160E+02               0
GRID*               6519               01.0039902965E+028.2915916039E+01+
*       5.0069279376E+02               0
GRID*               6520               01.0212246783E+028.2572021730E+01+
*       5.0172347950E+02               0
GRID*               6521               01.0358257425E+028.1594439197E+01+
*       5.0275407646E+02               0
GRID*               6522               01.0455798221E+028.0129749166E+01+
*       5.0378455639E+02               0
GRID*               6523               01.0489689862E+027.8407003621E+01+
*       5.0481466138E+02               0
GRID*               6524               01.0455184608E+027.6687959487E+01+
*       5.0584483830E+02               0
GRID*               6525               01.0357506834E+027.5229896811E+01+
*       5.0687514673E+02               0
GRID*               6526               01.0211660865E+027.4257445596E+01+
*       5.0790561052E+02               0
GRID*               6527               01.0455780819E+028.0130170619E+01+
*       5.0172300064E+02               0
GRID*               6528               01.0455767234E+028.0130499398E+01+
*       4.9966131891E+02               0
GRID*               6529               01.0455754471E+028.0130808208E+01+
*       4.9759945005E+02               0
GRID*               6530               01.0455745074E+028.0131035342E+01+
*       4.9553745163E+02               0
GRID*               6531               01.0455734631E+028.0131287853E+01+
*       4.9347525405E+02               0
GRID*               6532               01.0455720254E+028.0131635743E+01+
*       4.9141287466E+02               0
GRID*               6533               01.0455708878E+028.0131910834E+01+
*       4.8935049188E+02               0
GRID*               6534               01.0455694965E+028.0132247414E+01+
*       4.8728816119E+02               0
GRID*               6535               01.0455674658E+028.0132738861E+01+
*       4.8522601337E+02               0
GRID*               6536               01.0358129736E+028.1595718360E+01+
*       4.9038155856E+02               0
GRID*               6537               01.0212097713E+028.2572640107E+01+
*       4.9141271512E+02               0
GRID*               6538               01.0039768213E+028.2915916409E+01+
*       4.9244393988E+02               0
GRID*               6539               09.8674245236E+018.2573034266E+01+
*       4.9347522701E+02               0
GRID*               6540               09.7213661144E+018.1596404276E+01+
*       4.9450651033E+02               0
GRID*               6541               09.6237523393E+018.0132725673E+01+
*       4.9553766670E+02               0
GRID*               6542               01.0358172097E+028.1595294106E+01+
*       4.9450634694E+02               0
GRID*               6543               01.0212158580E+028.2572387680E+01+
*       4.9553754633E+02               0
GRID*               6544               01.0039836330E+028.2915916273E+01+
*       4.9656874637E+02               0
GRID*               6545               09.8674895178E+018.2573303452E+01+
*       4.9759988154E+02               0
GRID*               6546               01.0212186937E+028.2572270048E+01+
*       4.9759971244E+02               0
GRID*               6547               01.0358208927E+028.1594925168E+01+
*       4.9863053471E+02               0
GRID*               6548               01.0358188409E+028.1595130714E+01+
*       4.9656847141E+02               0
GRID*               6549               01.0212214381E+028.2572156187E+01+
*       4.9966163181E+02               0
GRID*               6550               01.0358228005E+028.1594734013E+01+
*       5.0069229698E+02               0
GRID*               6551               01.0039867121E+028.2915916177E+01+
*       4.9863076323E+02               0
GRID*               6552               01.0358150779E+028.1595507628E+01+
*       4.9244396496E+02               0
GRID*               6553               01.0212127572E+028.2572516288E+01+
*       4.9347514399E+02               0
GRID*               6554               09.7213949607E+018.1596692985E+01+
*       4.9656875680E+02               0
GRID*               6555               01.0039800521E+028.2915916357E+01+
*       4.9450636615E+02               0
GRID*               6556               09.8674559547E+018.2573164458E+01+
*       4.9553755418E+02               0
GRID*               6557               01.0212031886E+028.2572913005E+01+
*       4.8728801117E+02               0
GRID*               6558               01.0358107890E+028.1595937098E+01+
*       4.8831921357E+02               0
GRID*               6559               01.0358082439E+028.1596191901E+01+
*       4.8625704733E+02               0
GRID*               6560               09.5897211851E+017.8410915160E+01+
*       4.9450624503E+02               0
GRID*               6561               09.6241514733E+017.6689521507E+01+
*       4.9347449212E+02               0
GRID*               6562               09.7213199848E+018.1595942479E+01+
*       4.9038137008E+02               0
GRID*               6563               09.8673914860E+018.2572897389E+01+
*       4.9141265934E+02               0
GRID*               6564               01.0212065313E+028.2572774439E+01+
*       4.8935029823E+02               0
GRID*               6565               01.0039730956E+028.2915916439E+01+
*       4.9038144167E+02               0
GRID*               6566               01.0039694085E+028.2915916439E+01+
*       4.8831908760E+02               0
GRID*               6567               09.8673584129E+018.2572760333E+01+
*       4.8935020324E+02               0
GRID*               6568               09.6237454393E+018.0132557959E+01+
*       4.9347512723E+02               0
GRID*               6569               09.5897206530E+017.8410814133E+01+
*       4.9244364479E+02               0
GRID*               6570               09.7213454025E+018.1596196950E+01+
*       4.9244389048E+02               0
GRID*               6571               09.6237403189E+018.0132433400E+01+
*       4.9141252678E+02               0
GRID*               6572               01.0455229103E+027.6689425456E+01+
*       4.8316353627E+02               0
GRID*               6573               01.0357576311E+027.5230589953E+01+
*       4.8419435318E+02               0
GRID*               6574               01.0211682830E+027.4257536173E+01+
*       4.8522507394E+02               0
GRID*               6575               01.0211693042E+027.4257578422E+01+
*       4.8110122199E+02               0
GRID*               6576               01.0357602441E+027.5230850723E+01+
*       4.8213242428E+02               0
GRID*               6577               01.0211708731E+027.4257643320E+01+
*       4.8316311535E+02               0
GRID*               6578               01.0211653603E+027.4257415425E+01+
*       5.0172058089E+02               0
GRID*               6579               01.0357519283E+027.5230020989E+01+
*       5.0275215109E+02               0
GRID*               6580               01.0455211092E+027.6688125508E+01+
*       5.0378343699E+02               0
GRID*               6581               01.0211667577E+027.4257473302E+01+
*       5.0584398198E+02               0
GRID*               6582               01.0357535074E+027.5230178515E+01+
*       5.0481363408E+02               0
GRID*               6583               01.0211680319E+027.4257525954E+01+
*       5.0378225002E+02               0
GRID*               6584               01.0489704420E+027.8408998539E+01+
*       4.8831911285E+02               0
GRID*               6585               01.0455236856E+027.6688818989E+01+
*       4.8728781241E+02               0
GRID*               6586               01.0357579442E+027.5230621200E+01+
*       4.8625641864E+02               0
GRID*               6587               01.0489703420E+027.8409565394E+01+
*       4.8625679162E+02               0
GRID*               6588               01.0455246024E+027.6689435244E+01+
*       4.8522557609E+02               0
GRID*               6589               01.0489703097E+027.8410146223E+01+
*       4.8419473264E+02               0
GRID*               6590               01.0357534814E+027.5230175923E+01+
*       5.0069041641E+02               0
GRID*               6591               01.0455225891E+027.6688442394E+01+
*       4.9966015364E+02               0
GRID*               6592               01.0489704567E+027.8408475504E+01+
*       4.9862982405E+02               0
GRID*               6593               01.0489700061E+027.8408170831E+01+
*       5.0069153197E+02               0
GRID*               6594               01.0489694996E+027.8407791082E+01+
*       5.0275310257E+02               0
GRID*               6595               01.0455229205E+027.6688493988E+01+
*       5.0172175580E+02               0
GRID*               6596               01.0455241236E+027.6688932994E+01+
*       4.8935004096E+02               0
GRID*               6597               01.0357556796E+027.5230395236E+01+
*       4.9038074899E+02               0
GRID*               6598               01.0211673624E+027.4257498112E+01+
*       4.9141111916E+02               0
GRID*               6599               01.0211690193E+027.4257566634E+01+
*       4.8728706682E+02               0
GRID*               6600               01.0357585942E+027.5230686071E+01+
*       4.8831852014E+02               0
GRID*               6601               01.0211699179E+027.4257603812E+01+
*       4.8934904247E+02               0
GRID*               6602               01.0489708351E+027.8408673649E+01+
*       4.9450600577E+02               0
GRID*               6603               01.0455239724E+027.6688880722E+01+
*       4.9347435782E+02               0
GRID*               6604               01.0357562763E+027.5230454774E+01+
*       4.9244278303E+02               0
GRID*               6605               01.0489707408E+027.8408987789E+01+
*       4.9244368922E+02               0
GRID*               6606               01.0489705885E+027.8409178515E+01+
*       4.9038134791E+02               0
GRID*               6607               01.0455257627E+027.6689326852E+01+
*       4.9141206576E+02               0
GRID*               6608               01.0455242142E+027.6688910727E+01+
*       4.9553632511E+02               0
GRID*               6609               01.0357549631E+027.5230323745E+01+
*       4.9656674936E+02               0
GRID*               6610               01.0211676852E+027.4257511518E+01+
*       4.9759685747E+02               0
GRID*               6611               01.0211684189E+027.4257541826E+01+
*       4.9347303429E+02               0
GRID*               6612               01.0357572738E+027.5230554299E+01+
*       4.9450472046E+02               0
GRID*               6613               01.0211696140E+027.4257591276E+01+
*       4.9553490531E+02               0
GRID*               6614               01.0357557939E+027.5230406640E+01+
*       4.9862855376E+02               0
GRID*               6615               01.0211686662E+027.4257552120E+01+
*       4.9965867186E+02               0
GRID*               6616               01.0455247573E+027.6689004458E+01+
*       4.9759816091E+02               0
GRID*               6617               01.0489707741E+027.8408935533E+01+
*       4.9656784610E+02               0
GRID*               6618               09.8676697284E+017.4257846043E+01+
*       5.1615203123E+02               0
GRID*               6619               09.7217764114E+017.5231334710E+01+
*       5.1512121878E+02               0
GRID*               6620               09.6240977697E+017.6690801312E+01+
*       5.1409061168E+02               0
GRID*               6621               09.5897265369E+017.8412841078E+01+
*       5.1306007342E+02               0
GRID*               6622               09.6238070986E+018.0134058287E+01+
*       5.1202951275E+02               0
GRID*               6623               09.7215410719E+018.1598154534E+01+
*       5.1099889632E+02               0
GRID*               6624               09.8676651996E+018.2574030454E+01+
*       5.0996825514E+02               0
GRID*               6625               01.0040029256E+028.2915915321E+01+
*       5.0893762768E+02               0
GRID*               6626               01.0212332742E+028.2571664906E+01+
*       5.0790702173E+02               0
GRID*               6627               01.0358297281E+028.1594039727E+01+
*       5.0687641389E+02               0
GRID*               6628               01.0455806982E+028.0129537464E+01+
*       5.0584566947E+02               0
GRID*               6629               09.8676692458E+017.4257848284E+01+
*       5.0790597169E+02               0
GRID*               6630               09.7217994962E+017.5231104260E+01+
*       5.0687619879E+02               0
GRID*               6631               09.6241222742E+017.6690216396E+01+
*       5.0584624902E+02               0
GRID*               6632               09.5897240750E+017.8411986986E+01+
*       5.0481607992E+02               0
GRID*               6633               09.6237814720E+018.0133434029E+01+
*       5.0378552952E+02               0
GRID*               6634               09.7214611691E+018.1597355433E+01+
*       5.0275470700E+02               0
GRID*               6635               09.8675514668E+018.2573559910E+01+
*       5.0172373850E+02               0
GRID*               6636               09.8676800368E+017.4257803763E+01+
*       5.0172088386E+02               0
GRID*               6637               09.7218236603E+017.5230863071E+01+
*       5.0069129786E+02               0
GRID*               6638               09.6241400172E+017.6689793196E+01+
*       4.9966126415E+02               0
GRID*               6639               09.5897222892E+017.8411464081E+01+
*       4.9863073887E+02               0
GRID*               6640               09.8676734658E+017.4257831000E+01+
*       4.9759701194E+02               0
GRID*               6641               09.7218211185E+017.5230888440E+01+
*       4.9656715294E+02               0
GRID*               6642               09.8676583959E+017.4257893363E+01+
*       4.9553490946E+02               0
GRID*               6643               09.6241349818E+017.6689915827E+01+
*       4.9759900515E+02               0
GRID*               6644               09.7218006948E+017.5231092296E+01+
*       4.9862908256E+02               0
GRID*               6645               09.8676511759E+017.4257923191E+01+
*       4.9965882159E+02               0
GRID*               6646               09.6241308224E+017.6690013245E+01+
*       5.0172306792E+02               0
GRID*               6647               09.5897234652E+017.8411906851E+01+
*       5.0275443238E+02               0
GRID*               6648               09.6237785139E+018.0133361628E+01+
*       5.0172377068E+02               0
GRID*               6649               09.5897228648E+017.8411845918E+01+
*       5.0069253789E+02               0
GRID*               6650               09.7214410337E+018.1597153997E+01+
*       5.0069284604E+02               0
GRID*               6651               09.6237755220E+018.0133288466E+01+
*       4.9966176817E+02               0
GRID*               6652               09.8676628132E+017.4257874982E+01+
*       5.0378257107E+02               0
GRID*               6653               09.7217962165E+017.5231136999E+01+
*       5.0275288880E+02               0
GRID*               6654               09.6241152585E+017.6690386745E+01+
*       5.0378452034E+02               0
GRID*               6655               09.7217766526E+017.5231332304E+01+
*       5.0481441551E+02               0
GRID*               6656               09.8676411361E+017.4257964633E+01+
*       5.0584415411E+02               0
GRID*               6657               01.0212277553E+028.2571894019E+01+
*       5.0378492332E+02               0
GRID*               6658               01.0212304644E+028.2571781563E+01+
*       5.0584607396E+02               0
GRID*               6659               01.0358271119E+028.1594301955E+01+
*       5.0481523580E+02               0
GRID*               6660               09.8675811450E+018.2573682733E+01+
*       5.0378526370E+02               0
GRID*               6661               01.0039967240E+028.2915915719E+01+
*       5.0481569372E+02               0
GRID*               6662               01.0039932505E+028.2915915903E+01+
*       5.0275427919E+02               0
GRID*               6663               09.8676065344E+018.2573787782E+01+
*       5.0584649239E+02               0
GRID*               6664               09.8676322534E+018.2573894176E+01+
*       5.0790745450E+02               0
GRID*               6665               01.0039992817E+028.2915915565E+01+
*       5.0687668878E+02               0
GRID*               6666               09.6237877574E+018.0133587068E+01+
*       5.0584675408E+02               0
GRID*               6667               09.7214964706E+018.1597708529E+01+
*       5.0687715553E+02               0
GRID*               6668               09.7214797719E+018.1597541514E+01+
*       5.0481592425E+02               0
GRID*               6669               09.6237917271E+018.0133684095E+01+
*       5.0790779989E+02               0
GRID*               6670               09.6237996784E+018.0133877591E+01+
*       5.0996867428E+02               0
GRID*               6671               09.7215185516E+018.1597929351E+01+
*       5.0893797752E+02               0
GRID*               6672               09.6241117572E+017.6690468369E+01+
*       5.0790743173E+02               0
GRID*               6673               09.5897253054E+017.8412505952E+01+
*       5.0893819959E+02               0
GRID*               6674               09.5897246849E+017.8412417957E+01+
*       5.0687705192E+02               0
GRID*               6675               09.7217640236E+017.5231458390E+01+
*       5.1305996977E+02               0
GRID*               6676               09.8676507923E+017.4257924528E+01+
*       5.1202899105E+02               0
GRID*               6677               09.8676402463E+017.4257968107E+01+
*       5.1409047722E+02               0
GRID*               6678               09.8676508102E+017.4257924510E+01+
*       5.0996746510E+02               0
GRID*               6679               09.7217707973E+017.5231390761E+01+
*       5.0893740393E+02               0
GRID*               6680               09.7217547664E+017.5231550819E+01+
*       5.1099865723E+02               0
GRID*               6681               09.6240940097E+017.6690894597E+01+
*       5.0996839411E+02               0
GRID*               6682               09.5897259227E+017.8412876768E+01+
*       5.1099904882E+02               0
GRID*               6683               09.6240839825E+017.6691134875E+01+
*       5.1202940784E+02               0
GRID*               6684               09.5897292933E+017.8412464140E+01+
*       5.2336612036E+02               0
GRID*               6685               09.6241235361E+017.6690849434E+01+
*       5.2233555293E+02               0
GRID*               6686               09.7217834334E+017.5231264607E+01+
*       5.2130537274E+02               0
GRID*               6687               09.8676727787E+017.4257833284E+01+
*       5.2027522612E+02               0
GRID*               6688               09.7217936832E+017.5231162285E+01+
*       5.2542938389E+02               0
GRID*               6689               09.8676891722E+017.4257765343E+01+
*       5.2439893981E+02               0
GRID*               6690               09.8676854997E+017.4257780493E+01+
*       5.2646102315E+02               0
GRID*               6691               09.7217719030E+017.5231379721E+01+
*       5.2336729642E+02               0
GRID*               6692               09.8676630166E+017.4257873621E+01+
*       5.2233705616E+02               0
GRID*               6693               09.6241141946E+017.6691086278E+01+
*       5.2439772428E+02               0
GRID*               6694               09.5897288072E+017.8412713937E+01+
*       5.2130428622E+02               0
GRID*               6695               09.5897282822E+017.8412716880E+01+
*       5.1924284566E+02               0
GRID*               6696               09.5897277232E+017.8412783679E+01+
*       5.1718176104E+02               0
GRID*               6697               09.5897271385E+017.8412967083E+01+
*       5.1512085203E+02               0
GRID*               6698               09.6241030152E+017.6690934540E+01+
*       5.1821263776E+02               0
GRID*               6699               09.7217645236E+017.5231453397E+01+
*       5.1924383454E+02               0
GRID*               6700               09.6241003453E+017.6691246557E+01+
*       5.2027402500E+02               0
GRID*               6701               09.7217551582E+017.5231546907E+01+
*       5.1718245079E+02               0
GRID*               6702               09.8676463517E+017.4257942704E+01+
*       5.1821360784E+02               0
GRID*               6703               09.6240846785E+017.6691146810E+01+
*       5.1615155774E+02               0
GRID*               6704               01.0040139880E+028.2915914396E+01+
*       5.1924139614E+02               0
GRID*               6705               09.8677451063E+018.2574360797E+01+
*       5.1821108822E+02               0
GRID*               6706               09.7215783061E+018.1598526771E+01+
*       5.1718095925E+02               0
GRID*               6707               09.6238102252E+018.0134136379E+01+
*       5.1615091759E+02               0
GRID*               6708               09.6238036171E+018.0133979238E+01+
*       5.2027309028E+02               0
GRID*               6709               09.7215834574E+018.1598578263E+01+
*       5.1924204619E+02               0
GRID*               6710               09.6238079293E+018.0134082160E+01+
*       5.1821189480E+02               0
GRID*               6711               09.8677415864E+018.2574346207E+01+
*       5.2027243742E+02               0
GRID*               6712               09.6237966156E+018.0133811320E+01+
*       5.2233477668E+02               0
GRID*               6713               09.7215808299E+018.1598551999E+01+
*       5.2130356101E+02               0
GRID*               6714               01.0040124452E+028.2915914542E+01+
*       5.1718024365E+02               0
GRID*               6715               01.0040107968E+028.2915914692E+01+
*       5.1511940699E+02               0
GRID*               6716               01.0040084231E+028.2915914896E+01+
*       5.1305878757E+02               0
GRID*               6717               01.0040054350E+028.2915915136E+01+
*       5.1099819912E+02               0
GRID*               6718               09.7215589412E+018.1598333188E+01+
*       5.1305948333E+02               0
GRID*               6719               09.8677093351E+018.2574212943E+01+
*       5.1408944773E+02               0
GRID*               6720               09.8676836083E+018.2574106569E+01+
*       5.1202880484E+02               0
GRID*               6721               09.6238125059E+018.0134190332E+01+
*       5.1409011545E+02               0
GRID*               6722               09.8677222516E+018.2574266324E+01+
*       5.1615018539E+02               0
GRID*               6723               09.7215687873E+018.1598431619E+01+
*       5.1512012978E+02               0
GRID*               6724               01.0489679399E+027.8405806515E+01+
*       5.1511883267E+02               0
GRID*               6725               01.0455850232E+028.0128491517E+01+
*       5.1408846633E+02               0
GRID*               6726               01.0358342822E+028.1593583146E+01+
*       5.1305819931E+02               0
GRID*               6727               01.0212376754E+028.2571482150E+01+
*       5.1202817716E+02               0
GRID*               6728               01.0212417878E+028.2571311346E+01+
*       5.1614949449E+02               0
GRID*               6729               01.0358351383E+028.1593497302E+01+
*       5.1511893654E+02               0
GRID*               6730               01.0212392867E+028.2571415238E+01+
*       5.1408881337E+02               0
GRID*               6731               01.0212427315E+028.2571272167E+01+
*       5.1821063285E+02               0
GRID*               6732               01.0358358580E+028.1593425129E+01+
*       5.1717999121E+02               0
GRID*               6733               01.0455852824E+028.0128429866E+01+
*       5.1614956406E+02               0
GRID*               6734               01.0455842063E+028.0128688768E+01+
*       5.1202787599E+02               0
GRID*               6735               01.0455832814E+028.0128912265E+01+
*       5.0996730874E+02               0
GRID*               6736               01.0455818267E+028.0129264486E+01+
*       5.0790657941E+02               0
GRID*               6737               01.0358307463E+028.1593937651E+01+
*       5.0893706692E+02               0
GRID*               6738               01.0358320997E+028.1593801969E+01+
*       5.1099768402E+02               0
GRID*               6739               01.0212347835E+028.2571602250E+01+
*       5.0996759748E+02               0
GRID*               6740               01.0489680034E+027.8406187272E+01+
*       5.1099731245E+02               0
GRID*               6741               01.0455155961E+027.6688158394E+01+
*       5.0996686217E+02               0
GRID*               6742               01.0357517304E+027.5230001247E+01+
*       5.0893639618E+02               0
GRID*               6743               01.0489682288E+027.8406618172E+01+
*       5.0893656297E+02               0
GRID*               6744               01.0489685693E+027.8406994777E+01+
*       5.0687560986E+02               0
GRID*               6745               01.0455184030E+027.6688465317E+01+
*       5.0790582219E+02               0
GRID*               6746               01.0455153305E+027.6687919489E+01+
*       5.1408874305E+02               0
GRID*               6747               01.0489679088E+027.8406215581E+01+
*       5.1305808250E+02               0
GRID*               6748               01.0211660357E+027.4257443625E+01+
*       5.1202866390E+02               0
GRID*               6749               01.0357504253E+027.5229871064E+01+
*       5.1305883442E+02               0
GRID*               6750               01.0357521191E+027.5230040022E+01+
*       5.1099762800E+02               0
GRID*               6751               01.0211683204E+027.4257538043E+01+
*       5.0996715155E+02               0
GRID*               6752               01.0455164488E+027.6688435158E+01+
*       5.1202782232E+02               0
GRID*               6753               01.0211693067E+027.4257578652E+01+
*       4.6254253545E+02               0
GRID*               6754               01.0357597141E+027.5230797827E+01+
*       4.6357256460E+02               0
GRID*               6755               01.0455264801E+027.6689544971E+01+
*       4.6460324105E+02               0
GRID*               6756               01.0489695943E+027.8411408797E+01+
*       4.6563446124E+02               0
GRID*               6757               01.0455587020E+028.0134856228E+01+
*       4.6666600576E+02               0
GRID*               6758               01.0357924894E+028.1597768269E+01+
*       4.6769750824E+02               0
GRID*               6759               01.0211767446E+028.2574008433E+01+
*       4.6872903865E+02               0
GRID*               6760               01.0039356762E+028.2915915007E+01+
*       4.6976046543E+02               0
GRID*               6761               09.8670123736E+018.2571324392E+01+
*       4.7079187273E+02               0
GRID*               6762               09.7210391092E+018.1593127781E+01+
*       4.7182327511E+02               0
GRID*               6763               09.6236128054E+018.0129337703E+01+
*       4.7285464185E+02               0
GRID*               6764               09.5897172340E+017.8407070087E+01+
*       4.7388585513E+02               0
GRID*               6765               09.6242625952E+017.6686861193E+01+
*       4.7491664870E+02               0
GRID*               6766               09.7219697540E+017.5229405650E+01+
*       4.7594717324E+02               0
GRID*               6767               09.8677537341E+017.4257499080E+01+
*       4.7697758034E+02               0
GRID*               6768               01.0357945372E+028.1597563457E+01+
*       4.6976115493E+02               0
GRID*               6769               01.0455611009E+028.0134276571E+01+
*       4.7079297541E+02               0
GRID*               6770               01.0489703056E+027.8410758295E+01+
*       4.7182418662E+02               0
GRID*               6771               01.0455243276E+027.6689111941E+01+
*       4.7285504860E+02               0
GRID*               6772               01.0357587381E+027.5230700420E+01+
*       4.7388557802E+02               0
GRID*               6773               01.0211697040E+027.4257594985E+01+
*       4.7491592238E+02               0
GRID*               6774               01.0489696806E+027.8411046009E+01+
*       4.6769798467E+02               0
GRID*               6775               01.0455241173E+027.6689017275E+01+
*       4.6872974922E+02               0
GRID*               6776               01.0357572034E+027.5230547273E+01+
*       4.6976108850E+02               0
GRID*               6777               01.0211690082E+027.4257566231E+01+
*       4.7079195748E+02               0
GRID*               6778               01.0211681796E+027.4257531993E+01+
*       4.6666737693E+02               0
GRID*               6779               01.0357593186E+027.5230758362E+01+
*       4.6769831345E+02               0
GRID*               6780               01.0211707971E+027.4257640250E+01+
*       4.6872969105E+02               0
GRID*               6781               01.0357612609E+027.5230952206E+01+
*       4.6563550238E+02               0
GRID*               6782               01.0455271595E+027.6689728621E+01+
*       4.6666652110E+02               0
GRID*               6783               01.0211718858E+027.4257685329E+01+
*       4.6460499914E+02               0
GRID*               6784               01.0455253032E+027.6689324281E+01+
*       4.7079248041E+02               0
GRID*               6785               01.0357608167E+027.5230907877E+01+
*       4.7182334550E+02               0
GRID*               6786               01.0211715952E+027.4257673240E+01+
*       4.7285394077E+02               0
GRID*               6787               01.0489700459E+027.8411168328E+01+
*       4.6976113143E+02               0
GRID*               6788               01.0455592224E+028.0134730722E+01+
*       4.6872950251E+02               0
GRID*               6789               09.7212683924E+018.1595425837E+01+
*       4.8625666081E+02               0
GRID*               6790               09.6237055061E+018.0131588385E+01+
*       4.8522554019E+02               0
GRID*               6791               09.5897188214E+017.8409463513E+01+
*       4.8419448730E+02               0
GRID*               6792               09.6241980397E+017.6688407807E+01+
*       4.8316338644E+02               0
GRID*               6793               09.7219024677E+017.5230076727E+01+
*       4.8213229913E+02               0
GRID*               6794               09.8677201815E+017.4257637837E+01+
*       4.8110111424E+02               0
GRID*               6795               09.8677047403E+017.4257701696E+01+
*       4.8934870381E+02               0
GRID*               6796               09.7218810449E+017.5230290445E+01+
*       4.8831804591E+02               0
GRID*               6797               09.6241837139E+017.6688749685E+01+
*       4.8728723473E+02               0
GRID*               6798               09.5897192293E+017.8409931270E+01+
*       4.8625645270E+02               0
GRID*               6799               09.7218742198E+017.5230358541E+01+
*       4.8625589160E+02               0
GRID*               6800               09.8676987826E+017.4257726343E+01+
*       4.8522466455E+02               0
GRID*               6801               09.8676838722E+017.4257788014E+01+
*       4.8728664264E+02               0
GRID*               6802               09.7218704919E+017.5230395736E+01+
*       4.8419402284E+02               0
GRID*               6803               09.8676901398E+017.4257762088E+01+
*       4.8316287100E+02               0
GRID*               6804               09.6241749496E+017.6688962000E+01+
*       4.8522523958E+02               0
GRID*               6805               09.6241696559E+017.6689086604E+01+
*       4.8934961301E+02               0
GRID*               6806               09.5897196731E+017.8410306862E+01+
*       4.8831870986E+02               0
GRID*               6807               09.6237232164E+018.0132018080E+01+
*       4.8728770935E+02               0
GRID*               6808               09.7218455688E+017.5230644428E+01+
*       4.9038034972E+02               0
GRID*               6809               09.8676714933E+017.4257839207E+01+
*       4.9141078675E+02               0
GRID*               6810               01.0357953898E+028.1597478173E+01+
*       4.7182431403E+02               0
GRID*               6811               01.0357964775E+028.1597369376E+01+
*       4.7388697080E+02               0
GRID*               6812               01.0357976353E+028.1597253555E+01+
*       4.7594900466E+02               0
GRID*               6813               01.0357991223E+028.1597104783E+01+
*       4.7801057045E+02               0
GRID*               6814               01.0358011339E+028.1596903511E+01+
*       4.8007194378E+02               0
GRID*               6815               01.0358031884E+028.1596697920E+01+
*       4.8213340827E+02               0
GRID*               6816               01.0357589412E+027.5230720693E+01+
*       4.7800905094E+02               0
GRID*               6817               01.0455254695E+027.6689433962E+01+
*       4.7697875303E+02               0
GRID*               6818               01.0489708283E+027.8410886350E+01+
*       4.7594838612E+02               0
GRID*               6819               01.0455616530E+028.0134143795E+01+
*       4.7491781648E+02               0
GRID*               6820               01.0489704181E+027.8410653618E+01+
*       4.8007132877E+02               0
GRID*               6821               01.0455631840E+028.0133774181E+01+
*       4.7904104685E+02               0
GRID*               6822               01.0455641247E+028.0133546942E+01+
*       4.8110250253E+02               0
GRID*               6823               01.0455265413E+027.6689728938E+01+
*       4.7904022172E+02               0
GRID*               6824               01.0489705003E+027.8411094452E+01+
*       4.7800987429E+02               0
GRID*               6825               01.0455618072E+028.0134106943E+01+
*       4.7697949045E+02               0
GRID*               6826               01.0357609392E+027.5230920098E+01+
*       4.7594735635E+02               0
GRID*               6827               01.0211712853E+027.4257660393E+01+
*       4.7697768693E+02               0
GRID*               6828               01.0455264690E+027.6689650444E+01+
*       4.7491693302E+02               0
GRID*               6829               01.0489709603E+027.8411140775E+01+
*       4.7388630534E+02               0
GRID*               6830               01.0455607510E+028.0134361650E+01+
*       4.7285545698E+02               0
GRID*               6831               09.5897174505E+017.8407832256E+01+
*       4.7594824901E+02               0
GRID*               6832               09.6236512780E+018.0130271952E+01+
*       4.7697962189E+02               0
GRID*               6833               09.7211420648E+018.1594160093E+01+
*       4.7801070232E+02               0
GRID*               6834               09.8671596407E+018.2571935912E+01+
*       4.7904156377E+02               0
GRID*               6835               01.0039525414E+028.2915916044E+01+
*       4.8007222322E+02               0
GRID*               6836               01.0211923593E+028.2573361736E+01+
*       4.8110279771E+02               0
GRID*               6837               01.0211810119E+028.2573831707E+01+
*       4.7285555494E+02               0
GRID*               6838               01.0039411999E+028.2915915418E+01+
*       4.7388674660E+02               0
GRID*               6839               09.8670757382E+018.2571587576E+01+
*       4.7491782674E+02               0
GRID*               6840               09.7211063615E+018.1593802180E+01+
*       4.7594871872E+02               0
GRID*               6841               01.0211858788E+028.2573630149E+01+
*       4.7697991453E+02               0
GRID*               6842               01.0039485922E+028.2915915859E+01+
*       4.7801073994E+02               0
GRID*               6843               01.0211892948E+028.2573488675E+01+
*       4.7904134310E+02               0
GRID*               6844               01.0211836744E+028.2573721452E+01+
*       4.7491786493E+02               0
GRID*               6845               09.8671228393E+018.2571783155E+01+
*       4.7697975234E+02               0
GRID*               6846               01.0039453245E+028.2915915679E+01+
*       4.7594877173E+02               0
GRID*               6847               01.0211794140E+028.2573897899E+01+
*       4.7079240293E+02               0
GRID*               6848               09.6236386151E+018.0129964449E+01+
*       4.7491722922E+02               0
GRID*               6849               09.7210790679E+018.1593528517E+01+
*       4.7388611674E+02               0
GRID*               6850               01.0039388425E+028.2915915251E+01+
*       4.7182369061E+02               0
GRID*               6851               09.8670498273E+018.2571479977E+01+
*       4.7285489070E+02               0
GRID*               6852               01.0039571504E+028.2915916216E+01+
*       4.8213353581E+02               0
GRID*               6853               01.0039614476E+028.2915916333E+01+
*       4.8419507499E+02               0
GRID*               6854               01.0211960787E+028.2573207650E+01+
*       4.8316429226E+02               0
GRID*               6855               09.7219142927E+017.5229958770E+01+
*       4.8007073771E+02               0
GRID*               6856               09.7219289902E+017.5229812172E+01+
*       4.7800904080E+02               0
GRID*               6857               09.8677149507E+017.4257659461E+01+
*       4.7903935756E+02               0
GRID*               6858               09.6242146169E+017.6688011864E+01+
*       4.7904039179E+02               0
GRID*               6859               09.5897177119E+017.8408543502E+01+
*       4.7801001745E+02               0
GRID*               6860               09.6242217390E+017.6687841985E+01+
*       4.7697855090E+02               0
GRID*               6861               09.5897184064E+017.8409336197E+01+
*       4.8213299433E+02               0
GRID*               6862               09.5897180274E+017.8409096974E+01+
*       4.8007153585E+02               0
GRID*               6863               09.6241916767E+017.6688562300E+01+
*       4.8110187909E+02               0
GRID*               6864               09.6236903375E+018.0131219975E+01+
*       4.8110253110E+02               0
GRID*               6865               09.7211835276E+018.1594575642E+01+
*       4.8007203638E+02               0
GRID*               6866               09.6236789556E+018.0130943675E+01+
*       4.7904103650E+02               0
GRID*               6867               09.8672482583E+018.2572303609E+01+
*       4.8316422676E+02               0
GRID*               6868               09.7212436330E+018.1595177839E+01+
*       4.8419488849E+02               0
GRID*               6869               09.8672882721E+018.2572469559E+01+
*       4.8522591742E+02               0
GRID*               6870               09.8672091269E+018.2572141276E+01+
*       4.8110280802E+02               0
GRID*               6871               09.6237030917E+018.0131529532E+01+
*       4.8316396001E+02               0
GRID*               6872               09.7212211564E+018.1594952672E+01+
*       4.8213338335E+02               0
GRID*               6873               01.0357627259E+027.5231098439E+01+
*       4.6150985382E+02               0
GRID*               6874               01.0455298454E+027.6690317375E+01+
*       4.6047713775E+02               0
GRID*               6875               01.0489700112E+027.8412537241E+01+
*       4.5944465361E+02               0
GRID*               6876               01.0455521655E+028.0136435391E+01+
*       4.5841251923E+02               0
GRID*               6877               01.0357828563E+028.1598731364E+01+
*       4.5738064440E+02               0
GRID*               6878               01.0211646513E+028.2574509431E+01+
*       4.5634928749E+02               0
GRID*               6879               01.0039238371E+028.2915913891E+01+
*       4.5531832185E+02               0
GRID*               6880               09.8669270488E+018.2570969998E+01+
*       4.5428770730E+02               0
GRID*               6881               09.7210009488E+018.1592744986E+01+
*       4.5325738818E+02               0
GRID*               6882               09.6236404878E+018.0130009429E+01+
*       4.5222736516E+02               0
GRID*               6883               09.5897147785E+017.8407689313E+01+
*       4.5119756182E+02               0
GRID*               6884               09.6242296375E+017.6687669364E+01+
*       4.5016788241E+02               0
GRID*               6885               09.7219501404E+017.5229601241E+01+
*       4.4913840562E+02               0
GRID*               6886               09.8677603302E+017.4257471505E+01+
*       4.4810918039E+02               0
GRID*               6887               09.6236329033E+018.0129825296E+01+
*       4.5428938856E+02               0
GRID*               6888               09.6236237721E+018.0129603599E+01+
*       4.5635140308E+02               0
GRID*               6889               09.6236194027E+018.0129497501E+01+
*       4.5841352209E+02               0
GRID*               6890               09.6236169455E+018.0129437842E+01+
*       4.6047576080E+02               0
GRID*               6891               09.6236129590E+018.0129341058E+01+
*       4.6253822861E+02               0
GRID*               6892               09.6236105904E+018.0129283575E+01+
*       4.6460108058E+02               0
GRID*               6893               09.6236050000E+018.0129147867E+01+
*       4.6666426099E+02               0
GRID*               6894               09.6236030700E+018.0129101066E+01+
*       4.6872776010E+02               0
GRID*               6895               09.6236110764E+018.0129295598E+01+
*       4.7079127488E+02               0
GRID*               6896               09.7210066450E+018.1592802132E+01+
*       4.6563258955E+02               0
GRID*               6897               09.8669512470E+018.2571070434E+01+
*       4.6460093756E+02               0
GRID*               6898               01.0039278986E+028.2915914310E+01+
*       4.6356934744E+02               0
GRID*               6899               01.0211694430E+028.2574310788E+01+
*       4.6253783118E+02               0
GRID*               6900               01.0357867073E+028.1598346417E+01+
*       4.6150647486E+02               0
GRID*               6901               01.0455536420E+028.0136078822E+01+
*       4.6047554136E+02               0
GRID*               6902               09.7209938247E+018.1592673512E+01+
*       4.6150644511E+02               0
GRID*               6903               09.8669217445E+018.2570947840E+01+
*       4.6047471617E+02               0
GRID*               6904               01.0039241482E+028.2915913925E+01+
*       4.5944315634E+02               0
GRID*               6905               01.0211658345E+028.2574460318E+01+
*       4.5841188358E+02               0
GRID*               6906               09.8669183170E+018.2570933623E+01+
*       4.5841217967E+02               0
GRID*               6907               09.7209927588E+018.1592662819E+01+
*       4.5738163088E+02               0
GRID*               6908               09.7209993210E+018.1592728655E+01+
*       4.5944405454E+02               0
GRID*               6909               09.8669272000E+018.2570970594E+01+
*       4.5634995422E+02               0
GRID*               6910               09.7210045899E+018.1592781514E+01+
*       4.5531958910E+02               0
GRID*               6911               01.0039249343E+028.2915914008E+01+
*       4.5738082610E+02               0
GRID*               6912               09.7210058607E+018.1592794263E+01+
*       4.6356946860E+02               0
GRID*               6913               09.8669463420E+018.2571050078E+01+
*       4.6253783312E+02               0
GRID*               6914               01.0357845113E+028.1598565937E+01+
*       4.5944360687E+02               0
GRID*               6915               01.0211679586E+028.2574372320E+01+
*       4.6047484128E+02               0
GRID*               6916               01.0039272956E+028.2915914250E+01+
*       4.6150631563E+02               0
GRID*               6917               01.0211722958E+028.2574192673E+01+
*       4.6460145628E+02               0
GRID*               6918               01.0357909134E+028.1597925873E+01+
*       4.6563370013E+02               0
GRID*               6919               01.0455555151E+028.0135626320E+01+
*       4.6253878212E+02               0
GRID*               6920               01.0489697321E+027.8411903199E+01+
*       4.6357102015E+02               0
GRID*               6921               01.0455294485E+027.6690240379E+01+
*       4.6254022128E+02               0
GRID*               6922               01.0489698739E+027.8412442753E+01+
*       4.6150790836E+02               0
GRID*               6923               01.0357889711E+028.1598120083E+01+
*       4.6357008507E+02               0
GRID*               6924               01.0455566401E+028.0135354606E+01+
*       4.6460240641E+02               0
GRID*               6925               09.8669921511E+018.2571240388E+01+
*       4.6872821265E+02               0
GRID*               6926               09.7210190785E+018.1592926861E+01+
*       4.6769616709E+02               0
GRID*               6927               09.7210351670E+018.1593088241E+01+
*       4.6975974210E+02               0
GRID*               6928               09.8669779631E+018.2571181456E+01+
*       4.6666460184E+02               0
GRID*               6929               01.0039313593E+028.2915914637E+01+
*       4.6563306399E+02               0
GRID*               6930               01.0211750866E+028.2574077119E+01+
*       4.6666525311E+02               0
GRID*               6931               01.0039341941E+028.2915914884E+01+
*       4.6769676748E+02               0
GRID*               6932               09.8677839204E+017.4257374051E+01+
*       4.5429499072E+02               0
GRID*               6933               09.7219662320E+017.5229440774E+01+
*       4.5326240747E+02               0
GRID*               6934               09.6242287672E+017.6687689083E+01+
*       4.5222993765E+02               0
GRID*               6935               09.8677559325E+017.4257489713E+01+
*       4.5017113395E+02               0
GRID*               6936               09.7219340891E+017.5229761322E+01+
*       4.5120047783E+02               0
GRID*               6937               09.8677479065E+017.4257522925E+01+
*       4.5223309456E+02               0
GRID*               6938               09.6242671197E+017.6686753865E+01+
*       4.7285393764E+02               0
GRID*               6939               09.7219981941E+017.5229122090E+01+
*       4.7182233773E+02               0
GRID*               6940               09.8677862491E+017.4257364615E+01+
*       4.7079116889E+02               0
GRID*               6941               09.8677608594E+017.4257469608E+01+
*       4.7491557296E+02               0
GRID*               6942               09.7219619576E+017.5229483393E+01+
*       4.7388484166E+02               0
GRID*               6943               09.8677539542E+017.4257498142E+01+
*       4.7285341126E+02               0
GRID*               6944               09.7219656431E+017.5229446646E+01+
*       4.5532442140E+02               0
GRID*               6945               09.6242450365E+017.6687295449E+01+
*       4.5635393417E+02               0
GRID*               6946               09.5897152624E+017.8407370244E+01+
*       4.5738367975E+02               0
GRID*               6947               09.5897150651E+017.8407599074E+01+
*       4.5532167159E+02               0
GRID*               6948               09.5897148823E+017.8407837476E+01+
*       4.5325967567E+02               0
GRID*               6949               09.6242239601E+017.6687803431E+01+
*       4.5429201385E+02               0
GRID*               6950               09.5897164225E+017.8406741908E+01+
*       4.6769615240E+02               0
GRID*               6951               09.6242749764E+017.6686567866E+01+
*       4.6872796859E+02               0
GRID*               6952               09.7219872738E+017.5229230965E+01+
*       4.6975972051E+02               0
GRID*               6953               09.5897166364E+017.8407055949E+01+
*       4.6975952879E+02               0
GRID*               6954               09.5897168847E+017.8407307939E+01+
*       4.7182271781E+02               0
GRID*               6955               09.6242516002E+017.6687128249E+01+
*       4.7079102698E+02               0
GRID*               6956               09.8677828382E+017.4257378602E+01+
*       4.6048065732E+02               0
GRID*               6957               09.7219748871E+017.5229354470E+01+
*       4.5944826975E+02               0
GRID*               6958               09.6242405506E+017.6687401992E+01+
*       4.5841596358E+02               0
GRID*               6959               09.8677634615E+017.4257458659E+01+
*       4.5635691670E+02               0
GRID*               6960               09.7219465537E+017.5229637009E+01+
*       4.5738638062E+02               0
GRID*               6961               09.8677509667E+017.4257510346E+01+
*       4.5841881457E+02               0
GRID*               6962               09.7219738344E+017.5229364967E+01+
*       4.6151021376E+02               0
GRID*               6963               09.6242543593E+017.6687067419E+01+
*       4.6254003796E+02               0
GRID*               6964               09.5897158671E+017.8407201427E+01+
*       4.6357041947E+02               0
GRID*               6965               09.5897156266E+017.8407382766E+01+
*       4.6150803985E+02               0
GRID*               6966               09.5897154066E+017.8407550910E+01+
*       4.5944583941E+02               0
GRID*               6967               09.6242341501E+017.6687554553E+01+
*       4.6047807218E+02               0
GRID*               6968               09.6242644274E+017.6686822730E+01+
*       4.6666509827E+02               0
GRID*               6969               09.7219843715E+017.5229259903E+01+
*       4.6563460890E+02               0
GRID*               6970               09.8677710660E+017.4257427316E+01+
*       4.6460462816E+02               0
GRID*               6971               09.8677717997E+017.4257424326E+01+
*       4.6872894941E+02               0
GRID*               6972               09.7219675596E+017.5229427533E+01+
*       4.6769719255E+02               0
GRID*               6973               09.8677538686E+017.4257498439E+01+
*       4.6666681687E+02               0
GRID*               6974               09.7219622838E+017.5229480142E+01+
*       4.6357240138E+02               0
GRID*               6975               09.8677539354E+017.4257498118E+01+
*       4.6254266489E+02               0
GRID*               6976               09.6242454572E+017.6687280042E+01+
*       4.6460260232E+02               0
GRID*               6977               09.5897160719E+017.8407343602E+01+
*       4.6563332005E+02               0
GRID*               6978               01.0211712894E+027.4257660966E+01+
*       4.3367630945E+02               0
GRID*               6979               01.0357596724E+027.5230793660E+01+
*       4.3470576339E+02               0
GRID*               6980               01.0455300565E+027.6690202547E+01+
*       4.3573554780E+02               0
GRID*               6981               01.0489710660E+027.8411648538E+01+
*       4.3676572398E+02               0
GRID*               6982               01.0455571293E+028.0135233468E+01+
*       4.3779615910E+02               0
GRID*               6983               01.0358004916E+028.1596967781E+01+
*       4.3882659054E+02               0
GRID*               6984               01.0211885632E+028.2573521584E+01+
*       4.3985716068E+02               0
GRID*               6985               01.0039479953E+028.2915915826E+01+
*       4.4088781055E+02               0
GRID*               6986               09.8671222765E+018.2571781415E+01+
*       4.4191855483E+02               0
GRID*               6987               09.7211209809E+018.1593948744E+01+
*       4.4294944608E+02               0
GRID*               6988               09.6237002074E+018.0131458396E+01+
*       4.4398062472E+02               0
GRID*               6989               09.5897143321E+017.8408545545E+01+
*       4.4501218681E+02               0
GRID*               6990               09.6242100972E+017.6688141555E+01+
*       4.4604415053E+02               0
GRID*               6991               09.7219255784E+017.5229846207E+01+
*       4.4707658309E+02               0
GRID*               6992               01.0455516999E+028.0136547631E+01+
*       4.5635007961E+02               0
GRID*               6993               01.0455516283E+028.0136564669E+01+
*       4.5428780768E+02               0
GRID*               6994               01.0455516429E+028.0136560920E+01+
*       4.5222588931E+02               0
GRID*               6995               01.0455521406E+028.0136440435E+01+
*       4.5016427319E+02               0
GRID*               6996               01.0455531919E+028.0136186172E+01+
*       4.4810284235E+02               0
GRID*               6997               01.0455541396E+028.0135956908E+01+
*       4.4604163593E+02               0
GRID*               6998               01.0455552699E+028.0135683501E+01+
*       4.4398050414E+02               0
GRID*               6999               01.0455562515E+028.0135445987E+01+
*       4.4191925286E+02               0
GRID*               7000               01.0455565290E+028.0135378748E+01+
*       4.3985784853E+02               0
GRID*               7001               09.6236899867E+018.0131210488E+01+
*       4.4604223528E+02               0
GRID*               7002               09.7210741662E+018.1593479365E+01+
*       4.4707235151E+02               0
GRID*               7003               09.8670104955E+018.2571316974E+01+
*       4.4810259443E+02               0
GRID*               7004               01.0039311674E+028.2915914617E+01+
*       4.4913296069E+02               0
GRID*               7005               01.0211699431E+028.2574291380E+01+
*       4.5016356709E+02               0
GRID*               7006               01.0357853269E+028.1598484416E+01+
*       4.5119462489E+02               0
GRID*               7007               09.8670868635E+018.2571634315E+01+
*       4.4397991066E+02               0
GRID*               7008               01.0039399951E+028.2915915331E+01+
*       4.4501038298E+02               0
GRID*               7009               01.0211779236E+028.2573961717E+01+
*       4.4604096377E+02               0
GRID*               7010               01.0357904437E+028.1597972839E+01+
*       4.4707182435E+02               0
GRID*               7011               01.0211855625E+028.2573645784E+01+
*       4.4191854456E+02               0
GRID*               7012               01.0357960293E+028.1597414209E+01+
*       4.4294944064E+02               0
GRID*               7013               01.0357982347E+028.1597193583E+01+
*       4.4088813883E+02               0
GRID*               7014               01.0039446115E+028.2915915634E+01+
*       4.4294915723E+02               0
GRID*               7015               01.0211822514E+028.2573782753E+01+
*       4.4397983841E+02               0
GRID*               7016               01.0357933610E+028.1597681094E+01+
*       4.4501071341E+02               0
GRID*               7017               09.8670544446E+018.2571499617E+01+
*       4.4604128889E+02               0
GRID*               7018               09.7211053993E+018.1593792533E+01+
*       4.4501097802E+02               0
GRID*               7019               01.0211743288E+028.2574110243E+01+
*       4.4810231405E+02               0
GRID*               7020               01.0357879272E+028.1598224462E+01+
*       4.4913326337E+02               0
GRID*               7021               01.0039365731E+028.2915915075E+01+
*       4.4707176702E+02               0
GRID*               7022               09.6242080181E+017.6688190428E+01+
*       4.4810608578E+02               0
GRID*               7023               09.5897144154E+017.8408595509E+01+
*       4.4707405871E+02               0
GRID*               7024               01.0039281284E+028.2915914330E+01+
*       4.5119456464E+02               0
GRID*               7025               09.8669539340E+018.2571081812E+01+
*       4.5222590979E+02               0
GRID*               7026               01.0211678727E+028.2574376711E+01+
*       4.5222534413E+02               0
GRID*               7027               01.0357841067E+028.1598606379E+01+
*       4.5325648264E+02               0
GRID*               7028               01.0211665842E+028.2574429735E+01+
*       4.5428732910E+02               0
GRID*               7029               01.0357836194E+028.1598655093E+01+
*       4.5531863349E+02               0
GRID*               7030               01.0039269281E+028.2915914212E+01+
*       4.5325655799E+02               0
GRID*               7031               09.6236607123E+018.0130500262E+01+
*       4.5016559440E+02               0
GRID*               7032               09.7210528539E+018.1593265635E+01+
*       4.4913396508E+02               0
GRID*               7033               09.6236816254E+018.0131007641E+01+
*       4.4810398401E+02               0
GRID*               7034               09.5897145419E+017.8408440883E+01+
*       4.4913591027E+02               0
GRID*               7035               09.8669868203E+018.2571218548E+01+
*       4.5016426050E+02               0
GRID*               7036               09.7210354540E+018.1593091119E+01+
*       4.5119575885E+02               0
GRID*               7037               01.0455307742E+027.6690385006E+01+
*       4.3779754281E+02               0
GRID*               7038               01.0357621428E+027.5231040231E+01+
*       4.3882965815E+02               0
GRID*               7039               01.0211743998E+027.4257789592E+01+
*       4.3986203408E+02               0
GRID*               7040               01.0211735048E+027.4257752596E+01+
*       4.3573832042E+02               0
GRID*               7041               01.0357631845E+027.5231144217E+01+
*       4.3676783867E+02               0
GRID*               7042               01.0211757366E+027.4257844922E+01+
*       4.3780024948E+02               0
GRID*               7043               01.0489708749E+027.8412106823E+01+
*       4.4295056118E+02               0
GRID*               7044               01.0455312708E+027.6690526228E+01+
*       4.4192082570E+02               0
GRID*               7045               01.0357641771E+027.5231243305E+01+
*       4.4089137852E+02               0
GRID*               7046               01.0489709479E+027.8412126538E+01+
*       4.4088922989E+02               0
GRID*               7047               01.0455323108E+027.6690765585E+01+
*       4.3985935244E+02               0
GRID*               7048               01.0489710134E+027.8412162622E+01+
*       4.3882765707E+02               0
GRID*               7049               01.0211734728E+027.4257751069E+01+
*       4.5635605115E+02               0
GRID*               7050               01.0357655103E+027.5231376405E+01+
*       4.5738501359E+02               0
GRID*               7051               01.0455318065E+027.6690771950E+01+
*       4.5841464823E+02               0
GRID*               7052               01.0211735977E+027.4257756196E+01+
*       4.6048038573E+02               0
GRID*               7053               01.0357670594E+027.5231531071E+01+
*       4.5944755814E+02               0
GRID*               7054               01.0211762387E+027.4257865499E+01+
*       4.5841831925E+02               0
GRID*               7055               01.0357665633E+027.5231481536E+01+
*       4.5532288864E+02               0
GRID*               7056               01.0455324419E+027.6690891483E+01+
*       4.5429001850E+02               0
GRID*               7057               01.0489703968E+027.8412930769E+01+
*       4.5325781133E+02               0
GRID*               7058               01.0489702763E+027.8412981484E+01+
*       4.5531994522E+02               0
GRID*               7059               01.0455332529E+027.6691103339E+01+
*       4.5635241967E+02               0
GRID*               7060               01.0489701490E+027.8413030866E+01+
*       4.5738239953E+02               0
GRID*               7061               01.0211741783E+027.4257780322E+01+
*       4.5017040183E+02               0
GRID*               7062               01.0357661459E+027.5231439863E+01+
*       4.5119907955E+02               0
GRID*               7063               01.0455333356E+027.6691091146E+01+
*       4.5222828200E+02               0
GRID*               7064               01.0211761653E+027.4257862503E+01+
*       4.5429422601E+02               0
GRID*               7065               01.0357689834E+027.5231723192E+01+
*       4.5326115288E+02               0
GRID*               7066               01.0211776472E+027.4257923852E+01+
*       4.5223243309E+02               0
GRID*               7067               01.0357661701E+027.5231442284E+01+
*       4.4913741010E+02               0
GRID*               7068               01.0455324511E+027.6690848790E+01+
*       4.4810488167E+02               0
GRID*               7069               01.0489707098E+027.8412606481E+01+
*       4.4707308297E+02               0
GRID*               7070               01.0489706150E+027.8412873796E+01+
*       4.4913452888E+02               0
GRID*               7071               01.0455339421E+027.6691222335E+01+
*       4.5016667329E+02               0
GRID*               7072               01.0489705120E+027.8413159041E+01+
*       4.5119627065E+02               0
GRID*               7073               01.0211745288E+027.4257794886E+01+
*       4.4398540875E+02               0
GRID*               7074               01.0357649888E+027.5231324336E+01+
*       4.4501439215E+02               0
GRID*               7075               01.0455328690E+027.6690936013E+01+
*       4.4604363542E+02               0
GRID*               7076               01.0211763284E+027.4257869315E+01+
*       4.4810880717E+02               0
GRID*               7077               01.0357679272E+027.5231617722E+01+
*       4.4707605461E+02               0
GRID*               7078               01.0211775506E+027.4257919913E+01+
*       4.4604720081E+02               0
GRID*               7079               01.0357657804E+027.5231403373E+01+
*       4.4295297844E+02               0
GRID*               7080               01.0211767549E+027.4257887020E+01+
*       4.4192381294E+02               0
GRID*               7081               01.0455331087E+027.6690981037E+01+
*       4.4398233838E+02               0
GRID*               7082               01.0489707992E+027.8412662124E+01+
*       4.4501197940E+02               0
GRID*               7083               01.0489711165E+027.8411637169E+01+
*       4.3470371956E+02               0
GRID*               7084               01.0455571848E+028.0135219821E+01+
*       4.3367206354E+02               0
GRID*               7085               01.0358016804E+028.1596848826E+01+
*       4.3264047688E+02               0
GRID*               7086               01.0211819201E+028.2573796439E+01+
*       4.3161189080E+02               0
GRID*               7087               01.0039630897E+028.2915916366E+01+
*       4.3059235461E+02               0
GRID*               7088               09.8686576943E+018.2578124380E+01+
*       4.2958189682E+02               0
GRID*               7089               09.7244579205E+018.1627051981E+01+
*       4.2857043797E+02               0
GRID*               7090               09.6269270660E+018.0207705260E+01+
*       4.2754589412E+02               0
GRID*               7091               09.5898341944E+017.8519878293E+01+
*       4.2650982546E+02               0
GRID*               7092               09.6196033369E+017.6803381804E+01+
*       4.2547030874E+02               0
GRID*               7093               09.7139452987E+017.5311498259E+01+
*       4.2443075682E+02               0
GRID*               7094               09.8606135809E+017.4287745919E+01+
*       4.2338907563E+02               0
GRID*               7095               01.0039519027E+028.2915916015E+01+
*       4.3882627291E+02               0
GRID*               7096               09.8671914422E+018.2572068614E+01+
*       4.3779543837E+02               0
GRID*               7097               09.7211937511E+018.1594678088E+01+
*       4.3676465224E+02               0
GRID*               7098               09.6237701011E+018.0133152420E+01+
*       4.3573416386E+02               0
GRID*               7099               09.5897137675E+017.8410440424E+01+
*       4.3470395040E+02               0
GRID*               7100               09.6241217991E+017.6690272400E+01+
*       4.3367401605E+02               0
GRID*               7101               09.7218000495E+017.5231098743E+01+
*       4.3264440204E+02               0
GRID*               7102               09.8676234954E+017.4258037410E+01+
*       4.3161486403E+02               0
GRID*               7103               09.6237165749E+018.0131855275E+01+
*       4.4191910821E+02               0
GRID*               7104               09.5897140921E+017.8409154352E+01+
*       4.4088891408E+02               0
GRID*               7105               09.6241839122E+017.6688774571E+01+
*       4.3985892279E+02               0
GRID*               7106               09.7218983628E+017.5230117683E+01+
*       4.3882930098E+02               0
GRID*               7107               09.8677291706E+017.4257600246E+01+
*       4.3780000630E+02               0
GRID*               7108               09.6241966900E+017.6688465128E+01+
*       4.4398244853E+02               0
GRID*               7109               09.7219081464E+017.5230020086E+01+
*       4.4295293681E+02               0
GRID*               7110               09.8677308401E+017.4257593383E+01+
*       4.4192369237E+02               0
GRID*               7111               09.8677387337E+017.4257560784E+01+
*       4.4604737302E+02               0
GRID*               7112               09.7218992147E+017.5230109184E+01+
*       4.4501485035E+02               0
GRID*               7113               09.8677194811E+017.4257640384E+01+
*       4.4398559764E+02               0
GRID*               7114               09.6241802897E+017.6688860743E+01+
*       4.4192080925E+02               0
GRID*               7115               09.5897141558E+017.8409198991E+01+
*       4.4295073153E+02               0
GRID*               7116               09.7218811746E+017.5230289158E+01+
*       4.4089126405E+02               0
GRID*               7117               09.8677134137E+017.4257665436E+01+
*       4.3986193069E+02               0
GRID*               7118               09.6241686185E+017.6689143527E+01+
*       4.3779724512E+02               0
GRID*               7119               09.5897138575E+017.8410064518E+01+
*       4.3676565573E+02               0
GRID*               7120               09.7218724908E+017.5230375798E+01+
*       4.3676762908E+02               0
GRID*               7121               09.8677112352E+017.4257674409E+01+
*       4.3573825348E+02               0
GRID*               7122               09.7218301549E+017.5230798259E+01+
*       4.3470604537E+02               0
GRID*               7123               09.8676591103E+017.4257890038E+01+
*       4.3367664142E+02               0
GRID*               7124               09.6241342462E+017.6689971838E+01+
*       4.3573578827E+02               0
GRID*               7125               09.7211711762E+018.1594451865E+01+
*       4.3882637454E+02               0
GRID*               7126               09.6237349881E+018.0132301625E+01+
*       4.3985755049E+02               0
GRID*               7127               09.8671602125E+018.2571938953E+01+
*       4.3985706919E+02               0
GRID*               7128               09.7211542703E+018.1594282430E+01+
*       4.4088801308E+02               0
GRID*               7129               09.6237557160E+018.0132803912E+01+
*       4.3779593261E+02               0
GRID*               7130               09.5897139365E+017.8409854335E+01+
*       4.3882742303E+02               0
GRID*               7131               01.0358033529E+028.1596681452E+01+
*       4.3470285071E+02               0
GRID*               7132               01.0358021486E+028.1596801976E+01+
*       4.3676483578E+02               0
GRID*               7133               01.0455569451E+028.0135277899E+01+
*       4.3573428432E+02               0
GRID*               7134               09.8663681355E+017.4263255352E+01+
*       4.2749562896E+02               0
GRID*               7135               09.7177818664E+017.5271723761E+01+
*       4.2647856380E+02               0
GRID*               7136               09.8635363271E+017.4275189379E+01+
*       4.2544350729E+02               0
GRID*               7137               09.7215014871E+017.5234081815E+01+
*       4.3058396331E+02               0
GRID*               7138               09.7202174296E+017.5246975871E+01+
*       4.2852868135E+02               0
GRID*               7139               09.8669859637E+017.4260681774E+01+
*       4.2955564798E+02               0
GRID*               7140               09.6233886759E+017.6708036940E+01+
*       4.2955834933E+02               0
GRID*               7141               09.5897357243E+017.8460547172E+01+
*       4.2854576168E+02               0
GRID*               7142               09.6216421976E+017.6751244006E+01+
*       4.2751626464E+02               0
GRID*               7143               09.5897134527E+017.8413991885E+01+
*       4.3264356913E+02               0
GRID*               7144               09.5897154842E+017.8429462655E+01+
*       4.3058997902E+02               0
GRID*               7145               09.6238005452E+017.6698030589E+01+
*       4.3161602194E+02               0
GRID*               7146               09.6242166959E+018.0143928992E+01+
*       4.3161730797E+02               0
GRID*               7147               09.7225555757E+018.1608265519E+01+
*       4.3059929502E+02               0
GRID*               7148               09.6252979046E+018.0169698082E+01+
*       4.2957893249E+02               0
GRID*               7149               09.7213010973E+018.1595753361E+01+
*       4.3470348660E+02               0
GRID*               7150               09.7217244785E+018.1599987243E+01+
*       4.3264678676E+02               0
GRID*               7151               09.6239423701E+018.0137318736E+01+
*       4.3367502534E+02               0
GRID*               7152               09.8674941819E+018.2573323941E+01+
*       4.3367399652E+02               0
GRID*               7153               01.0039721901E+028.2915916442E+01+
*       4.3264477814E+02               0
GRID*               7154               09.8679597255E+018.2575249263E+01+
*       4.3162351316E+02               0
GRID*               7155               01.0039656756E+028.2915916407E+01+
*       4.3470380393E+02               0
GRID*               7156               01.0211959427E+028.2573215909E+01+
*       4.3573394108E+02               0
GRID*               7157               01.0211952535E+028.2573244405E+01+
*       4.3367303890E+02               0
GRID*               7158               01.0211922049E+028.2573370777E+01+
*       4.3779556813E+02               0
GRID*               7159               09.8673011969E+018.2572524022E+01+
*       4.3573435431E+02               0
GRID*               7160               01.0039585817E+028.2915916259E+01+
*       4.3676490480E+02               0
GRID*               7161               01.0210882055E+027.4254233986E+01+
*       4.2542119098E+02               0
GRID*               7162               01.0356852922E+027.5223387707E+01+
*       4.2644795571E+02               0
GRID*               7163               01.0455113484E+027.6685674073E+01+
*       4.2747748397E+02               0
GRID*               7164               01.0489712489E+027.8414683792E+01+
*       4.2851014081E+02               0
GRID*               7165               01.0455242404E+028.0143165699E+01+
*       4.2954576080E+02               0
GRID*               7166               01.0357460716E+028.1602403541E+01+
*       4.3058133027E+02               0
GRID*               7167               01.0489711637E+027.8411988360E+01+
*       4.3264130166E+02               0
GRID*               7168               01.0489712150E+027.8413971094E+01+
*       4.3057765069E+02               0
GRID*               7169               01.0455432224E+028.0138592637E+01+
*       4.3160997075E+02               0
GRID*               7170               01.0357609231E+027.5230918496E+01+
*       4.3264375640E+02               0
GRID*               7171               01.0455328773E+027.6690865304E+01+
*       4.3161090726E+02               0
GRID*               7172               01.0455323124E+027.6690737162E+01+
*       4.3367349209E+02               0
GRID*               7173               01.0211650614E+027.4257403431E+01+
*       4.2955189930E+02               0
GRID*               7174               01.0357585867E+027.5230685311E+01+
*       4.3058107236E+02               0
GRID*               7175               01.0211723735E+027.4257705827E+01+
*       4.3161424006E+02               0
GRID*               7176               01.0455306003E+027.6690309709E+01+
*       4.2954578590E+02               0
GRID*               7177               01.0357373014E+027.5228562567E+01+
*       4.2851531223E+02               0
GRID*               7178               01.0211360732E+027.4256206044E+01+
*       4.2748664232E+02               0
GRID*               7179               01.0210352097E+027.4252058157E+01+
*       4.2334366554E+02               0
GRID*               7180               01.0355949776E+027.5214441536E+01+
*       4.2436428043E+02               0
GRID*               7181               01.0454721534E+027.6676288328E+01+
*       4.2539151108E+02               0
GRID*               7182               01.0489712594E+027.8419935047E+01+
*       4.2642922840E+02               0
GRID*               7183               01.0454301622E+028.0165624383E+01+
*       4.2747995028E+02               0
GRID*               7184               01.0355378696E+028.1623027571E+01+
*       4.2853351718E+02               0
GRID*               7185               01.0210113632E+028.2580814695E+01+
*       4.2957299578E+02               0
GRID*               7186               01.0038567546E+028.2915901584E+01+
*       4.2859184917E+02               0
GRID*               7187               09.8715515640E+018.2589899307E+01+
*       4.2761968368E+02               0
GRID*               7188               09.7311585196E+018.1691478711E+01+
*       4.2661110894E+02               0
GRID*               7189               09.6324662210E+018.0330271576E+01+
*       4.2556523925E+02               0
GRID*               7190               09.5904194881E+017.8667425320E+01+
*       4.2450781566E+02               0
GRID*               7191               09.6146915310E+017.6937642077E+01+
*       4.2344519113E+02               0
GRID*               7192               09.7065479416E+017.5391044357E+01+
*       4.2238655483E+02               0
GRID*               7193               09.8558455092E+017.4308757607E+01+
*       4.2133941533E+02               0
GRID*               7194               01.0211323647E+027.4256053078E+01+
*       4.2124378635E+02               0
GRID*               7195               01.0355518947E+027.5210191717E+01+
*       4.2226105232E+02               0
GRID*               7196               01.0454178125E+027.6663376154E+01+
*       4.2328008970E+02               0
GRID*               7197               01.0489712217E+027.8424197751E+01+
*       4.2431646300E+02               0
GRID*               7198               01.0452582654E+028.0205806388E+01+
*       4.2538828857E+02               0
GRID*               7199               01.0350157529E+028.1673591262E+01+
*       4.2649251399E+02               0
GRID*               7200               01.0205185172E+028.2600638256E+01+
*       4.2757784399E+02               0
GRID*               7201               01.0035943720E+028.2915756779E+01+
*       4.2670336581E+02               0
GRID*               7202               09.8808570607E+018.2626192260E+01+
*       4.2576758415E+02               0
GRID*               7203               09.7459414984E+018.1824651487E+01+
*       4.2469517380E+02               0
GRID*               7204               09.6422152468E+018.0525285335E+01+
*       4.2359824151E+02               0
GRID*               7205               09.5922286448E+017.8890533372E+01+
*       4.2250240340E+02               0
GRID*               7206               09.6085476605E+017.7127694278E+01+
*       4.2138562678E+02               0
GRID*               7207               09.6993599022E+017.5472179820E+01+
*       4.2031921512E+02               0
GRID*               7208               09.8524163137E+017.4324278434E+01+
*       4.1931714197E+02               0
GRID*               7209               01.0216703566E+027.4278655939E+01+
*       4.1905749816E+02               0
GRID*               7210               01.0357137029E+027.5226212441E+01+
*       4.2014269297E+02               0
GRID*               7211               01.0453434085E+027.6645878709E+01+
*       4.2115029091E+02               0
GRID*               7212               01.0489713048E+027.8413457619E+01+
*       4.2215355534E+02               0
GRID*               7213               01.0451096674E+028.0239699776E+01+
*       4.2322604969E+02               0
GRID*               7214               01.0339989871E+028.1767517948E+01+
*       4.2438409695E+02               0
GRID*               7215               01.0191598134E+028.2651842933E+01+
*       4.2562830775E+02               0
GRID*               7216               09.9120592978E+018.2731059905E+01+
*       4.2393868394E+02               0
GRID*               7217               09.9559270200E+018.2837192762E+01+
*       4.2191199921E+02               0
GRID*               7218               09.9871801380E+018.2885094490E+01+
*       4.1976148777E+02               0
GRID*               7219               01.0015779257E+028.2909524165E+01+
*       4.1766000621E+02               0
GRID*               7220               09.7959411235E+018.2198418611E+01+
*       4.2070869232E+02               0
GRID*               7221               09.6563822190E+018.0772957146E+01+
*       4.2160775406E+02               0
GRID*               7222               09.7696314355E+018.2015232321E+01+
*       4.2274704147E+02               0
GRID*               7223               09.8217301042E+018.2352707242E+01+
*       4.1862839194E+02               0
GRID*               7224               09.6742368135E+018.1041266252E+01+
*       4.1963077880E+02               0
GRID*               7225               09.5965291621E+017.9195898650E+01+
*       4.2048309465E+02               0
GRID*               7226               09.6015346606E+017.7391274592E+01+
*       4.1914395688E+02               0
GRID*               7227               09.6188966358E+017.6821911227E+01+
*       4.1743258668E+02               0
GRID*               7228               09.6991461157E+017.5474654018E+01+
*       4.1830385851E+02               0
GRID*               7229               09.8490588663E+017.4339810493E+01+
*       4.1744049807E+02               0
GRID*               7230               09.5897474776E+017.8471238575E+01+
*       4.1743231323E+02               0
GRID*               7231               09.6902993614E+018.1251559199E+01+
*       4.1775772409E+02               0
GRID*               7232               09.6207017739E+018.0056876771E+01+
*       4.1722972358E+02               0
GRID*               7233               09.6068417143E+017.9645630205E+01+
*       4.1861049621E+02               0
GRID*               7234               01.0335273963E+028.1809164583E+01+
*       4.2212932914E+02               0
GRID*               7235               01.0165814296E+028.2735626257E+01+
*       4.2095619382E+02               0
GRID*               7236               01.0140451243E+028.2801704982E+01+
*       4.2343205366E+02               0
GRID*               7237               01.0030130640E+028.2914892943E+01+
*       4.2511964192E+02               0
GRID*               7238               01.0451066129E+028.0240388482E+01+
*       4.2096444934E+02               0
GRID*               7239               01.0338011559E+028.1785130385E+01+
*       4.1983907411E+02               0
GRID*               7240               01.0186333287E+028.2670353730E+01+
*       4.1872525131E+02               0
GRID*               7241               01.0451346617E+028.0234051236E+01+
*       4.1839835491E+02               0
GRID*               7242               01.0332965139E+028.1829131292E+01+
*       4.1784980568E+02               0
GRID*               7243               01.0489665069E+027.8350123088E+01+
*       4.1994664074E+02               0
GRID*               7244               01.0488341963E+027.8064880327E+01+
*       4.1786864275E+02               0
GRID*               7245               01.0451750958E+027.6607037324E+01+
*       4.1909674079E+02               0
GRID*               7246               01.0448736242E+027.6539849952E+01+
*       4.1746230337E+02               0
GRID*               7247               01.0365165005E+027.5308173827E+01+
*       4.1802283787E+02               0
GRID*               7248               09.5966996597E+017.7626003086E+01+
*       5.9820604701E+02               0
GRID*               7249               09.6141532775E+017.6953216961E+01+
*       5.9778289734E+02               0
GRID*               7250               09.5962756868E+017.7651147937E+01+
*       5.9424054154E+02               0
GRID*               7251               09.6131610947E+017.6982300566E+01+
*       5.9468415465E+02               0
GRID*               7252               09.9486275248E+017.4009072978E+01+
*       5.9296414255E+02               0
GRID*               7253               09.9485630210E+017.4009206340E+01+
*       5.9193305652E+02               0
GRID*               7254               09.6305630576E+017.6542557992E+01+
*       5.9564571397E+02               0
GRID*               7255               09.6321119290E+017.6509106701E+01+
*       5.9647436350E+02               0
GRID*               7256               09.8628426809E+017.4278148258E+01+
*       5.9347997015E+02               0
GRID*               7257               09.7792618468E+017.4746252537E+01+
*       5.9404646388E+02               0
GRID*               7258               09.7776380434E+017.4757831395E+01+
*       5.9302348078E+02               0
GRID*               7259               09.9501184893E+017.4006017930E+01+
*       5.9398617610E+02               0
GRID*               7260               09.6279061617E+017.6601683829E+01+
*       5.9514178301E+02               0
GRID*               7261               09.6325562984E+017.6499642281E+01+
*       5.9446682929E+02               0
GRID*               7262               09.6539294736E+017.6099233646E+01+
*       5.9542180399E+02               0
GRID*               7263               09.6893165000E+017.5592494828E+01+
*       5.9518701264E+02               0
GRID*               7264               09.6890781953E+017.5595455471E+01+
*       5.9571802376E+02               0
GRID*               7265               09.6783683922E+017.5734042591E+01+
*       5.9424962713E+02               0
GRID*               7266               09.6529180364E+017.6116157515E+01+
*       5.9380852049E+02               0
GRID*               7267               09.7186043784E+017.5263325754E+01+
*       5.9452680566E+02               0
GRID*               7268               09.7934477178E+017.4649586010E+01+
*       5.9498660772E+02               0
GRID*               7269               09.8587020314E+017.4296091661E+01+
*       5.9959760696E+02               0
GRID*               7270               09.7781913694E+017.4753873582E+01+
*       6.0009576858E+02               0
GRID*               7271               09.7784274752E+017.4752188621E+01+
*       5.9905808368E+02               0
GRID*               7272               09.9471569138E+017.4012138001E+01+
*       5.9910913480E+02               0
GRID*               7273               09.9472287321E+017.4011987124E+01+
*       5.9807580358E+02               0
GRID*               7274               09.9472443319E+017.4011954368E+01+
*       6.0014703347E+02               0
GRID*               7275               09.9471932368E+017.4012061677E+01+
*       6.0117781826E+02               0
GRID*               7276               09.9496056794E+017.4007062746E+01+
*       5.9705071309E+02               0
GRID*               7277               09.8611594010E+017.4285383354E+01+
*       5.9753054868E+02               0
GRID*               7278               09.9495855436E+017.4007103901E+01+
*       5.9601540883E+02               0
GRID*               7279               09.9502042861E+017.4005843728E+01+
*       5.9501982084E+02               0
GRID*               7280               09.8639148820E+017.4273581532E+01+
*       5.9550234980E+02               0
GRID*               7281               09.7062536409E+017.5394281750E+01+
*       5.9847190757E+02               0
GRID*               7282               09.6555401431E+017.6072626592E+01+
*       5.9907866299E+02               0
GRID*               7283               09.6536709764E+017.6103542810E+01+
*       5.9799022457E+02               0
GRID*               7284               09.7748234105E+017.4778160906E+01+
*       5.9796984654E+02               0
GRID*               7285               09.7769974872E+017.4762428970E+01+
*       5.9693805315E+02               0
GRID*               7286               09.7932354371E+017.4650974880E+01+
*       5.9598836318E+02               0
GRID*               7287               09.6465987921E+017.6225959197E+01+
*       5.9716525960E+02               0
GRID*               7288               09.7171765857E+017.5277937798E+01+
*       5.9642547299E+02               0
GRID*               7289               09.6771877864E+017.5750021286E+01+
*       5.9669923586E+02               0
GRID*               7290               09.6502503873E+017.6161624745E+01+
*       6.0413799519E+02               0
GRID*               7291               09.7052371583E+017.5405544505E+01+
*       6.0468823301E+02               0
GRID*               7292               09.6494119373E+017.6176174738E+01+
*       6.0517003169E+02               0
GRID*               7293               09.6125308779E+017.7001857071E+01+
*       6.0358273730E+02               0
GRID*               7294               09.6517929596E+017.6135183838E+01+
*       6.0310210734E+02               0
GRID*               7295               09.6546697985E+017.6086952181E+01+
*       6.0003829286E+02               0
GRID*               7296               09.6160803788E+017.6898769845E+01+
*       5.9956518578E+02               0
GRID*               7297               09.7085984689E+017.5368598903E+01+
*       6.0057998213E+02               0
GRID*               7298               09.6545888494E+017.6088290699E+01+
*       6.0106044886E+02               0
GRID*               7299               09.6525711060E+017.6122001583E+01+
*       6.0207546508E+02               0
GRID*               7300               09.7074062523E+017.5381609036E+01+
*       6.0262878760E+02               0
GRID*               7301               09.6146487047E+017.6938818485E+01+
*       6.0153292338E+02               0
GRID*               7302               09.9452897432E+017.4016103631E+01+
*       6.0632882712E+02               0
GRID*               7303               09.8557918828E+017.4308998249E+01+
*       6.0578253919E+02               0
GRID*               7304               09.9461521054E+017.4014261791E+01+
*       6.0529738842E+02               0
GRID*               7305               09.9452889452E+017.4016105346E+01+
*       6.0735907374E+02               0
GRID*               7306               09.7744580971E+017.4780823865E+01+
*       6.0523684561E+02               0
GRID*               7307               09.7758388135E+017.4770788682E+01+
*       6.0420402399E+02               0
GRID*               7308               09.7737552339E+017.4785963266E+01+
*       6.0626716494E+02               0
GRID*               7309               09.9468844105E+017.4012711595E+01+
*       6.0220656184E+02               0
GRID*               7310               09.8582706935E+017.4297989071E+01+
*       6.0166387826E+02               0
GRID*               7311               09.9468653825E+017.4012751714E+01+
*       6.0323664366E+02               0
GRID*               7312               09.9461573104E+017.4014250728E+01+
*       6.0426730813E+02               0
GRID*               7313               09.8572649705E+017.4302434274E+01+
*       6.0372183556E+02               0
GRID*               7314               09.7780336025E+017.4755000761E+01+
*       6.0111894977E+02               0
GRID*               7315               09.7776923259E+017.4757442561E+01+
*       6.0214676655E+02               0
GRID*               7316               09.7764351586E+017.4766479121E+01+
*       6.0317456020E+02               0
GRID*               7317               09.6751018489E+018.1051995599E+01+
*       5.9706866041E+02               0
GRID*               7318               09.6404679490E+018.0492082233E+01+
*       5.9656833232E+02               0
GRID*               7319               09.6351331754E+018.0386181853E+01+
*       5.9740612212E+02               0
GRID*               7320               09.7883007667E+018.2148053850E+01+
*       5.9812665952E+02               0
GRID*               7321               09.8632782758E+018.2555609684E+01+
*       5.9864649767E+02               0
GRID*               7322               09.8680946413E+018.2575806853E+01+
*       5.9767344901E+02               0
GRID*               7323               09.7272915537E+018.1654620777E+01+
*       5.9754570304E+02               0
GRID*               7324               09.7307923340E+018.1688029132E+01+
*       5.9666868409E+02               0
GRID*               7325               09.7225136122E+018.1607848169E+01+
*       5.9851446041E+02               0
GRID*               7326               09.5937325183E+017.7816515946E+01+
*       6.0095409033E+02               0
GRID*               7327               09.5932640635E+017.7852425879E+01+
*       6.0196591357E+02               0
GRID*               7328               09.5954782065E+017.7698062691E+01+
*       5.9903304009E+02               0
GRID*               7329               09.5897418299E+017.8456732408E+01+
*       5.9853329009E+02               0
GRID*               7330               09.5954712014E+017.7699137433E+01+
*       5.9998064846E+02               0
GRID*               7331               09.6101595157E+017.9756853157E+01+
*       5.9768345592E+02               0
GRID*               7332               09.6347622979E+018.0378478279E+01+
*       5.9814419291E+02               0
GRID*               7333               09.5942955756E+017.9056109636E+01+
*       5.9809138220E+02               0
GRID*               7334               09.5947455282E+017.9086656299E+01+
*       5.9890543212E+02               0
GRID*               7335               09.6560808609E+018.0767377726E+01+
*       5.9895200060E+02               0
GRID*               7336               09.7039507851E+018.1411951462E+01+
*       5.9953089526E+02               0
GRID*               7337               09.5902783094E+017.8639312188E+01+
*       6.0039731270E+02               0
GRID*               7338               09.6045135972E+017.9560341524E+01+
*       5.9969302743E+02               0
GRID*               7339               09.6075025994E+017.9668611354E+01+
*       6.0067370210E+02               0
GRID*               7340               09.6228831474E+018.0111434683E+01+
*       5.9916649996E+02               0
GRID*               7341               09.5925860640E+017.7908952943E+01+
*       6.0301935922E+02               0
GRID*               7342               09.5914609952E+017.8811229302E+01+
*       6.0243363892E+02               0
GRID*               7343               09.5922609388E+017.7938429733E+01+
*       6.0405460063E+02               0
GRID*               7344               09.6093246556E+017.9729751159E+01+
*       6.0184717533E+02               0
GRID*               7345               09.6453619067E+018.0583197218E+01+
*       6.0113598431E+02               0
GRID*               7346               09.6109629846E+017.9782328766E+01+
*       6.0290253984E+02               0
GRID*               7347               09.7010470289E+018.1378954269E+01+
*       6.0057642163E+02               0
GRID*               7348               09.7802240292E+018.2092341354E+01+
*       6.0014796012E+02               0
GRID*               7349               09.7052317630E+018.1426266895E+01+
*       6.0175435585E+02               0
GRID*               7350               09.9493285447E+018.2824191778E+01+
*       5.9919303386E+02               0
GRID*               7351               01.0037956066E+028.2915881937E+01+
*       5.9969956626E+02               0
GRID*               7352               01.0038332064E+028.2915895123E+01+
*       5.9870348503E+02               0
GRID*               7353               09.8624262376E+018.2551967957E+01+
*       5.9964188980E+02               0
GRID*               7354               09.8590272663E+018.2537233001E+01+
*       6.0069212151E+02               0
GRID*               7355               09.9438493437E+017.4019219456E+01+
*       6.0838774107E+02               0
GRID*               7356               09.8536476323E+017.4318666095E+01+
*       6.0784148234E+02               0
GRID*               7357               09.9438492476E+017.4019219662E+01+
*       6.0941814911E+02               0
GRID*               7358               09.7721377214E+017.4797870004E+01+
*       6.0729701444E+02               0
GRID*               7359               09.7027809593E+017.5433070370E+01+
*       6.0675008558E+02               0
GRID*               7360               09.7709649026E+017.4806573344E+01+
*       6.0832471489E+02               0
GRID*               7361               09.5919064751E+017.7972393559E+01+
*       6.0510403737E+02               0
GRID*               7362               09.6108636042E+017.7053310612E+01+
*       6.0565419601E+02               0
GRID*               7363               09.5916647561E+017.7997036662E+01+
*       6.0613982363E+02               0
GRID*               7364               09.5923449019E+017.8900918600E+01+
*       6.0453889812E+02               0
GRID*               7365               09.6481694843E+017.6197976149E+01+
*       6.0620603493E+02               0
GRID*               7366               09.6471937950E+017.6215296599E+01+
*       6.0723524087E+02               0
GRID*               7367               09.6121067000E+017.9816989436E+01+
*       6.0397889744E+02               0
GRID*               7368               09.6502806461E+018.0670220523E+01+
*       6.0339067801E+02               0
GRID*               7369               09.6131486643E+017.9849228513E+01+
*       6.0502899584E+02               0
GRID*               7370               09.7061764408E+018.1436730321E+01+
*       6.0282943190E+02               0
GRID*               7371               09.7781310462E+018.2077476271E+01+
*       6.0227126124E+02               0
GRID*               7372               09.7086027097E+018.1463305073E+01+
*       6.0390743632E+02               0
GRID*               7373               09.8595564258E+018.2539548806E+01+
*       6.0172545314E+02               0
GRID*               7374               09.9494142566E+018.2824366416E+01+
*       6.0122321456E+02               0
GRID*               7375               09.8608879402E+018.2545340462E+01+
*       6.0280156179E+02               0
GRID*               7376               01.0129369106E+028.2825674473E+01+
*       6.0020609747E+02               0
GRID*               7377               01.0215564238E+028.2558096904E+01+
*       6.0067412608E+02               0
GRID*               7378               01.0213290178E+028.2567676954E+01+
*       5.9968123709E+02               0
GRID*               7379               01.0040120138E+028.2915914566E+01+
*       6.0069312110E+02               0
GRID*               7380               01.0040955738E+028.2915898971E+01+
*       6.0172753584E+02               0
GRID*               7381               01.0219530366E+027.4290861696E+01+
*       6.0590757413E+02               0
GRID*               7382               01.0300608173E+027.4749398323E+01+
*       6.0543036677E+02               0
GRID*               7383               01.0299533432E+027.4741774701E+01+
*       6.0646890095E+02               0
GRID*               7384               01.0130896845E+027.4009273913E+01+
*       6.0639513444E+02               0
GRID*               7385               01.0130896884E+027.4009273956E+01+
*       6.0742606228E+02               0
GRID*               7386               01.0132184256E+027.4011957099E+01+
*       6.0535544380E+02               0
GRID*               7387               01.0370859156E+027.5368935290E+01+
*       6.0494499361E+02               0
GRID*               7388               01.0427054185E+027.6125347497E+01+
*       6.0446437126E+02               0
GRID*               7389               01.0426118035E+027.6109589778E+01+
*       6.0550922290E+02               0
GRID*               7390               01.0302043892E+027.4759656729E+01+
*       6.0438369463E+02               0
GRID*               7391               01.0466425670E+027.6987791542E+01+
*       6.0397321678E+02               0
GRID*               7392               01.0486941609E+027.7917679178E+01+
*       6.0348952733E+02               0
GRID*               7393               01.0486652832E+027.7892371793E+01+
*       6.0454284115E+02               0
GRID*               7394               01.0428305637E+027.6146639900E+01+
*       6.0341069154E+02               0
GRID*               7395               01.0487237482E+027.8886402151E+01+
*       6.0299123717E+02               0
GRID*               7396               01.0487394656E+027.7960078989E+01+
*       6.0242454984E+02               0
GRID*               7397               01.0467038609E+027.9826358770E+01+
*       6.0251049924E+02               0
GRID*               7398               01.0468372667E+027.9785305909E+01+
*       6.0357785531E+02               0
GRID*               7399               01.0426177308E+028.0720672453E+01+
*       6.0205410040E+02               0
GRID*               7400               01.0464898485E+027.9889601803E+01+
*       6.0146937246E+02               0
GRID*               7401               01.0368399364E+028.1489447642E+01+
*       6.0158113572E+02               0
GRID*               7402               01.0372874931E+028.1440876284E+01+
*       6.0262534557E+02               0
GRID*               7403               01.0297178435E+028.2106557468E+01+
*       6.0115275154E+02               0
GRID*               7404               01.0220467229E+028.2536938715E+01+
*       6.0167602577E+02               0
GRID*               7405               01.0364592494E+028.1529659442E+01+
*       6.0058032597E+02               0
GRID*               7406               09.9412951466E+017.4024865981E+01+
*       6.1044114657E+02               0
GRID*               7407               09.8499294164E+017.4335751268E+01+
*       6.0989218874E+02               0
GRID*               7408               09.9412937601E+017.4024869084E+01+
*       6.1147166984E+02               0
GRID*               7409               09.7686752362E+017.4823736197E+01+
*       6.0934409598E+02               0
GRID*               7410               09.6995820761E+017.5469610777E+01+
*       6.0879862432E+02               0
GRID*               7411               09.7665960953E+017.4839519539E+01+
*       6.1036623419E+02               0
GRID*               7412               09.5914506892E+017.8020652931E+01+
*       6.0718767603E+02               0
GRID*               7413               09.6094681501E+017.7097868398E+01+
*       6.0771948119E+02               0
GRID*               7414               09.5912663433E+017.8042444188E+01+
*       6.0821695210E+02               0
GRID*               7415               09.5930080677E+017.8958562607E+01+
*       6.0663679319E+02               0
GRID*               7416               09.6461233157E+017.6234505171E+01+
*       6.0826475135E+02               0
GRID*               7417               09.6447509881E+017.6259453720E+01+
*       6.0928352042E+02               0
GRID*               7418               09.6140435475E+017.9875576759E+01+
*       6.0609321263E+02               0
GRID*               7419               09.6535811492E+018.0726248257E+01+
*       6.0553277574E+02               0
GRID*               7420               09.6148248396E+017.9898151590E+01+
*       6.0714129982E+02               0
GRID*               7421               09.7102974174E+018.1481616456E+01+
*       6.0497981462E+02               0
GRID*               7422               09.7813672383E+018.2100386108E+01+
*       6.0441931524E+02               0
GRID*               7423               09.7121751993E+018.1501670353E+01+
*       6.0604477095E+02               0
GRID*               7424               09.8630160764E+018.2554491347E+01+
*       6.0386313740E+02               0
GRID*               7425               09.9524247661E+018.2830420095E+01+
*       6.0331892645E+02               0
GRID*               7426               09.8653680329E+018.2564453685E+01+
*       6.0493615509E+02               0
GRID*               7427               01.0134815026E+028.2814260124E+01+
*       6.0223490567E+02               0
GRID*               7428               01.0223515431E+028.2523434168E+01+
*       6.0271145257E+02               0
GRID*               7429               01.0044125999E+028.2915697556E+01+
*       6.0276305655E+02               0
GRID*               7430               01.0046556106E+028.2915393112E+01+
*       6.0382509156E+02               0
GRID*               7431               01.0128458432E+027.4004298568E+01+
*       6.0845910221E+02               0
GRID*               7432               01.0128458443E+027.4004298581E+01+
*       6.0949003004E+02               0
GRID*               7433               01.0216032134E+027.4275790098E+01+
*       6.0798030461E+02               0
GRID*               7434               01.0296896234E+027.4723267186E+01+
*       6.0751539328E+02               0
GRID*               7435               01.0294850246E+027.4709101622E+01+
*       6.0854766170E+02               0
GRID*               7436               01.0367423218E+027.5332001386E+01+
*       6.0703634886E+02               0
GRID*               7437               01.0424231146E+027.6078269143E+01+
*       6.0656244515E+02               0
GRID*               7438               01.0422521389E+027.6050381316E+01+
*       6.0760761148E+02               0
GRID*               7439               01.0464418744E+027.6928892172E+01+
*       6.0607943291E+02               0
GRID*               7440               01.0486066000E+027.7844470292E+01+
*       6.0560291862E+02               0
GRID*               7441               01.0485581127E+027.7807763701E+01+
*       6.0665571560E+02               0
GRID*               7442               01.0488094855E+027.8795912661E+01+
*       6.0511778497E+02               0
GRID*               7443               01.0305929142E+028.2043928737E+01+
*       6.0320517111E+02               0
GRID*               7444               01.0228267244E+028.2501839129E+01+
*       6.0376286961E+02               0
GRID*               7445               01.0470120947E+027.9729286268E+01+
*       6.0464067304E+02               0
GRID*               7446               01.0471506401E+027.9682989478E+01+
*       6.0570161060E+02               0
GRID*               7447               01.0432369636E+028.0613584905E+01+
*       6.0416048978E+02               0
GRID*               7448               01.0376471840E+028.1400724803E+01+
*       6.0367576487E+02               0
GRID*               7449               01.0380396365E+028.1355656550E+01+
*       6.0474007563E+02               0
GRID*               7450               09.9368028955E+017.4035175431E+01+
*       6.1249576679E+02               0
GRID*               7451               09.8433873481E+017.4366813908E+01+
*       6.1193844015E+02               0
GRID*               7452               09.9367975748E+017.4035187927E+01+
*       6.1352631867E+02               0
GRID*               7453               09.7619028808E+017.4875854740E+01+
*       6.1137099849E+02               0
GRID*               7454               09.6938857123E+017.5536703182E+01+
*       6.1082211253E+02               0
GRID*               7455               09.7582858438E+017.4904542476E+01+
*       6.1239423461E+02               0
GRID*               7456               09.5912308244E+017.8046788682E+01+
*       6.0925955087E+02               0
GRID*               7457               09.6083791653E+017.7133662858E+01+
*       6.0974795063E+02               0
GRID*               7458               09.5911121228E+017.8061670175E+01+
*       6.1025857442E+02               0
GRID*               7459               09.5933566869E+017.8986652402E+01+
*       6.0872738803E+02               0
GRID*               7460               09.6440419557E+017.6272487760E+01+
*       6.1028284535E+02               0
GRID*               7461               09.6412534920E+017.6324774757E+01+
*       6.1128699082E+02               0
GRID*               7462               09.6152934577E+017.9911505920E+01+
*       6.0820559476E+02               0
GRID*               7463               09.6557925476E+018.0762823024E+01+
*       6.0766190883E+02               0
GRID*               7464               09.6154467089E+017.9915839870E+01+
*       6.0924819875E+02               0
GRID*               7465               09.7135441821E+018.1516137063E+01+
*       6.0712029147E+02               0
GRID*               7466               09.7851043255E+018.2126315760E+01+
*       6.0656771542E+02               0
GRID*               7467               09.7145018523E+018.1526181422E+01+
*       6.0818489158E+02               0
GRID*               7468               09.8679405058E+018.2575170283E+01+
*       6.0601763662E+02               0
GRID*               7469               09.9575398053E+018.2840218220E+01+
*       6.0546226582E+02               0
GRID*               7470               09.8698275329E+018.2582912856E+01+
*       6.0709348934E+02               0
GRID*               7471               01.0142108059E+028.2797866856E+01+
*       6.0434183942E+02               0
GRID*               7472               01.0232135765E+028.2483763470E+01+
*       6.0483418182E+02               0
GRID*               7473               01.0050723028E+028.2914565572E+01+
*       6.0489658986E+02               0
GRID*               7474               01.0053590607E+028.2913769306E+01+
*       6.0597824691E+02               0
GRID*               7475               01.0124007694E+027.3995580444E+01+
*       6.1049022254E+02               0
GRID*               7476               01.0124007543E+027.3995580280E+01+
*       6.1152115037E+02               0
GRID*               7477               01.0209540313E+027.4248740555E+01+
*       6.1001353697E+02               0
GRID*               7478               01.0290513267E+027.4679622101E+01+
*       6.0958911622E+02               0
GRID*               7479               01.0286740755E+027.4654573724E+01+
*       6.1058871878E+02               0
GRID*               7480               01.0361531891E+027.5270561083E+01+
*       6.0912304555E+02               0
GRID*               7481               01.0420270941E+027.6014355591E+01+
*       6.0865972892E+02               0
GRID*               7482               01.0417427838E+027.5969898074E+01+
*       6.0970017749E+02               0
GRID*               7483               01.0461709315E+027.6853863372E+01+
*       6.0818416198E+02               0
GRID*               7484               01.0315265489E+028.1973532137E+01+
*       6.0533515453E+02               0
GRID*               7485               01.0237836981E+028.2456302054E+01+
*       6.0591355985E+02               0
GRID*               7486               01.0484822780E+027.7754513310E+01+
*       6.0770744825E+02               0
GRID*               7487               01.0484176537E+027.7712363427E+01+
*       6.0875902642E+02               0
GRID*               7488               01.0488846597E+027.8693649710E+01+
*       6.0723003398E+02               0
GRID*               7489               01.0473421594E+027.9615574892E+01+
*       6.0676824683E+02               0
GRID*               7490               01.0474826327E+027.9563781201E+01+
*       6.0782012991E+02               0
GRID*               7491               01.0438474919E+028.0500827791E+01+
*       6.0629091241E+02               0
GRID*               7492               01.0384604324E+028.1305987338E+01+
*       6.0581871967E+02               0
GRID*               7493               01.0389129089E+028.1251006708E+01+
*       6.0688604079E+02               0
GRID*               7494               01.0116739877E+027.3982343200E+01+
*       6.1235852784E+02               0
GRID*               7495               01.0116739757E+027.3982343070E+01+
*       6.1338945567E+02               0
GRID*               7496               01.0198429181E+027.4205160654E+01+
*       6.1185110691E+02               0
GRID*               7497               01.0277368971E+027.4594668549E+01+
*       6.1161913561E+02               0
GRID*               7498               01.0349861474E+027.5155427921E+01+
*       6.1119394802E+02               0
GRID*               7499               01.0271084422E+027.4556291731E+01+
*       6.1245592034E+02               0
GRID*               7500               01.0415287950E+027.5937177822E+01+
*       6.1078805846E+02               0
GRID*               7501               01.0409031154E+027.5844911398E+01+
*       6.1181774395E+02               0
GRID*               7502               01.0458807553E+027.6777452740E+01+
*       6.1032356058E+02               0
GRID*               7503               01.0483679708E+027.7681632706E+01+
*       6.0979053666E+02               0
GRID*               7504               01.0483025931E+027.7643111066E+01+
*       6.1087780621E+02               0
GRID*               7505               01.0489296301E+027.8608360879E+01+
*       6.0931320542E+02               0
GRID*               7506               01.0150788964E+028.2776680001E+01+
*       6.0652312380E+02               0
GRID*               7507               01.0058259192E+028.2912079971E+01+
*       6.0708821773E+02               0
GRID*               7508               01.0477031069E+027.9476570349E+01+
*       6.0885067418E+02               0
GRID*               7509               01.0477750500E+027.9446447450E+01+
*       6.0988197376E+02               0
GRID*               7510               01.0445687619E+028.0357156463E+01+
*       6.0838826293E+02               0
GRID*               7511               01.0394843342E+028.1179081279E+01+
*       6.0798677910E+02               0
GRID*               7512               01.0400319965E+028.1107309979E+01+
*       6.0901763975E+02               0
GRID*               7513               01.0327369681E+028.1876407357E+01+
*       6.0751508305E+02               0
GRID*               7514               01.0242073930E+028.2435248571E+01+
*       6.0702333142E+02               0
GRID*               7515               01.0250148801E+028.2393567126E+01+
*       6.0812444059E+02               0
GRID*               7516               01.0191109937E+028.2653590285E+01+
*       6.1522189152E+02               0
GRID*               7517               01.0092980562E+028.2884225811E+01+
*       6.1522189762E+02               0
GRID*               7518               01.0284597315E+028.2191231753E+01+
*       6.1525341537E+02               0
GRID*               7519               01.0362526972E+028.1551068271E+01+
*       6.1525344267E+02               0
GRID*               7520               01.0243360631E+028.2428744553E+01+
*       6.1432315765E+02               0
GRID*               7521               01.0294631847E+028.2124194622E+01+
*       6.1339491527E+02               0
GRID*               7522               01.0202377799E+028.2611629575E+01+
*       6.1336338662E+02               0
GRID*               7523               01.0341608979E+028.1752943354E+01+
*       6.1253405106E+02               0
GRID*               7524               01.0388282974E+028.1261711089E+01+
*       6.1168648465E+02               0
GRID*               7525               01.0313035079E+028.1990696161E+01+
*       6.1158774096E+02               0
GRID*               7526               01.0373376486E+028.1435343085E+01+
*       6.1349378662E+02               0
GRID*               7527               01.0424733417E+028.0745278670E+01+
*       6.1530303060E+02               0
GRID*               7528               01.0466910043E+027.9830236664E+01+
*       6.1530324790E+02               0
GRID*               7529               01.0400173306E+028.1109708747E+01+
*       6.1440447672E+02               0
GRID*               7530               01.0432764996E+028.0607036466E+01+
*       6.1354310338E+02               0
GRID*               7531               01.0488743089E+027.8710461382E+01+
*       6.1149939179E+02               0
GRID*               7532               01.0485121950E+027.7774817767E+01+
*       6.1203284070E+02               0
GRID*               7533               01.0462642471E+027.9953133149E+01+
*       6.1264340436E+02               0
GRID*               7534               01.0475141999E+027.9551772449E+01+
*       6.1355423590E+02               0
GRID*               7535               01.0476637486E+027.9492763445E+01+
*       6.1189855071E+02               0
GRID*               7536               01.0435696277E+028.0553588573E+01+
*       6.1188763869E+02               0
GRID*               7537               01.0479635505E+027.9362871705E+01+
*       6.1074395221E+02               0
GRID*               7538               01.0416685092E+028.0873092153E+01+
*       6.1094173558E+02               0
GRID*               7539               01.0452952799E+028.0197242482E+01+
*       6.1028091571E+02               0
GRID*               7540               01.0411940952E+028.0944259459E+01+
*       6.1007983280E+02               0
GRID*               7541               01.0486302026E+027.8968519819E+01+
*       6.1542410507E+02               0
GRID*               7542               01.0487407904E+027.7960993140E+01+
*       6.1542404626E+02               0
GRID*               7543               01.0479004907E+027.9391732305E+01+
*       6.1457503299E+02               0
GRID*               7544               01.0488941708E+027.8678764131E+01+
*       6.1367501872E+02               0
GRID*               7545               01.0483549989E+027.7673746214E+01+
*       6.1329202038E+02               0
GRID*               7546               01.0480534992E+027.7511714205E+01+
*       6.1431309478E+02               0
GRID*               7547               01.0453472594E+027.6646875475E+01+
*       6.1267064533E+02               0
GRID*               7548               01.0403084239E+027.5761542842E+01+
*       6.1307764739E+02               0
GRID*               7549               01.0466079994E+027.6976866767E+01+
*       6.1504130161E+02               0
GRID*               7550               01.0423335815E+027.6063612379E+01+
*       6.1504136607E+02               0
GRID*               7551               01.0318238947E+027.4881473861E+01+
*       6.1321794656E+02               0
GRID*               7552               01.0244184716E+027.4407311924E+01+
*       6.1345034936E+02               0
GRID*               7553               01.0384070119E+027.5519116596E+01+
*       6.1407189914E+02               0
GRID*               7554               01.0345781822E+027.5117104232E+01+
*       6.1518308096E+02               0
GRID*               7555               01.0264898872E+027.4519878521E+01+
*       6.1518224851E+02               0
GRID*               7556               01.0139819599E+027.4028681743E+01+
*       6.1512135487E+02               0
GRID*               7557               01.0172474957E+027.4116230282E+01+
*       6.1415132069E+02               0
GRID*               7558               09.9610054405E+018.2846509483E+01+
*       6.0763478521E+02               0
GRID*               7559               09.8704411500E+018.2585409032E+01+
*       6.0818441852E+02               0
GRID*               7560               01.0058974746E+028.2911777713E+01+
*       6.0817918112E+02               0
GRID*               7561               01.0158295716E+028.2756869763E+01+
*       6.0889733612E+02               0
GRID*               7562               01.0062005302E+028.2910372236E+01+
*       6.0944361163E+02               0
GRID*               7563               01.0252859878E+028.2379105890E+01+
*       6.0938872399E+02               0
GRID*               7564               01.0349257477E+028.1682139671E+01+
*       6.0967813040E+02               0
GRID*               7565               01.0270334708E+028.2280031817E+01+
*       6.1045095326E+02               0
GRID*               7566               09.5914583863E+017.8020100790E+01+
*       6.1128669086E+02               0
GRID*               7567               09.5928953194E+017.8949445910E+01+
*       6.1079803772E+02               0
GRID*               7568               09.6076151487E+017.7159451583E+01+
*       6.1161628245E+02               0
GRID*               7569               09.6407241678E+017.6334896800E+01+
*       6.1215639039E+02               0
GRID*               7570               09.5913584928E+017.8031666430E+01+
*       6.1215580061E+02               0
GRID*               7571               09.5930901808E+017.7865776694E+01+
*       6.1328200806E+02               0
GRID*               7572               09.5908948274E+017.8741136514E+01+
*       6.1295226389E+02               0
GRID*               7573               09.6256424545E+017.6654108547E+01+
*       6.1511623212E+02               0
GRID*               7574               09.6752666178E+017.5776340181E+01+
*       6.1511621994E+02               0
GRID*               7575               09.5917253469E+017.7990934421E+01+
*       6.1511529500E+02               0
GRID*               7576               09.5935065161E+017.8998525672E+01+
*       6.1511534127E+02               0
GRID*               7577               09.6062939242E+017.7205676978E+01+
*       6.1407914405E+02               0
GRID*               7578               09.6307665284E+017.6538259592E+01+
*       6.1328285912E+02               0
GRID*               7579               09.9358128228E+017.4037512791E+01+
*       6.1449067022E+02               0
GRID*               7580               09.8383196399E+017.4391770674E+01+
*       6.1392603845E+02               0
GRID*               7581               09.9357841446E+017.4037580846E+01+
*       6.1552097686E+02               0
GRID*               7582               09.8409289010E+017.4378822258E+01+
*       6.1552108080E+02               0
GRID*               7583               09.7561368193E+017.4921875700E+01+
*       6.1552118796E+02               0
GRID*               7584               09.7402008191E+017.5057477198E+01+
*       6.1448497898E+02               0
GRID*               7585               09.6762842265E+017.5762348994E+01+
*       6.1295346442E+02               0
GRID*               7586               09.7409878044E+017.5050475554E+01+
*       6.1352150102E+02               0
GRID*               7587               09.7874394229E+018.2142236371E+01+
*       6.0871704473E+02               0
GRID*               7588               09.8712017444E+018.2588488531E+01+
*       6.0925812660E+02               0
GRID*               7589               09.7150479761E+018.1531881677E+01+
*       6.0925846950E+02               0
GRID*               7590               09.6151910729E+017.9908584593E+01+
*       6.1032796233E+02               0
GRID*               7591               09.6138306399E+017.9869316823E+01+
*       6.1135599305E+02               0
GRID*               7592               09.6561312768E+018.0768560512E+01+
*       6.0980607192E+02               0
GRID*               7593               09.7144969527E+018.1526130190E+01+
*       6.1033832087E+02               0
GRID*               7594               09.9540442049E+018.2833586814E+01+
*       6.0968089830E+02               0
GRID*               7595               01.0054253687E+028.2913557558E+01+
*       6.1039877472E+02               0
GRID*               7596               09.8640231050E+018.2558775963E+01+
*       6.1021331646E+02               0
GRID*               7597               09.7964293050E+018.2201560569E+01+
*       6.1099847222E+02               0
GRID*               7598               09.8732281100E+018.2596614355E+01+
*       6.1142115216E+02               0
GRID*               7599               09.7214395235E+018.1597138888E+01+
*       6.1154610824E+02               0
GRID*               7600               09.6107635470E+017.9776121086E+01+
*       6.1243148667E+02               0
GRID*               7601               09.6060282241E+017.9616574901E+01+
*       6.1355760017E+02               0
GRID*               7602               09.6506693775E+018.0677350741E+01+
*       6.1196112368E+02               0
GRID*               7603               09.7145605890E+018.1526795455E+01+
*       6.1262157811E+02               0
GRID*               7604               01.0152407933E+028.2772525167E+01+
*       6.1239282344E+02               0
GRID*               7605               01.0093769584E+028.2883277954E+01+
*       6.1332101561E+02               0
GRID*               7606               01.0209918901E+028.2581610344E+01+
*       6.1129842130E+02               0
GRID*               7607               01.0101833291E+028.2872780809E+01+
*       6.1125601922E+02               0
GRID*               7608               09.9935964634E+018.2892173780E+01+
*       6.1149325576E+02               0
GRID*               7609               09.9847054567E+018.2882115411E+01+
*       6.1521631757E+02               0
GRID*               7610               09.8866707543E+018.2647671238E+01+
*       6.1521631553E+02               0
GRID*               7611               01.0037954750E+028.2915881893E+01+
*       6.1428605028E+02               0
GRID*               7612               09.9854749109E+018.2883056533E+01+
*       6.1331543004E+02               0
GRID*               7613               09.7727986985E+018.2038784049E+01+
*       6.1332935259E+02               0
GRID*               7614               09.6890524856E+018.1236064994E+01+
*       6.1374470643E+02               0
GRID*               7615               09.9183749163E+018.2749244591E+01+
*       6.1227832640E+02               0
GRID*               7616               09.8656768474E+018.2565749717E+01+
*       6.1324333377E+02               0
GRID*               7617               09.8307829524E+018.2401489719E+01+
*       6.1436649747E+02               0
GRID*               7618               09.7913212926E+018.2168232181E+01+
*       6.1530234722E+02               0
GRID*               7619               09.7140011314E+018.1520937429E+01+
*       6.1530236811E+02               0
GRID*               7620               09.6831285803E+018.1160808884E+01+
*       6.1461982062E+02               0
GRID*               7621               09.6602975878E+018.0835468801E+01+
*       6.1546953837E+02               0
GRID*               7622               09.6412889973E+018.0507741206E+01+
*       6.1391165923E+02               0
GRID*               7623               09.6035767799E+017.9524275296E+01+
*       6.1443278318E+02               0
GRID*               7624               09.6159734712E+017.9930630171E+01+
*       6.1546973759E+02               0
GRID*               7625               09.6405590871E+018.0493879798E+01+
*       5.9575074664E+02               0
GRID*               7626               01.0483861915E+027.7692582224E+01+
*       5.9827276378E+02               0
GRID*               7627               01.0466971533E+027.7003739963E+01+
*       5.9787717425E+02               0
GRID*               7628               01.0131099104E+027.4009692971E+01+
*       5.9291801131E+02               0
GRID*               7629               01.0131099102E+027.4009692969E+01+
*       5.9188708347E+02               0
GRID*               7630               01.0222316915E+027.4303116909E+01+
*       5.9340125617E+02               0
GRID*               7631               01.0134946113E+027.4017846512E+01+
*       5.9395511445E+02               0
GRID*               7632               01.0302926349E+027.4766004356E+01+
*       5.9383325909E+02               0
GRID*               7633               01.0380412682E+027.5476179785E+01+
*       5.9432258097E+02               0
GRID*               7634               01.0315605125E+027.4860875661E+01+
*       5.9493079931E+02               0
GRID*               7635               01.0299922287E+027.4744527666E+01+
*       5.9279686030E+02               0
GRID*               7636               01.0437342355E+027.6309037804E+01+
*       5.9540802038E+02               0
GRID*               7637               01.0432352284E+027.6217417894E+01+
*       5.9619947589E+02               0
GRID*               7638               01.0431189071E+027.6196760907E+01+
*       5.9468345378E+02               0
GRID*               7639               01.0423164508E+027.6060824833E+01+
*       5.9357266879E+02               0
GRID*               7640               01.0465155958E+027.6950228155E+01+
*       5.9464472048E+02               0
GRID*               7641               01.0434026018E+027.6247593006E+01+
*       5.9730549163E+02               0
GRID*               7642               01.0382047226E+027.5495234938E+01+
*       5.9659254856E+02               0
GRID*               7643               01.0427907632E+027.6182541224E+01+
*       5.9823699895E+02               0
GRID*               7644               01.0428531087E+027.6150504391E+01+
*       5.9925868947E+02               0
GRID*               7645               01.0376410238E+027.5430408506E+01+
*       5.9873503350E+02               0
GRID*               7646               01.0305492074E+027.4784644784E+01+
*       5.9920743913E+02               0
GRID*               7647               01.0308503933E+027.4806882645E+01+
*       5.9818254188E+02               0
GRID*               7648               01.0304661658E+027.4778581340E+01+
*       6.0023820351E+02               0
GRID*               7649               01.0224045428E+027.4310834161E+01+
*       5.9969010790E+02               0
GRID*               7650               01.0308838952E+027.4809380292E+01+
*       5.9713734419E+02               0
GRID*               7651               01.0226924806E+027.4323881204E+01+
*       5.9761015603E+02               0
GRID*               7652               01.0317331066E+027.4874338119E+01+
*       5.9600466688E+02               0
GRID*               7653               01.0227272186E+027.4325471195E+01+
*       5.9550081230E+02               0
GRID*               7654               01.0134946113E+027.4017846512E+01+
*       5.9498604228E+02               0
GRID*               7655               01.0136405611E+027.4021032005E+01+
*       5.9604849532E+02               0
GRID*               7656               01.0133325963E+027.4014369654E+01+
*       6.0019030300E+02               0
GRID*               7657               01.0134575163E+027.4017044952E+01+
*       5.9915724178E+02               0
GRID*               7658               01.0133325963E+027.4014369654E+01+
*       6.0122123083E+02               0
GRID*               7659               01.0134575164E+027.4017044952E+01+
*       5.9812631394E+02               0
GRID*               7660               01.0136405611E+027.4021032004E+01+
*       5.9707942315E+02               0
GRID*               7661               01.0482398465E+027.7608691345E+01+
*       5.9419110108E+02               0
GRID*               7662               01.0132184254E+027.4011957096E+01+
*       6.0432451596E+02               0
GRID*               7663               01.0132745594E+027.4013139367E+01+
*       6.0328809507E+02               0
GRID*               7664               01.0221262709E+027.4298455123E+01+
*       6.0383146265E+02               0
GRID*               7665               01.0132745594E+027.4013139367E+01+
*       6.0225716724E+02               0
GRID*               7666               01.0222332039E+027.4303185463E+01+
*       6.0175910543E+02               0
GRID*               7667               01.0303461338E+027.4769868330E+01+
*       6.0230776633E+02               0
GRID*               7668               01.0303910449E+027.4773121297E+01+
*       6.0127423105E+02               0
GRID*               7669               01.0372888400E+027.5391144051E+01+
*       6.0285993151E+02               0
GRID*               7670               01.0428939672E+027.6157530740E+01+
*       6.0237183749E+02               0
GRID*               7671               01.0302509775E+027.4763003860E+01+
*       6.0334900546E+02               0
GRID*               7672               01.0430294941E+027.6181054225E+01+
*       6.0028371788E+02               0
GRID*               7673               01.0467716821E+027.7026279474E+01+
*       5.9979636787E+02               0
GRID*               7674               01.0374295603E+027.5406721828E+01+
*       6.0078807498E+02               0
GRID*               7675               01.0429838509E+027.6173093837E+01+
*       6.0131749361E+02               0
GRID*               7676               01.0467846027E+027.7030337267E+01+
*       6.0186627283E+02               0
GRID*               7677               01.0465372980E+027.9875511563E+01+
*       5.9754737352E+02               0
GRID*               7678               01.0482523197E+027.9217213409E+01+
*       5.9800764794E+02               0
GRID*               7679               01.0441130717E+028.0449781123E+01+
*       5.9717864992E+02               0
GRID*               7680               01.0435306259E+028.0560637467E+01+
*       5.9779439981E+02               0
GRID*               7681               01.0403919365E+028.1057636390E+01+
*       5.9828844189E+02               0
GRID*               7682               01.0439097247E+028.0489264504E+01+
*       5.9863325351E+02               0
GRID*               7683               01.0351453255E+028.1661193107E+01+
*       5.9869171416E+02               0
GRID*               7684               01.0346202396E+028.1710816535E+01+
*       5.9786810156E+02               0
GRID*               7685               01.0288371790E+028.2166476745E+01+
*       5.9921454972E+02               0
GRID*               7686               01.0208573973E+028.2587079749E+01+
*       5.9874259151E+02               0
GRID*               7687               01.0355466682E+028.1622162892E+01+
*       5.9962788872E+02               0
GRID*               7688               01.0487590870E+027.7979402275E+01+
*       6.0137132027E+02               0
GRID*               7689               01.0488172290E+027.8042841298E+01+
*       6.0024064493E+02               0
GRID*               7690               01.0487995130E+027.8022588235E+01+
*       5.9922161823E+02               0
GRID*               7691               01.0485988686E+027.8993173654E+01+
*       6.0079000124E+02               0
GRID*               7692               01.0462735375E+027.9950583593E+01+
*       6.0033078751E+02               0
GRID*               7693               01.0415593423E+028.0889110431E+01+
*       6.0006032883E+02               0
GRID*               7694               01.0488681280E+027.8719593044E+01+
*       5.9865560724E+02               0
GRID*               7695               01.0457912436E+028.0077370010E+01+
*       5.9938565074E+02               0
GRID*               7696               01.0476633424E+027.9492513212E+01+
*       5.9892298320E+02               0
GRID*               7697               01.0127364810E+027.4002115491E+01+
*       5.7336883127E+02               0
GRID*               7698               01.0127364815E+027.4002115496E+01+
*       5.7439975911E+02               0
GRID*               7699               01.0127360647E+027.4002107232E+01+
*       5.7233772643E+02               0
GRID*               7700               01.0127360646E+027.4002107230E+01+
*       5.7130679859E+02               0
GRID*               7701               01.0211695654E+027.4257590094E+01+
*       5.7285324573E+02               0
GRID*               7702               01.0289374937E+027.4672006018E+01+
*       5.7233422811E+02               0
GRID*               7703               01.0289376901E+027.4672019123E+01+
*       5.7336518595E+02               0
GRID*               7704               01.0357432611E+027.5229156662E+01+
*       5.7387733779E+02               0
GRID*               7705               01.0289361623E+027.4671917254E+01+
*       5.7439629248E+02               0
GRID*               7706               01.0413487909E+027.5910113762E+01+
*       5.7335871369E+02               0
GRID*               7707               01.0413477263E+027.5909954118E+01+
*       5.7438953359E+02               0
GRID*               7708               01.0127351854E+027.4002089767E+01+
*       5.7543086946E+02               0
GRID*               7709               01.0127351863E+027.4002089776E+01+
*       5.7646179729E+02               0
GRID*               7710               01.0211686026E+027.4257550259E+01+
*       5.7491546084E+02               0
GRID*               7711               01.0289349091E+027.4671833696E+01+
*       5.7542723628E+02               0
GRID*               7712               01.0455174530E+027.6686839559E+01+
*       5.7284028326E+02               0
GRID*               7713               01.0480859519E+027.7528204075E+01+
*       5.7232228251E+02               0
GRID*               7714               01.0480852873E+027.7528201750E+01+
*       5.7335300752E+02               0
GRID*               7715               01.0413491592E+027.5910169717E+01+
*       5.7232774916E+02               0
GRID*               7716               01.0357438705E+027.5229217418E+01+
*       5.7181538540E+02               0
GRID*               7717               01.0413485350E+027.5910077778E+01+
*       5.7129688069E+02               0
GRID*               7718               01.0289364875E+027.4671938925E+01+
*       5.7130310391E+02               0
GRID*               7719               01.0127351942E+027.4002089955E+01+
*       5.7027570192E+02               0
GRID*               7720               01.0127351943E+027.4002089956E+01+
*       5.6924477408E+02               0
GRID*               7721               01.0211684817E+027.4257545304E+01+
*       5.7079104429E+02               0
GRID*               7722               01.0289359017E+027.4671899856E+01+
*       5.7027213937E+02               0
GRID*               7723               01.0489739202E+027.8403647929E+01+
*       5.7386592011E+02               0
GRID*               7724               01.0480817343E+027.7527987462E+01+
*       5.7438376858E+02               0
GRID*               7725               01.0481325559E+027.9280446367E+01+
*       5.7334838986E+02               0
GRID*               7726               01.0481339767E+027.9280018656E+01+
*       5.7437899361E+02               0
GRID*               7727               01.0456048896E+028.0123588522E+01+
*       5.7489231312E+02               0
GRID*               7728               01.0415088201E+028.0896165750E+01+
*       5.7437421867E+02               0
GRID*               7729               01.0415124800E+028.0895619276E+01+
*       5.7540467124E+02               0
GRID*               7730               01.0481372211E+027.9279186366E+01+
*       5.7540953708E+02               0
GRID*               7731               01.0455156264E+027.6686396400E+01+
*       5.7490193100E+02               0
GRID*               7732               01.0413453393E+027.5909597457E+01+
*       5.7542046895E+02               0
GRID*               7733               01.0480777361E+027.7527824609E+01+
*       5.7541440114E+02               0
GRID*               7734               01.0489733140E+027.8402428392E+01+
*       5.7592727184E+02               0
GRID*               7735               01.0481406300E+027.9278320682E+01+
*       5.7644004642E+02               0
GRID*               7736               01.0480731713E+027.7527278920E+01+
*       5.7644510888E+02               0
GRID*               7737               01.0357388272E+027.5228714675E+01+
*       5.7593920730E+02               0
GRID*               7738               01.0289313835E+027.4671598664E+01+
*       5.7645831406E+02               0
GRID*               7739               01.0413429734E+027.5909244167E+01+
*       5.7645121906E+02               0
GRID*               7740               01.0455105667E+027.6685178272E+01+
*       5.7696348734E+02               0
GRID*               7741               01.0480689956E+027.7526591098E+01+
*       5.7747568948E+02               0
GRID*               7742               01.0413378359E+027.5908478079E+01+
*       5.7748212002E+02               0
GRID*               7743               01.0127323606E+027.4002033697E+01+
*       5.7749284202E+02               0
GRID*               7744               01.0127323619E+027.4002033711E+01+
*       5.7852376986E+02               0
GRID*               7745               01.0211645802E+027.4257383922E+01+
*       5.7697761583E+02               0
GRID*               7746               01.0289288436E+027.4671429370E+01+
*       5.7748916373E+02               0
GRID*               7747               01.0357303353E+027.5227868523E+01+
*       5.7800092961E+02               0
GRID*               7748               01.0289224616E+027.4671004094E+01+
*       5.7852017400E+02               0
GRID*               7749               01.0413336431E+027.5907853174E+01+
*       5.7851274435E+02               0
GRID*               7750               01.0127290078E+027.4001967164E+01+
*       5.7955472115E+02               0
GRID*               7751               01.0127290096E+027.4001967184E+01+
*       5.8058564899E+02               0
GRID*               7752               01.0211586148E+027.4257137334E+01+
*       5.7903961178E+02               0
GRID*               7753               01.0289194979E+027.4670806660E+01+
*       5.7955088501E+02               0
GRID*               7754               01.0455179682E+027.6686974408E+01+
*       5.6871720829E+02               0
GRID*               7755               01.0413498978E+027.5910283866E+01+
*       5.6923531188E+02               0
GRID*               7756               01.0413491680E+027.5910176666E+01+
*       5.6820444872E+02               0
GRID*               7757               01.0480860117E+027.7528281546E+01+
*       5.6819956169E+02               0
GRID*               7758               01.0480862273E+027.7528382784E+01+
*       5.6923023373E+02               0
GRID*               7759               01.0357441047E+027.5229240772E+01+
*       5.6975355369E+02               0
GRID*               7760               01.0289369746E+027.4671971396E+01+
*       5.6924118178E+02               0
GRID*               7761               01.0413491389E+027.5910169177E+01+
*       5.7026603840E+02               0
GRID*               7762               01.0211686548E+027.4257552488E+01+
*       5.6872896778E+02               0
GRID*               7763               01.0289378975E+027.4672032937E+01+
*       5.6821032154E+02               0
GRID*               7764               01.0127361162E+027.4002108251E+01+
*       5.6821379418E+02               0
GRID*               7765               01.0127361165E+027.4002108255E+01+
*       5.6718286635E+02               0
GRID*               7766               01.0357438708E+027.5229217450E+01+
*       5.6769179299E+02               0
GRID*               7767               01.0413481516E+027.5910026873E+01+
*       5.6717362915E+02               0
GRID*               7768               01.0289363394E+027.4671929038E+01+
*       5.6717929140E+02               0
GRID*               7769               01.0127346056E+027.4002078263E+01+
*       5.6615181683E+02               0
GRID*               7770               01.0127346061E+027.4002078269E+01+
*       5.6512088900E+02               0
GRID*               7771               01.0211682183E+027.4257534460E+01+
*       5.6666693844E+02               0
GRID*               7772               01.0289351942E+027.4671852674E+01+
*       5.6614835211E+02               0
GRID*               7773               01.0455180797E+027.6686995321E+01+
*       5.7077870511E+02               0
GRID*               7774               01.0480864506E+027.7528484325E+01+
*       5.7026097067E+02               0
GRID*               7775               01.0480862383E+027.7528365203E+01+
*       5.7129160360E+02               0
GRID*               7776               01.0489749188E+027.8404329928E+01+
*       5.6974339170E+02               0
GRID*               7777               01.0481285448E+027.9280160234E+01+
*       5.6922597606E+02               0
GRID*               7778               01.0481292066E+027.9280453098E+01+
*       5.7025660743E+02               0
GRID*               7779               01.0489744571E+027.8404260254E+01+
*       5.7180463029E+02               0
GRID*               7780               01.0481301336E+027.9280632690E+01+
*       5.7128725110E+02               0
GRID*               7781               01.0481312807E+027.9280660495E+01+
*       5.7231780958E+02               0
GRID*               7782               01.0455987295E+028.0125072861E+01+
*       5.7077035680E+02               0
GRID*               7783               01.0415031942E+028.0897004128E+01+
*       5.7025254726E+02               0
GRID*               7784               01.0415031101E+028.0897017447E+01+
*       5.7128299930E+02               0
GRID*               7785               01.0358474423E+028.1592263013E+01+
*       5.7385866874E+02               0
GRID*               7786               01.0290241748E+028.2154010743E+01+
*       5.7334233423E+02               0
GRID*               7787               01.0290283180E+028.2153733578E+01+
*       5.7437261313E+02               0
GRID*               7788               01.0415061012E+028.0896571446E+01+
*       5.7334385249E+02               0
GRID*               7789               01.0456052994E+028.0124850806E+01+
*       5.7283133656E+02               0
GRID*               7790               01.0415044115E+028.0896823172E+01+
*       5.7231344649E+02               0
GRID*               7791               01.0212495294E+028.2570990681E+01+
*       5.7282631893E+02               0
GRID*               7792               01.0128043771E+028.2828341380E+01+
*       5.7231061891E+02               0
GRID*               7793               01.0128086329E+028.2828256466E+01+
*       5.7334085967E+02               0
GRID*               7794               01.0290205555E+028.2154252633E+01+
*       5.7231204743E+02               0
GRID*               7795               01.0358420938E+028.1592799666E+01+
*       5.7179795353E+02               0
GRID*               7796               01.0290187164E+028.2154375078E+01+
*       5.7128168823E+02               0
GRID*               7797               01.0456953991E+028.0101533443E+01+
*       5.8107382379E+02               0
GRID*               7798               01.0416292709E+028.0877972163E+01+
*       5.8055709202E+02               0
GRID*               7799               01.0416713837E+028.0871561171E+01+
*       5.8158646491E+02               0
GRID*               7800               01.0481872872E+027.9255669199E+01+
*       5.8158991846E+02               0
GRID*               7801               01.0481734094E+027.9263294127E+01+
*       5.8056050350E+02               0
GRID*               7802               01.0454973665E+027.6682011638E+01+
*       5.7902425417E+02               0
GRID*               7803               01.0413192999E+027.5905718119E+01+
*       5.7954292366E+02               0
GRID*               7804               01.0480620715E+027.7524291056E+01+
*       5.7850627863E+02               0
GRID*               7805               01.0480560537E+027.7521921965E+01+
*       5.7953612475E+02               0
GRID*               7806               01.0489712463E+027.8391587798E+01+
*       5.8004820908E+02               0
GRID*               7807               01.0481637024E+027.9268308981E+01+
*       5.7953132643E+02               0
GRID*               7808               01.0480454348E+027.7516874163E+01+
*       5.8056548248E+02               0
GRID*               7809               01.0357147704E+027.5226318766E+01+
*       5.8006152735E+02               0
GRID*               7810               01.0289074956E+027.4670007428E+01+
*       5.8058091408E+02               0
GRID*               7811               01.0413115047E+027.5904558922E+01+
*       5.8057248033E+02               0
GRID*               7812               01.0127244215E+027.4001876196E+01+
*       5.8161576434E+02               0
GRID*               7813               01.0127244240E+027.4001876222E+01+
*       5.8264669217E+02               0
GRID*               7814               01.0211509859E+027.4256822126E+01+
*       5.8110067834E+02               0
GRID*               7815               01.0289035351E+027.4669743822E+01+
*       5.8161071432E+02               0
GRID*               7816               01.0127226861E+027.4001841754E+01+
*       5.8367527416E+02               0
GRID*               7817               01.0127226893E+027.4001841788E+01+
*       5.8470620199E+02               0
GRID*               7818               01.0211448804E+027.4256569974E+01+
*       5.8315937558E+02               0
GRID*               7819               01.0288916076E+027.4668950298E+01+
*       5.8263875337E+02               0
GRID*               7820               01.0288901415E+027.4668852801E+01+
*       5.8366688862E+02               0
GRID*               7821               01.0356869600E+027.5223553536E+01+
*       5.8417171185E+02               0
GRID*               7822               01.0288918770E+027.4668968224E+01+
*       5.8469227557E+02               0
GRID*               7823               01.0412698753E+027.5898382469E+01+
*       5.8365426172E+02               0
GRID*               7824               01.0412722258E+027.5898730930E+01+
*       5.8467883356E+02               0
GRID*               7825               01.0127400528E+027.4002186229E+01+
*       5.8573330857E+02               0
GRID*               7826               01.0127400565E+027.4002186269E+01+
*       5.8676423640E+02               0
GRID*               7827               01.0211594780E+027.4257172923E+01+
*       5.8521506405E+02               0
GRID*               7828               01.0289066957E+027.4669954211E+01+
*       5.8571869716E+02               0
GRID*               7829               01.0454744124E+027.6676524557E+01+
*       5.8108224702E+02               0
GRID*               7830               01.0412920180E+027.5901664804E+01+
*       5.8160064490E+02               0
GRID*               7831               01.0480394268E+027.7513539015E+01+
*       5.8159330772E+02               0
GRID*               7832               01.0489699628E+027.8380606980E+01+
*       5.8210502099E+02               0
GRID*               7833               01.0481967123E+027.9250056778E+01+
*       5.8261744815E+02               0
GRID*               7834               01.0480291208E+027.7507630276E+01+
*       5.8262095682E+02               0
GRID*               7835               01.0356947558E+027.5224328197E+01+
*       5.8211903630E+02               0
GRID*               7836               01.0412845934E+027.5900563525E+01+
*       5.8262807866E+02               0
GRID*               7837               01.0454514146E+027.6671049341E+01+
*       5.8313620678E+02               0
GRID*               7838               01.0480261815E+027.7505146749E+01+
*       5.8364679770E+02               0
GRID*               7839               01.0359979286E+028.1577089156E+01+
*       5.8004159790E+02               0
GRID*               7840               01.0291773975E+028.2143695713E+01+
*       5.7952539477E+02               0
GRID*               7841               01.0292370974E+028.2139650852E+01+
*       5.8055594028E+02               0
GRID*               7842               01.0415900083E+028.0883928251E+01+
*       5.7952653670E+02               0
GRID*               7843               01.0489725062E+027.8399179837E+01+
*       5.7798843343E+02               0
GRID*               7844               01.0481477847E+027.9275535999E+01+
*       5.7747058308E+02               0
GRID*               7845               01.0481537841E+027.9273047058E+01+
*       5.7850097141E+02               0
GRID*               7846               01.0456476811E+028.0113248555E+01+
*       5.7901414479E+02               0
GRID*               7847               01.0415643420E+028.0887808215E+01+
*       5.7849625325E+02               0
GRID*               7848               01.0214067481E+028.2564418694E+01+
*       5.7900926945E+02               0
GRID*               7849               01.0129408572E+028.2825590926E+01+
*       5.7849318325E+02               0
GRID*               7850               01.0129974930E+028.2824436304E+01+
*       5.7952399289E+02               0
GRID*               7851               01.0291298937E+028.2146904130E+01+
*       5.7849459027E+02               0
GRID*               7852               01.0456187059E+028.0120281359E+01+
*       5.7695332691E+02               0
GRID*               7853               01.0415256674E+028.0893637004E+01+
*       5.7643520226E+02               0
GRID*               7854               01.0415401613E+028.0891456257E+01+
*       5.7746566185E+02               0
GRID*               7855               01.0359162718E+028.1585340667E+01+
*       5.7798050646E+02               0
GRID*               7856               01.0290932430E+028.2149373344E+01+
*       5.7746405462E+02               0
GRID*               7857               01.0041333538E+028.2915886764E+01+
*       5.7797753628E+02               0
GRID*               7858               09.9530255719E+018.2831609164E+01+
*       5.7746189860E+02               0
GRID*               7859               09.9534385315E+018.2832417567E+01+
*       5.7849258690E+02               0
GRID*               7860               01.0128998882E+028.2826421368E+01+
*       5.7746250815E+02               0
GRID*               7861               01.0358681139E+028.1590187175E+01+
*       5.7591946901E+02               0
GRID*               7862               01.0290440148E+028.2152681158E+01+
*       5.7540302527E+02               0
GRID*               7863               01.0290639586E+028.2151342334E+01+
*       5.7643347767E+02               0
GRID*               7864               01.0213211469E+028.2568005660E+01+
*       5.7694791072E+02               0
GRID*               7865               01.0128651022E+028.2827123335E+01+
*       5.7643195407E+02               0
GRID*               7866               09.7217166228E+018.1599908771E+01+
*       5.7591742251E+02               0
GRID*               7867               09.7902277309E+018.2160962449E+01+
*       5.7643191437E+02               0
GRID*               7868               09.7900589031E+018.2159836580E+01+
*       5.7540161644E+02               0
GRID*               7869               09.6648416743E+018.0903759857E+01+
*       5.7540217490E+02               0
GRID*               7870               09.6649593733E+018.0905530931E+01+
*       5.7643253609E+02               0
GRID*               7871               09.8683500574E+018.2576858433E+01+
*       5.7694682558E+02               0
GRID*               7872               09.9527592647E+018.2831085535E+01+
*       5.7643148725E+02               0
GRID*               7873               09.7904569031E+018.2162488884E+01+
*       5.7746235573E+02               0
GRID*               7874               01.0040289822E+028.2915912683E+01+
*       5.7385576655E+02               0
GRID*               7875               01.0128231815E+028.2827965304E+01+
*       5.7437118882E+02               0
GRID*               7876               09.9521965319E+018.2829972628E+01+
*       5.7334046366E+02               0
GRID*               7877               09.9523401332E+018.2830257561E+01+
*       5.7437078693E+02               0
GRID*               7878               09.8679224837E+018.2575094715E+01+
*       5.7488608921E+02               0
GRID*               7879               09.7898997395E+018.2158774134E+01+
*       5.7437128077E+02               0
GRID*               7880               09.9525259323E+018.2830625217E+01+
*       5.7540109374E+02               0
GRID*               7881               01.0212710511E+028.2570095194E+01+
*       5.7488696468E+02               0
GRID*               7882               01.0128417665E+028.2827592567E+01+
*       5.7540156236E+02               0
GRID*               7883               01.0040675755E+028.2915905966E+01+
*       5.7591647416E+02               0
GRID*               7884               09.7909241116E+018.2165594274E+01+
*       5.7849310858E+02               0
GRID*               7885               09.7222586561E+018.1605312771E+01+
*       5.7797851410E+02               0
GRID*               7886               09.7917869177E+018.2171306853E+01+
*       5.7952430939E+02               0
GRID*               7887               09.7235027678E+018.1617646114E+01+
*       5.8004068570E+02               0
GRID*               7888               09.7927775115E+018.2177830376E+01+
*       5.8055570786E+02               0
GRID*               7889               09.8695530066E+018.2581792755E+01+
*       5.7900842961E+02               0
GRID*               7890               09.9544464141E+018.2834373271E+01+
*       5.7952376445E+02               0
GRID*               7891               01.0042967836E+028.2915796851E+01+
*       5.8003931943E+02               0
GRID*               7892               01.0131160597E+028.2821994342E+01+
*       5.8055509446E+02               0
GRID*               7893               09.9556425329E+018.2836663009E+01+
*       5.8055489107E+02               0
GRID*               7894               09.7938816889E+018.2185057879E+01+
*       5.8158718802E+02               0
GRID*               7895               09.7256190014E+018.1638404023E+01+
*       5.8210428285E+02               0
GRID*               7896               09.7953641865E+018.2194689145E+01+
*       5.8261940367E+02               0
GRID*               7897               09.8717194044E+018.2590576082E+01+
*       5.8107108142E+02               0
GRID*               7898               09.9569264161E+018.2839083231E+01+
*       5.8158635833E+02               0
GRID*               7899               09.6652087757E+018.0909272355E+01+
*       5.7746307719E+02               0
GRID*               7900               09.6655306166E+018.0914088297E+01+
*       5.7849388473E+02               0
GRID*               7901               09.6238692996E+018.0135721456E+01+
*       5.7695016243E+02               0
GRID*               7902               09.5984224724E+017.9287159053E+01+
*       5.7643605499E+02               0
GRID*               7903               09.5984883386E+017.9291535135E+01+
*       5.7746669887E+02               0
GRID*               7904               09.6659109768E+018.0919763338E+01+
*       5.7952471532E+02               0
GRID*               7905               09.6665912388E+018.0929862130E+01+
*       5.8055614691E+02               0
GRID*               7906               09.5896740560E+017.8416148066E+01+
*       5.7798391656E+02               0
GRID*               7907               09.5985473968E+017.9295638550E+01+
*       5.7849722828E+02               0
GRID*               7908               09.5983534540E+017.7536149131E+01+
*       5.7747047798E+02               0
GRID*               7909               09.5982844954E+017.7540039206E+01+
*       5.7850113370E+02               0
GRID*               7910               09.6242717471E+018.0145568499E+01+
*       5.7901154037E+02               0
GRID*               7911               09.5986496081E+017.9302329931E+01+
*       5.7952814512E+02               0
GRID*               7912               09.5997088856E+017.9359333014E+01+
*       5.8365575728E+02               0
GRID*               7913               09.5897680555E+017.8487665654E+01+
*       5.8417452100E+02               0
GRID*               7914               09.6001362568E+017.9379236763E+01+
*       5.8468973666E+02               0
GRID*               7915               09.5993205936E+017.9340783829E+01+
*       5.8262314590E+02               0
GRID*               7916               09.5990349116E+017.9326131600E+01+
*       5.8159112591E+02               0
GRID*               7917               09.5896980472E+017.8452284876E+01+
*       5.8210849871E+02               0
GRID*               7918               09.6263970139E+018.0196153579E+01+
*       5.8313877028E+02               0
GRID*               7919               09.6695969105E+018.0973813735E+01+
*       5.8365309502E+02               0
GRID*               7920               09.6684773576E+018.0957567003E+01+
*       5.8262025698E+02               0
GRID*               7921               09.5987854550E+017.9311042342E+01+
*       5.8055916771E+02               0
GRID*               7922               09.5896740765E+017.8428818241E+01+
*       5.8004547731E+02               0
GRID*               7923               09.6674531072E+018.0942574986E+01+
*       5.8158804866E+02               0
GRID*               7924               09.6250827476E+018.0165114818E+01+
*       5.8107420532E+02               0
GRID*               7925               09.5981804389E+017.7545858678E+01+
*       5.7953173120E+02               0
GRID*               7926               09.5980308475E+017.7554197258E+01+
*       5.8056284230E+02               0
GRID*               7927               09.6237455843E+017.6699174078E+01+
*       5.7901889711E+02               0
GRID*               7928               09.6655698178E+017.5915654790E+01+
*       5.7850604434E+02               0
GRID*               7929               09.6652333241E+017.5920695415E+01+
*       5.7953677731E+02               0
GRID*               7930               09.7212395457E+017.5236703666E+01+
*       5.8005474387E+02               0
GRID*               7931               09.6649981236E+017.5924227328E+01+
*       5.8056712974E+02               0
GRID*               7932               09.7896287104E+017.4674835176E+01+
*       5.7954267440E+02               0
GRID*               7933               09.7892806475E+017.4677164226E+01+
*       5.8057330408E+02               0
GRID*               7934               09.5978941225E+017.7561741725E+01+
*       5.8159367275E+02               0
GRID*               7935               09.5976416810E+017.7576577342E+01+
*       5.8262566851E+02               0
GRID*               7936               09.6232212425E+017.6711933085E+01+
*       5.8108039602E+02               0
GRID*               7937               09.6645678401E+017.5930707772E+01+
*       5.8159807386E+02               0
GRID*               7938               09.8670899907E+017.4260249523E+01+
*       5.8109233660E+02               0
GRID*               7939               09.7889990928E+017.4679051671E+01+
*       5.8160382611E+02               0
GRID*               7940               09.9515474119E+017.4003139500E+01+
*       5.8161184949E+02               0
GRID*               7941               09.9515489750E+017.4003136369E+01+
*       5.8264248235E+02               0
GRID*               7942               09.9518777190E+017.4002480994E+01+
*       5.8058090232E+02               0
GRID*               7943               09.7204062123E+017.5245074075E+01+
*       5.8211617835E+02               0
GRID*               7944               09.6641458881E+017.5937086432E+01+
*       5.8262889148E+02               0
GRID*               7945               09.7883735578E+017.4683256058E+01+
*       5.8263493411E+02               0
GRID*               7946               09.9512306643E+017.4003773389E+01+
*       5.8367340596E+02               0
GRID*               7947               09.9512320989E+017.4003770504E+01+
*       5.8470392748E+02               0
GRID*               7948               09.8664746164E+017.4262811319E+01+
*       5.8315370170E+02               0
GRID*               7949               09.7880991355E+017.4685105323E+01+
*       5.8366532857E+02               0
GRID*               7950               09.5974213699E+017.7590730660E+01+
*       5.8365814087E+02               0
GRID*               7951               09.5970865558E+017.7611302425E+01+
*       5.8469204370E+02               0
GRID*               7952               09.6224006486E+017.6732130177E+01+
*       5.8314382021E+02               0
GRID*               7953               09.6633722834E+017.5948842875E+01+
*       5.8366150905E+02               0
GRID*               7954               09.6212770839E+017.6760253108E+01+
*       5.8521113838E+02               0
GRID*               7955               09.6627819977E+017.5957867546E+01+
*       5.8469411644E+02               0
GRID*               7956               09.6618980458E+017.5971471100E+01+
*       5.8572888289E+02               0
GRID*               7957               09.5968094163E+017.7627455770E+01+
*       5.8572679102E+02               0
GRID*               7958               09.7191189555E+017.5258092003E+01+
*       5.8417986504E+02               0
GRID*               7959               09.7872210493E+017.4691042290E+01+
*       5.8469823762E+02               0
GRID*               7960               09.8655978806E+017.4266479536E+01+
*       5.8521675431E+02               0
GRID*               7961               09.7867024319E+017.4694562969E+01+
*       5.8573035468E+02               0
GRID*               7962               09.9506275247E+017.4004986997E+01+
*       5.8573671564E+02               0
GRID*               7963               09.9506300810E+017.4004981829E+01+
*       5.8676707407E+02               0
GRID*               7964               09.7176247781E+017.5273337472E+01+
*       5.8624609917E+02               0
GRID*               7965               09.6613167733E+017.5980475413E+01+
*       5.8676225452E+02               0
GRID*               7966               09.7858373351E+017.4700459284E+01+
*       5.8676406131E+02               0
GRID*               7967               09.9501391026E+017.4005976087E+01+
*       5.8779890923E+02               0
GRID*               7968               09.9501471585E+017.4005959723E+01+
*       5.8882909989E+02               0
GRID*               7969               09.8645589450E+017.4270854438E+01+
*       5.8728049477E+02               0
GRID*               7970               09.7854180734E+017.4703327498E+01+
*       5.8779506354E+02               0
GRID*               7971               01.0212127546E+027.4259378683E+01+
*       5.8726467899E+02               0
GRID*               7972               01.0289244910E+027.4671139372E+01+
*       5.8673615503E+02               0
GRID*               7973               01.0289579063E+027.4673368103E+01+
*       5.8775760233E+02               0
GRID*               7974               01.0127793440E+027.4002968289E+01+
*       5.8778674487E+02               0
GRID*               7975               01.0127793476E+027.4002968328E+01+
*       5.8881767270E+02               0
GRID*               7976               01.0454310903E+027.6666229395E+01+
*       5.8517890288E+02               0
GRID*               7977               01.0412559668E+027.5896324390E+01+
*       5.8569576247E+02               0
GRID*               7978               01.0480116608E+027.7496395925E+01+
*       5.8466647146E+02               0
GRID*               7979               01.0480089820E+027.7493758194E+01+
*       5.8568307421E+02               0
GRID*               7980               01.0357053187E+027.5225378424E+01+
*       5.8621349083E+02               0
GRID*               7981               01.0412699469E+027.5898394136E+01+
*       5.8671208629E+02               0
GRID*               7982               01.0215978836E+028.2556334328E+01+
*       5.8107001467E+02               0
GRID*               7983               01.0293609404E+028.2131215235E+01+
*       5.8158587099E+02               0
GRID*               7984               01.0132637286E+028.2818906408E+01+
*       5.8158507007E+02               0
GRID*               7985               01.0361581667E+028.1560772349E+01+
*       5.8209944169E+02               0
GRID*               7986               01.0417568753E+028.0858462200E+01+
*       5.8261375173E+02               0
GRID*               7987               01.0294908232E+028.2122302915E+01+
*       5.8261322548E+02               0
GRID*               7988               01.0489693952E+027.8366185007E+01+
*       5.8415217916E+02               0
GRID*               7989               01.0482189109E+027.9236861051E+01+
*       5.8364085949E+02               0
GRID*               7990               01.0482319504E+027.9228634169E+01+
*       5.8466054738E+02               0
GRID*               7991               01.0457751019E+028.0081680829E+01+
*       5.8312657311E+02               0
GRID*               7992               01.0418300796E+028.0847169195E+01+
*       5.8363720205E+02               0
GRID*               7993               01.0128752413E+027.4004892459E+01+
*       5.8983519055E+02               0
GRID*               7994               01.0213399940E+027.4264679062E+01+
*       5.8930470521E+02               0
GRID*               7995               01.0128752436E+027.4004892484E+01+
*       5.9086611839E+02               0
GRID*               7996               01.0216508363E+027.4277820348E+01+
*       5.9134318803E+02               0
GRID*               7997               01.0295047463E+027.4710459596E+01+
*       5.9179802433E+02               0
GRID*               7998               01.0366051531E+027.5317487255E+01+
*       5.9223436959E+02               0
GRID*               7999               01.0293087668E+027.4697031577E+01+
*       5.9077902480E+02               0
GRID*               8000               01.0290340300E+027.4678461502E+01+
*       5.8876598803E+02               0
GRID*               8001               01.0357881394E+027.5233637271E+01+
*       5.8823780334E+02               0
GRID*               8002               01.0291149487E+027.4683900379E+01+
*       5.8978193884E+02               0
GRID*               8003               01.0360220900E+027.5257202120E+01+
*       5.9024118524E+02               0
GRID*               8004               01.0454176706E+027.6663058029E+01+
*       5.8719725102E+02               0
GRID*               8005               01.0479947294E+027.7485024762E+01+
*       5.8669198238E+02               0
GRID*               8006               01.0479955108E+027.7484462912E+01+
*       5.8769350575E+02               0
GRID*               8007               01.0412638972E+027.5897498816E+01+
*       5.8771392582E+02               0
GRID*               8008               01.0413180707E+027.5905537249E+01+
*       5.8872074192E+02               0
GRID*               8009               01.0413722634E+027.5913616090E+01+
*       5.8970798861E+02               0
GRID*               8010               01.0415061300E+027.5933735179E+01+
*       5.9070325657E+02               0
GRID*               8011               01.0454554133E+027.6672012394E+01+
*       5.8918594900E+02               0
GRID*               8012               01.0489650967E+027.8331732710E+01+
*       5.8817834424E+02               0
GRID*               8013               01.0483132723E+027.9181383234E+01+
*       5.8768575161E+02               0
GRID*               8014               01.0483278678E+027.9172787470E+01+
*       5.8867465132E+02               0
GRID*               8015               01.0479775534E+027.7475441595E+01+
*       5.8868159263E+02               0
GRID*               8016               01.0479997711E+027.7485913455E+01+
*       5.8966830065E+02               0
GRID*               8017               01.0480422248E+027.7506260860E+01+
*       5.9157873598E+02               0
GRID*               8018               01.0489615563E+027.8318860349E+01+
*       5.9199371557E+02               0
GRID*               8019               01.0480560643E+027.7512988832E+01+
*       5.9247955871E+02               0
GRID*               8020               01.0456010096E+027.6707060222E+01+
*       5.9112964439E+02               0
GRID*               8021               01.0416454014E+027.5954918613E+01+
*       5.9165986649E+02               0
GRID*               8022               01.0479871792E+027.7479892486E+01+
*       5.9062448015E+02               0
GRID*               8023               01.0419758334E+027.6006247222E+01+
*       5.9265942075E+02               0
GRID*               8024               01.0459851119E+027.6803811764E+01+
*       5.9299734221E+02               0
GRID*               8025               01.0481984965E+027.7586939177E+01+
*       5.9338110910E+02               0
GRID*               8026               01.0489693181E+027.8371974259E+01+
*       5.9378108374E+02               0
GRID*               8027               09.9493210768E+018.2824177299E+01+
*       5.9722500389E+02               0
GRID*               8028               09.8677235002E+018.2574273881E+01+
*       5.9670027257E+02               0
GRID*               8029               01.0036662811E+028.2915812464E+01+
*       5.9773901352E+02               0
GRID*               8030               01.0035933744E+028.2915756829E+01+
*       5.9676796739E+02               0
GRID*               8031               01.0467893687E+027.9800263327E+01+
*       5.9285298164E+02               0
GRID*               8032               01.0438090090E+028.0508852514E+01+
*       5.9248953527E+02               0
GRID*               8033               01.0439953072E+028.0473058202E+01+
*       5.9334671788E+02               0
GRID*               8034               01.0484469548E+027.9100001089E+01+
*       5.9244354336E+02               0
GRID*               8035               01.0484588492E+027.9091960067E+01+
*       5.9153860627E+02               0
GRID*               8036               01.0485387192E+027.9037918110E+01+
*       5.9329615241E+02               0
GRID*               8037               01.0484509552E+027.9097941212E+01+
*       5.9411265508E+02               0
GRID*               8038               01.0122703173E+028.2838693354E+01+
*       5.9630462175E+02               0
GRID*               8039               01.0035304628E+028.2915699276E+01+
*       5.9578967285E+02               0
GRID*               8040               01.0206362646E+028.2595963055E+01+
*       5.9685994072E+02               0
GRID*               8041               01.0205687325E+028.2598648885E+01+
*       5.9587896091E+02               0
GRID*               8042               01.0468086884E+027.9794239039E+01+
*       5.9450787938E+02               0
GRID*               8043               01.0291505588E+028.2145505156E+01+
*       5.9539963786E+02               0
GRID*               8044               01.0214838346E+028.2561170844E+01+
*       5.9484743850E+02               0
GRID*               8045               01.0348523481E+028.1689078066E+01+
*       5.9614709937E+02               0
GRID*               8046               01.0355939984E+028.1617495233E+01+
*       5.9509764238E+02               0
GRID*               8047               01.0412682859E+028.0932462083E+01+
*       5.9513896501E+02               0
GRID*               8048               01.0366247599E+028.1512298295E+01+
*       5.9440727099E+02               0
GRID*               8049               01.0410109249E+028.0970037974E+01+
*       5.9371591656E+02               0
GRID*               8050               01.0352623963E+028.1649908484E+01+
*       5.9366793485E+02               0
GRID*               8051               01.0449443653E+028.0276978085E+01+
*       5.9493335048E+02               0
GRID*               8052               01.0440888480E+028.0454661689E+01+
*       5.9559238153E+02               0
GRID*               8053               01.0447638501E+028.0316283600E+01+
*       5.9408004920E+02               0
GRID*               8054               01.0322041966E+028.1919999945E+01+
*       5.9066782317E+02               0
GRID*               8055               01.0380607869E+028.1353120923E+01+
*       5.9015342130E+02               0
GRID*               8056               01.0316335167E+028.1965220733E+01+
*       5.8969923950E+02               0
GRID*               8057               01.0257443916E+028.2354108754E+01+
*       5.9120690321E+02               0
GRID*               8058               01.0330280864E+028.1852002592E+01+
*       5.9166095781E+02               0
GRID*               8059               01.0338621491E+028.1779719366E+01+
*       5.9258992761E+02               0
GRID*               8060               01.0283318769E+028.2199504776E+01+
*       5.9328285736E+02               0
GRID*               8061               01.0392567260E+028.1207442541E+01+
*       5.9204803484E+02               0
GRID*               8062               01.0489617932E+027.8317239131E+01+
*       5.9012491207E+02               0
GRID*               8063               01.0462319225E+027.9962719836E+01+
*       5.8915432617E+02               0
GRID*               8064               01.0425382215E+028.0733845473E+01+
*       5.8868323711E+02               0
GRID*               8065               01.0427213906E+028.0703247758E+01+
*       5.8965451215E+02               0
GRID*               8066               01.0483870751E+027.9137088119E+01+
*       5.8964446101E+02               0
GRID*               8067               01.0483951243E+027.9132331396E+01+
*       5.9060260487E+02               0
GRID*               8068               01.0464833246E+027.9890135655E+01+
*       5.9106346686E+02               0
GRID*               8069               01.0430852271E+028.0640749913E+01+
*       5.9062247842E+02               0
GRID*               8070               01.0432761124E+028.0606981219E+01+
*       5.9156090889E+02               0
GRID*               8071               01.0210020002E+028.2581196998E+01+
*       5.9382876838E+02               0
GRID*               8072               01.0116801566E+028.2849352585E+01+
*       5.9430804148E+02               0
GRID*               8073               01.0191599170E+028.2651839254E+01+
*       5.9274587992E+02               0
GRID*               8074               01.0182433777E+028.2683594734E+01+
*       5.9173388947E+02               0
GRID*               8075               01.0172156694E+028.2716602773E+01+
*       5.9073937650E+02               0
GRID*               8076               01.0101734101E+028.2872918221E+01+
*       5.9227753146E+02               0
GRID*               8077               01.0031708837E+028.2915200753E+01+
*       5.9481368979E+02               0
GRID*               8078               09.9451194261E+018.2815360026E+01+
*       5.9527661219E+02               0
GRID*               8079               01.0026157271E+028.2913864469E+01+
*       5.9379585801E+02               0
GRID*               8080               01.0018783077E+028.2911026412E+01+
*       5.9280275912E+02               0
GRID*               8081               01.0008755808E+028.2905220492E+01+
*       5.9179008866E+02               0
GRID*               8082               09.9341963810E+018.2790453119E+01+
*       5.9330642680E+02               0
GRID*               8083               09.6748725410E+018.1048739699E+01+
*       5.9525642292E+02               0
GRID*               8084               09.6346254475E+018.0375952173E+01+
*       5.9489583644E+02               0
GRID*               8085               09.7264102695E+018.1646096677E+01+
*       5.9481815711E+02               0
GRID*               8086               09.7853081021E+018.2127712020E+01+
*       5.9430688670E+02               0
GRID*               8087               09.7205562765E+018.1588277592E+01+
*       5.9386718993E+02               0
GRID*               8088               09.7299360194E+018.1679921864E+01+
*       5.9570967566E+02               0
GRID*               8089               09.7917529989E+018.2171085840E+01+
*       5.9620915207E+02               0
GRID*               8090               09.8570630205E+018.2528565794E+01+
*       5.9382596626E+02               0
GRID*               8091               09.8498700091E+018.2495860765E+01+
*       5.9283346327E+02               0
GRID*               8092               09.8630970284E+018.2554836341E+01+
*       5.9478336930E+02               0
GRID*               8093               09.8666906302E+018.2569987146E+01+
*       5.9576184923E+02               0
GRID*               8094               01.0046304964E+028.2915427241E+01+
*       5.8209995104E+02               0
GRID*               8095               01.0134704622E+028.2814496337E+01+
*       5.8261458012E+02               0
GRID*               8096               09.9590199783E+018.2842946948E+01+
*       5.8261590753E+02               0
GRID*               8097               09.8753563570E+018.2605027334E+01+
*       5.8313363923E+02               0
GRID*               8098               09.7975681323E+018.2208854916E+01+
*       5.8365048894E+02               0
GRID*               8099               09.9615781633E+018.2847529277E+01+
*       5.8364700857E+02               0
GRID*               8100               01.0460326640E+028.0015452026E+01+
*       5.8717920928E+02               0
GRID*               8101               01.0422095348E+028.0787388553E+01+
*       5.8668157660E+02               0
GRID*               8102               01.0423148202E+028.0770424873E+01+
*       5.8768627430E+02               0
GRID*               8103               01.0482788119E+027.9201581464E+01+
*       5.8668188918E+02               0
GRID*               8104               01.0489678846E+027.8349122072E+01+
*       5.8618077569E+02               0
GRID*               8105               01.0482643773E+027.9210067115E+01+
*       5.8567280950E+02               0
GRID*               8106               01.0367861180E+028.1495192861E+01+
*       5.8617886698E+02               0
GRID*               8107               01.0301174540E+028.2078353320E+01+
*       5.8568106217E+02               0
GRID*               8108               01.0303631696E+028.2060681902E+01+
*       5.8669312079E+02               0
GRID*               8109               01.0420509162E+028.0812634736E+01+
*       5.8566988903E+02               0
GRID*               8110               01.0458931976E+028.0051700666E+01+
*       5.8516241371E+02               0
GRID*               8111               01.0419514172E+028.0828278909E+01+
*       5.8465724972E+02               0
GRID*               8112               01.0219574886E+028.2540840989E+01+
*       5.8312502245E+02               0
GRID*               8113               01.0296890160E+028.2108573782E+01+
*       5.8363824331E+02               0
GRID*               8114               01.0137077838E+028.2809308257E+01+
*       5.8363970110E+02               0
GRID*               8115               01.0051251563E+028.2914423666E+01+
*       5.8415755304E+02               0
GRID*               8116               09.9643753297E+018.2852365620E+01+
*       5.8467511744E+02               0
GRID*               8117               01.0139820992E+028.2803143631E+01+
*       5.8466775836E+02               0
GRID*               8118               01.0364241408E+028.1533318380E+01+
*       5.8414687502E+02               0
GRID*               8119               01.0298748262E+028.2095558967E+01+
*       5.8465848248E+02               0
GRID*               8120               01.0224509202E+028.2518972752E+01+
*       5.8517274919E+02               0
GRID*               8121               01.0142749069E+028.2796363937E+01+
*       5.8569051678E+02               0
GRID*               8122               09.7292997817E+018.1673864635E+01+
*       5.8416850484E+02               0
GRID*               8123               09.8003773773E+018.2226649771E+01+
*       5.8468257521E+02               0
GRID*               8124               09.6715468708E+018.1001756679E+01+
*       5.8468510975E+02               0
GRID*               8125               09.8816108205E+018.2629028965E+01+
*       5.8519222758E+02               0
GRID*               8126               09.9684092035E+018.2859021651E+01+
*       5.8570265471E+02               0
GRID*               8127               09.8038755619E+018.2248404501E+01+
*       5.8571004591E+02               0
GRID*               8128               01.0058740509E+028.2911878472E+01+
*       5.8620489532E+02               0
GRID*               8129               01.0147277278E+028.2785471083E+01+
*       5.8670976893E+02               0
GRID*               8130               09.9730555068E+018.2866224101E+01+
*       5.8672194664E+02               0
GRID*               8131               01.0372829906E+028.1441372107E+01+
*       5.8818801340E+02               0
GRID*               8132               01.0307649871E+028.2031239751E+01+
*       5.8770031608E+02               0
GRID*               8133               01.0311137410E+028.2005127166E+01+
*       5.8869785320E+02               0
GRID*               8134               01.0231750824E+028.2485582329E+01+
*       5.8720274217E+02               0
GRID*               8135               01.0152155441E+028.2773177276E+01+
*       5.8771721873E+02               0
GRID*               8136               09.6286598487E+018.0247970217E+01+
*       5.8520729987E+02               0
GRID*               8137               09.6737924507E+018.1033410958E+01+
*       5.8572115736E+02               0
GRID*               8138               09.6009578377E+017.9416100896E+01+
*       5.8572540662E+02               0
GRID*               8139               09.5898713132E+017.8541262714E+01+
*       5.8625003735E+02               0
GRID*               8140               09.5962370514E+017.7660022832E+01+
*       5.8676813621E+02               0
GRID*               8141               09.6017110116E+017.9448504817E+01+
*       5.8676712711E+02               0
GRID*               8142               09.7352633755E+018.1729659953E+01+
*       5.8623257850E+02               0
GRID*               8143               09.8080006333E+018.2273490922E+01+
*       5.8674221228E+02               0
GRID*               8144               09.6766983090E+018.1073567435E+01+
*       5.8675316371E+02               0
GRID*               8145               09.6321963819E+018.0325378463E+01+
*       5.8728527923E+02               0
GRID*               8146               09.6028492151E+017.9495408141E+01+
*       5.8780922696E+02               0
GRID*               8147               09.6796151755E+018.1113007407E+01+
*       5.8779572337E+02               0
GRID*               8148               09.8909299349E+018.2662833317E+01+
*       5.8724237147E+02               0
GRID*               8149               09.9788038773E+018.2874451077E+01+
*       5.8774470083E+02               0
GRID*               8150               09.8130381542E+018.2303309803E+01+
*       5.8776479537E+02               0
GRID*               8151               09.7436911512E+018.1805144202E+01+
*       5.8829679789E+02               0
GRID*               8152               09.6836397669E+018.1166054312E+01+
*       5.8882784521E+02               0
GRID*               8153               09.8186382630E+018.2335428251E+01+
*       5.8879723405E+02               0
GRID*               8154               01.0084157729E+028.2893870800E+01+
*       5.9025514732E+02               0
GRID*               8155               09.9924571475E+018.2890982783E+01+
*       5.8977300170E+02               0
GRID*               8156               01.0000331841E+028.2898605611E+01+
*       5.9078277552E+02               0
GRID*               8157               01.0164756427E+028.2738700518E+01+
*       5.8972969179E+02               0
GRID*               8158               01.0242149413E+028.2434868488E+01+
*       5.8921164921E+02               0
GRID*               8159               01.0158390814E+028.2756609666E+01+
*       5.8872786983E+02               0
GRID*               8160               09.9033265787E+018.2704254963E+01+
*       5.8928233615E+02               0
GRID*               8161               09.8250239536E+018.2370766237E+01+
*       5.8981439076E+02               0
GRID*               8162               09.9852836628E+018.2882823066E+01+
*       5.8875536320E+02               0
GRID*               8163               01.0069886215E+028.2905765886E+01+
*       5.8823478599E+02               0
GRID*               8164               09.7817629340E+017.4728629141E+01+
*       5.9194680315E+02               0
GRID*               8165               09.7093102639E+017.5360880730E+01+
*       5.9251163908E+02               0
GRID*               8166               09.9492786796E+017.4007732262E+01+
*       5.8986652988E+02               0
GRID*               8167               09.8632881177E+017.4276247360E+01+
*       5.8934864696E+02               0
GRID*               8168               09.9493035899E+017.4007681169E+01+
*       5.9089676741E+02               0
GRID*               8169               09.8618456738E+017.4282424174E+01+
*       5.9142128668E+02               0
GRID*               8170               09.7822699632E+017.4725087393E+01+
*       5.9091088244E+02               0
GRID*               8171               09.7835234623E+017.4716375713E+01+
*       5.8987188121E+02               0
GRID*               8172               09.7842304596E+017.4711489907E+01+
*       5.8883533852E+02               0
GRID*               8173               09.7137959835E+017.5313072555E+01+
*       5.9039790511E+02               0
GRID*               8174               09.6078113610E+017.9679084079E+01+
*       5.9446472983E+02               0
GRID*               8175               09.6312124294E+018.0303911281E+01+
*       5.9400914469E+02               0
GRID*               8176               09.6560238632E+017.6064716938E+01+
*       5.9300556804E+02               0
GRID*               8177               09.6586958949E+017.6021671072E+01+
*       5.9192952549E+02               0
GRID*               8178               09.5930688048E+017.8965016920E+01+
*       5.9410099528E+02               0
GRID*               8179               09.6166765713E+017.6881645810E+01+
*       5.9321656388E+02               0
GRID*               8180               09.5991107549E+017.7500853875E+01+
*       5.9363425238E+02               0
GRID*               8181               09.6004884164E+017.7436571362E+01+
*       5.9285459727E+02               0
GRID*               8182               09.5899894630E+017.8259603829E+01+
*       5.9398014521E+02               0
GRID*               8183               09.5912732920E+017.8787951167E+01+
*       5.9347510924E+02               0
GRID*               8184               09.6575720537E+017.6039644188E+01+
*       5.9093606780E+02               0
GRID*               8185               09.6583694777E+017.6026872164E+01+
*       5.8989802938E+02               0
GRID*               8186               09.6184119982E+017.6834600938E+01+
*       5.9142950440E+02               0
GRID*               8187               09.6634566965E+018.0883161181E+01+
*       5.9342517868E+02               0
GRID*               8188               09.7112219162E+018.1491520404E+01+
*       5.9291630458E+02               0
GRID*               8189               09.6247490657E+018.0157246165E+01+
*       5.9307238643E+02               0
GRID*               8190               09.5943125428E+017.7773190519E+01+
*       5.9206578862E+02               0
GRID*               8191               09.5940211873E+017.7792552848E+01+
*       5.9107781926E+02               0
GRID*               8192               09.5897116889E+017.8414240144E+01+
*       5.9251611102E+02               0
GRID*               8193               09.5953915926E+017.9127249012E+01+
*       5.9268299201E+02               0
GRID*               8194               09.6114309350E+017.9796690933E+01+
*       5.9210799993E+02               0
GRID*               8195               09.7712674100E+018.2027449764E+01+
*       5.9235898174E+02               0
GRID*               8196               09.7040844435E+018.1413452651E+01+
*       5.9193039644E+02               0
GRID*               8197               09.8410337410E+018.2453567756E+01+
*       5.9184171416E+02               0
GRID*               8198               09.9185137385E+018.2749633060E+01+
*       5.9130639203E+02               0
GRID*               8199               09.8332365206E+018.2414255728E+01+
*       5.9083579595E+02               0
GRID*               8200               09.6480079430E+018.0630812004E+01+
*       5.9146251386E+02               0
GRID*               8201               09.6073898784E+017.9663763165E+01+
*       5.9108393080E+02               0
GRID*               8202               09.6947192272E+018.1304526017E+01+
*       5.9090540504E+02               0
GRID*               8203               09.7557945344E+018.1907131363E+01+
*       5.9034939404E+02               0
GRID*               8204               09.6886346860E+018.1229806476E+01+
*       5.8988499250E+02               0
GRID*               8205               09.5907198816E+017.8712063495E+01+
*       5.9057203965E+02               0
GRID*               8206               09.5947685842E+017.7743449464E+01+
*       5.8992699253E+02               0
GRID*               8207               09.6060088539E+017.9614398329E+01+
*       5.8992970996E+02               0
GRID*               8208               09.6377098957E+018.0438658364E+01+
*       5.8938383422E+02               0
GRID*               8209               09.6039517949E+017.9538848606E+01+
*       5.8887365389E+02               0
GRID*               8210               09.6197674520E+017.6798936921E+01+
*       5.8729200470E+02               0
GRID*               8211               09.5957881334E+017.7684864641E+01+
*       5.8781428984E+02               0
GRID*               8212               09.6599610629E+017.6001661650E+01+
*       5.8780833446E+02               0
GRID*               8213               09.7158651852E+017.5291478356E+01+
*       5.8831955679E+02               0
GRID*               8214               09.6591761827E+017.6014047726E+01+
*       5.8884812609E+02               0
GRID*               8215               09.5901584531E+017.8618386813E+01+
*       5.8835538329E+02               0
GRID*               8216               09.5950274041E+017.7727713856E+01+
*       5.8887770553E+02               0
GRID*               8217               09.6183052027E+017.6837450640E+01+
*       5.8938786085E+02               0
GRID*               8218               01.0414678291E+028.0902894113E+01+
*       5.2387990544E+02               0
GRID*               8219               01.0455877891E+028.0127825845E+01+
*       5.2336500095E+02               0
GRID*               8220               01.0414672666E+028.0902996727E+01+
*       5.2284894978E+02               0
GRID*               8221               01.0414681303E+028.0902830732E+01+
*       5.2491096597E+02               0
GRID*               8222               01.0414685503E+028.0902749474E+01+
*       5.2594197253E+02               0
GRID*               8223               01.0455874967E+028.0127898632E+01+
*       5.2542701997E+02               0
GRID*               8224               01.0358358895E+028.1593421968E+01+
*       5.2439579677E+02               0
GRID*               8225               01.0290181071E+028.2154387850E+01+
*       5.2388021638E+02               0
GRID*               8226               01.0290170298E+028.2154460025E+01+
*       5.2491127904E+02               0
GRID*               8227               01.0414692270E+028.0902629644E+01+
*       5.2697304465E+02               0
GRID*               8228               01.0414697610E+028.0902531263E+01+
*       5.2800408074E+02               0
GRID*               8229               01.0455871914E+028.0127974661E+01+
*       5.2748912159E+02               0
GRID*               8230               01.0212417754E+028.2571312040E+01+
*       5.2542684783E+02               0
GRID*               8231               01.0290164969E+028.2154495732E+01+
*       5.2594238630E+02               0
GRID*               8232               01.0128000000E+028.2828417884E+01+
*       5.2491134499E+02               0
GRID*               8233               01.0127993651E+028.2828430761E+01+
*       5.2594244230E+02               0
GRID*               8234               01.0358345577E+028.1593555514E+01+
*       5.2645794754E+02               0
GRID*               8235               01.0290159799E+028.2154530390E+01+
*       5.2697345939E+02               0
GRID*               8236               01.0414650833E+028.0903360868E+01+
*       5.2078721727E+02               0
GRID*               8237               01.0414662762E+028.0903163616E+01+
*       5.2181805417E+02               0
GRID*               8238               01.0455875505E+028.0127882248E+01+
*       5.2130315388E+02               0
GRID*               8239               01.0414643781E+028.0903484768E+01+
*       5.1975635078E+02               0
GRID*               8240               01.0455870309E+028.0128007020E+01+
*       5.1924146677E+02               0
GRID*               8241               01.0414634138E+028.0903647497E+01+
*       5.1872555281E+02               0
GRID*               8242               01.0358372051E+028.1593290029E+01+
*       5.2027204010E+02               0
GRID*               8243               01.0290195755E+028.2154289641E+01+
*       5.1975652844E+02               0
GRID*               8244               01.0290191333E+028.2154319207E+01+
*       5.2078739867E+02               0
GRID*               8245               01.0358368132E+028.1593329339E+01+
*       5.2233382168E+02               0
GRID*               8246               01.0290183912E+028.2154368881E+01+
*       5.2181833609E+02               0
GRID*               8247               01.0290183639E+028.2154370670E+01+
*       5.2284923464E+02               0
GRID*               8248               01.0212438112E+028.2571227354E+01+
*       5.2130286066E+02               0
GRID*               8249               01.0128025241E+028.2828366746E+01+
*       5.2078739376E+02               0
GRID*               8250               01.0128016361E+028.2828384659E+01+
*       5.2181832272E+02               0
GRID*               8251               01.0040118445E+028.2915914596E+01+
*       5.2439593668E+02               0
GRID*               8252               09.9522166867E+018.2829986962E+01+
*       5.2388047733E+02               0
GRID*               8253               09.9522152352E+018.2829984067E+01+
*       5.2491152313E+02               0
GRID*               8254               01.0128000880E+028.2828415947E+01+
*       5.2388029600E+02               0
GRID*               8255               01.0212426750E+028.2571274615E+01+
*       5.2336476975E+02               0
GRID*               8256               01.0128004000E+028.2828409539E+01+
*       5.2284932344E+02               0
GRID*               8257               09.8677425992E+018.2574350344E+01+
*       5.2336506578E+02               0
GRID*               8258               09.7898908527E+018.2158701329E+01+
*       5.2284963017E+02               0
GRID*               8259               09.7898842222E+018.2158657248E+01+
*       5.2388067849E+02               0
GRID*               8260               09.9522243570E+018.2830002186E+01+
*       5.2284943206E+02               0
GRID*               8261               01.0040132766E+028.2915914463E+01+
*       5.2233389135E+02               0
GRID*               8262               09.9522372104E+018.2830027685E+01+
*       5.2181843427E+02               0
GRID*               8263               01.0414705984E+028.0902369270E+01+
*       5.3006625658E+02               0
GRID*               8264               01.0455869297E+028.0128040222E+01+
*       5.2955128501E+02               0
GRID*               8265               01.0414701326E+028.0902457332E+01+
*       5.2903519037E+02               0
GRID*               8266               01.0414712504E+028.0902253310E+01+
*       5.3109735439E+02               0
GRID*               8267               01.0414719546E+028.0902129571E+01+
*       5.3212839971E+02               0
GRID*               8268               01.0455868021E+028.0128073289E+01+
*       5.3161345979E+02               0
GRID*               8269               01.0358320560E+028.1593806355E+01+
*       5.3058236930E+02               0
GRID*               8270               01.0290133265E+028.2154708314E+01+
*       5.3006690949E+02               0
GRID*               8271               01.0290127750E+028.2154745346E+01+
*       5.3109800553E+02               0
GRID*               8272               01.0212380081E+028.2571468663E+01+
*       5.2955144402E+02               0
GRID*               8273               01.0127962198E+028.2828494205E+01+
*       5.2903602261E+02               0
GRID*               8274               01.0127956089E+028.2828506618E+01+
*       5.3006717881E+02               0
GRID*               8275               01.0290138439E+028.2154673589E+01+
*       5.2903574162E+02               0
GRID*               8276               01.0358333176E+028.1593679859E+01+
*       5.2852014627E+02               0
GRID*               8277               01.0290148213E+028.2154608054E+01+
*       5.2800463225E+02               0
GRID*               8278               01.0040084581E+028.2915914891E+01+
*       5.2852058360E+02               0
GRID*               8279               09.9521869016E+018.2829927956E+01+
*       5.2800514363E+02               0
GRID*               8280               09.9521812132E+018.2829916719E+01+
*       5.2903636853E+02               0
GRID*               8281               01.0127967143E+028.2828484125E+01+
*       5.2800479398E+02               0
GRID*               8282               01.0212398805E+028.2571390823E+01+
*       5.2748911611E+02               0
GRID*               8283               01.0127980853E+028.2828456531E+01+
*       5.2697363189E+02               0
GRID*               8284               09.7215728931E+018.1598472663E+01+
*       5.2439644701E+02               0
GRID*               8285               09.7898779535E+018.2158615590E+01+
*       5.2491183882E+02               0
GRID*               8286               09.6651216377E+018.0908505248E+01+
*       5.2388056464E+02               0
GRID*               8287               09.6651073368E+018.0908272968E+01+
*       5.2491171730E+02               0
GRID*               8288               09.6237804907E+018.0133423487E+01+
*       5.2542801980E+02               0
GRID*               8289               09.5981827460E+017.9288879069E+01+
*       5.2491242655E+02               0
GRID*               8290               09.5981699308E+017.9288793404E+01+
*       5.2594368615E+02               0
GRID*               8291               09.6650983149E+018.0908119764E+01+
*       5.2594295641E+02               0
GRID*               8292               01.0040103614E+028.2915914728E+01+
*       5.2645817052E+02               0
GRID*               8293               09.9522030872E+018.2829959996E+01+
*       5.2594270531E+02               0
GRID*               8294               09.9521896332E+018.2829933347E+01+
*       5.2697389146E+02               0
GRID*               8295               09.8677236449E+018.2574271933E+01+
*       5.2542729504E+02               0
GRID*               8296               09.7898675488E+018.2158546317E+01+
*       5.2594302431E+02               0
GRID*               8297               09.8677093739E+018.2574212883E+01+
*       5.2748973134E+02               0
GRID*               8298               09.7898651707E+018.2158530650E+01+
*       5.2697427682E+02               0
GRID*               8299               09.7898627733E+018.2158514860E+01+
*       5.2800553256E+02               0
GRID*               8300               09.7215649502E+018.1598393260E+01+
*       5.2645886837E+02               0
GRID*               8301               09.6650865688E+018.0907925747E+01+
*       5.2697420179E+02               0
GRID*               8302               09.7218108064E+017.5230991362E+01+
*       5.2852295922E+02               0
GRID*               8303               09.7899254574E+017.4672853425E+01+
*       5.2800744632E+02               0
GRID*               8304               09.7899216358E+017.4672878929E+01+
*       5.2903865135E+02               0
GRID*               8305               09.6657573332E+017.5912872237E+01+
*       5.2903835296E+02               0
GRID*               8306               09.6657599244E+017.5912833878E+01+
*       5.2800718724E+02               0
GRID*               8307               09.5897299157E+017.8412357309E+01+
*       5.2645972269E+02               0
GRID*               8308               09.5981606770E+017.9288818234E+01+
*       5.2697494708E+02               0
GRID*               8309               09.5984336124E+017.7534417750E+01+
*       5.2594427269E+02               0
GRID*               8310               09.5984318217E+017.7534507727E+01+
*       5.2697556995E+02               0
GRID*               8311               09.6241235784E+017.6690607601E+01+
*       5.2749132696E+02               0
GRID*               8312               09.6657681223E+017.5912711781E+01+
*       5.2697593543E+02               0
GRID*               8313               09.5984293108E+017.7534633754E+01+
*       5.2800679019E+02               0
GRID*               8314               01.0414736469E+028.0901839732E+01+
*       5.3419040883E+02               0
GRID*               8315               01.0455870238E+028.0128021603E+01+
*       5.3367555459E+02               0
GRID*               8316               01.0414727052E+028.0901998954E+01+
*       5.3315942471E+02               0
GRID*               8317               01.0414747362E+028.0901658449E+01+
*       5.3522128743E+02               0
GRID*               8318               01.0414759197E+028.0901463162E+01+
*       5.3625217792E+02               0
GRID*               8319               01.0455869292E+028.0127855326E+01+
*       5.3573749612E+02               0
GRID*               8320               01.0358311215E+028.1593900036E+01+
*       5.3470642136E+02               0
GRID*               8321               01.0290116052E+028.2154824082E+01+
*       5.3419103326E+02               0
GRID*               8322               01.0290117330E+028.2154815689E+01+
*       5.3522190646E+02               0
GRID*               8323               01.0414775497E+028.0901200899E+01+
*       5.3728303314E+02               0
GRID*               8324               01.0414791886E+028.0900937479E+01+
*       5.3831382544E+02               0
GRID*               8325               01.0455811236E+028.0127344931E+01+
*       5.3779924380E+02               0
GRID*               8326               01.0212363124E+028.2571539242E+01+
*       5.3573742602E+02               0
GRID*               8327               01.0290122760E+028.2154779499E+01+
*       5.3625275349E+02               0
GRID*               8328               01.0127937446E+028.2828544955E+01+
*       5.3522212333E+02               0
GRID*               8329               01.0127943943E+028.2828532205E+01+
*       5.3625295549E+02               0
GRID*               8330               01.0358321018E+028.1593801760E+01+
*       5.3676816459E+02               0
GRID*               8331               01.0290132330E+028.2154715599E+01+
*       5.3728360111E+02               0
GRID*               8332               09.6237755743E+018.0133306347E+01+
*       5.2749055066E+02               0
GRID*               8333               09.6650754672E+018.0907741402E+01+
*       5.2800544247E+02               0
GRID*               8334               09.5981507713E+017.9288712523E+01+
*       5.2800621368E+02               0
GRID*               8335               09.8676967132E+018.2574160491E+01+
*       5.2955214819E+02               0
GRID*               8336               09.7898553718E+018.2158465656E+01+
*       5.2903672034E+02               0
GRID*               8337               09.7898464239E+018.2158406129E+01+
*       5.3006788678E+02               0
GRID*               8338               09.9521707325E+018.2829895999E+01+
*       5.3006753110E+02               0
GRID*               8339               09.7215560021E+018.1598303804E+01+
*       5.2852131789E+02               0
GRID*               8340               09.6650603822E+018.0907497401E+01+
*       5.2903662388E+02               0
GRID*               8341               09.5897302385E+017.8412451301E+01+
*       5.2852222786E+02               0
GRID*               8342               09.5981439164E+017.9288668017E+01+
*       5.2903741444E+02               0
GRID*               8343               09.5984292908E+017.7534635046E+01+
*       5.2903802480E+02               0
GRID*               8344               09.6241163453E+017.6690517903E+01+
*       5.2955385352E+02               0
GRID*               8345               09.6657647931E+017.5912760479E+01+
*       5.3006963545E+02               0
GRID*               8346               09.5984322811E+017.7534485610E+01+
*       5.3006927307E+02               0
GRID*               8347               09.7215464477E+018.1598208282E+01+
*       5.3058370804E+02               0
GRID*               8348               09.6650500746E+018.0907325034E+01+
*       5.3006774432E+02               0
GRID*               8349               09.6650379243E+018.0907125116E+01+
*       5.3109893116E+02               0
GRID*               8350               09.7898433821E+018.2158386051E+01+
*       5.3109907916E+02               0
GRID*               8351               09.6237637592E+018.0133180719E+01+
*       5.2955296408E+02               0
GRID*               8352               09.5981384918E+017.9288594492E+01+
*       5.3006856693E+02               0
GRID*               8353               09.6236587735E+018.0133298256E+01+
*       5.3161534653E+02               0
GRID*               8354               09.5981325516E+017.9288395740E+01+
*       5.3109982490E+02               0
GRID*               8355               09.5981299950E+017.9288268840E+01+
*       5.3213107585E+02               0
GRID*               8356               09.6650236050E+018.0906892766E+01+
*       5.3213014378E+02               0
GRID*               8357               09.5897304828E+017.8412269191E+01+
*       5.3058472289E+02               0
GRID*               8358               09.5984357351E+017.7534312968E+01+
*       5.3110056232E+02               0
GRID*               8359               01.0040068205E+028.2915915024E+01+
*       5.3058289899E+02               0
GRID*               8360               01.0127945961E+028.2828527061E+01+
*       5.3109827114E+02               0
GRID*               8361               09.9521597690E+018.2829874335E+01+
*       5.3109861940E+02               0
GRID*               8362               01.0358312965E+028.1593882499E+01+
*       5.3264450595E+02               0
GRID*               8363               01.0290120003E+028.2154797350E+01+
*       5.3212903731E+02               0
GRID*               8364               01.0290116058E+028.2154823897E+01+
*       5.3316005884E+02               0
GRID*               8365               01.0212365671E+028.2571528572E+01+
*       5.3161362978E+02               0
GRID*               8366               01.0127936839E+028.2828545498E+01+
*       5.3212929029E+02               0
GRID*               8367               01.0040052017E+028.2915915150E+01+
*       5.3470681106E+02               0
GRID*               8368               09.9521503463E+018.2829855956E+01+
*       5.3419158469E+02               0
GRID*               8369               09.9521539954E+018.2829863327E+01+
*       5.3522249229E+02               0
GRID*               8370               01.0127932756E+028.2828554097E+01+
*       5.3419121096E+02               0
GRID*               8371               01.0212357054E+028.2571564412E+01+
*       5.3367562092E+02               0
GRID*               8372               01.0127932708E+028.2828553970E+01+
*       5.3316025026E+02               0
GRID*               8373               09.7215422651E+018.1598166463E+01+
*       5.3264594887E+02               0
GRID*               8374               09.7898369012E+018.2158343255E+01+
*       5.3316112197E+02               0
GRID*               8375               09.7898379292E+018.2158349873E+01+
*       5.3213008432E+02               0
GRID*               8376               09.6650128657E+018.0906714168E+01+
*       5.3316117688E+02               0
GRID*               8377               09.8676764294E+018.2574076543E+01+
*       5.3367632617E+02               0
GRID*               8378               09.9521483190E+018.2829851819E+01+
*       5.3316057598E+02               0
GRID*               8379               09.7898386035E+018.2158354877E+01+
*       5.3419213518E+02               0
GRID*               8380               09.8676806659E+018.2574094088E+01+
*       5.3161431402E+02               0
GRID*               8381               09.9521533849E+018.2829861762E+01+
*       5.3212962039E+02               0
GRID*               8382               01.0040052595E+028.2915915146E+01+
*       5.3264494526E+02               0
GRID*               8383               01.0455129845E+027.6687802069E+01+
*       5.3986189311E+02               0
GRID*               8384               01.0413528901E+027.5910767308E+01+
*       5.4037780206E+02               0
GRID*               8385               01.0413537715E+027.5910899246E+01+
*       5.3934695809E+02               0
GRID*               8386               01.0480905113E+027.7530247535E+01+
*       5.3934616283E+02               0
GRID*               8387               01.0480901151E+027.7530060629E+01+
*       5.4037694521E+02               0
GRID*               8388               01.0357497652E+027.5229805235E+01+
*       5.4089375411E+02               0
GRID*               8389               01.0289403519E+027.4672196825E+01+
*       5.4140985321E+02               0
GRID*               8390               01.0289417843E+027.4672292384E+01+
*       5.4037897918E+02               0
GRID*               8391               01.0413518978E+027.5910618784E+01+
*       5.4140860254E+02               0
GRID*               8392               01.0127361430E+027.4002108507E+01+
*       5.4244119291E+02               0
GRID*               8393               01.0127361412E+027.4002108487E+01+
*       5.4347212075E+02               0
GRID*               8394               01.0211706527E+027.4257635234E+01+
*       5.4192602483E+02               0
GRID*               8395               01.0289399356E+027.4672169041E+01+
*       5.4244069575E+02               0
GRID*               8396               01.0127365880E+027.4002117323E+01+
*       5.4141030836E+02               0
GRID*               8397               01.0127372267E+027.4002129950E+01+
*       5.3831750791E+02               0
GRID*               8398               01.0127372248E+027.4002129929E+01+
*       5.3934843574E+02               0
GRID*               8399               01.0127357730E+027.4002101078E+01+
*       5.3728653701E+02               0
GRID*               8400               01.0127357750E+027.4002101100E+01+
*       5.3625560917E+02               0
GRID*               8401               01.0211707503E+027.4257639244E+01+
*       5.3780227969E+02               0
GRID*               8402               01.0289401534E+027.4672183682E+01+
*       5.3728621696E+02               0
GRID*               8403               01.0289413520E+027.4672263602E+01+
*       5.3831715189E+02               0
GRID*               8404               01.0357502186E+027.5229850456E+01+
*       5.3883203185E+02               0
GRID*               8405               01.0289423554E+027.4672330505E+01+
*       5.3934807316E+02               0
GRID*               8406               01.0413531300E+027.5910803950E+01+
*       5.3831610475E+02               0
GRID*               8407               01.0127365899E+027.4002117343E+01+
*       5.4037938053E+02               0
GRID*               8408               01.0211716074E+027.4257674704E+01+
*       5.3986419544E+02               0
GRID*               8409               01.0127366038E+027.4002117230E+01+
*       5.1872942547E+02               0
GRID*               8410               01.0127366060E+027.4002117254E+01+
*       5.1769849764E+02               0
GRID*               8411               01.0127358156E+027.4002101603E+01+
*       5.1976033739E+02               0
GRID*               8412               01.0127358134E+027.4002101579E+01+
*       5.2079126522E+02               0
GRID*               8413               01.0211680260E+027.4257526208E+01+
*       5.1924469725E+02               0
GRID*               8414               01.0289400069E+027.4672174159E+01+
*       5.1872861783E+02               0
GRID*               8415               01.0289393236E+027.4672128579E+01+
*       5.1975951233E+02               0
GRID*               8416               01.0357489379E+027.5229722716E+01+
*       5.1821260591E+02               0
GRID*               8417               01.0413521352E+027.5910657156E+01+
*       5.1769667106E+02               0
GRID*               8418               01.0413515054E+027.5910563370E+01+
*       5.1872751044E+02               0
GRID*               8419               01.0289408995E+027.4672233699E+01+
*       5.1769774788E+02               0
GRID*               8420               01.0127356563E+027.4002098383E+01+
*       5.1666756467E+02               0
GRID*               8421               01.0127356585E+027.4002098407E+01+
*       5.1563663683E+02               0
GRID*               8422               01.0211674448E+027.4257502095E+01+
*       5.1718285209E+02               0
GRID*               8423               01.0289401107E+027.4672181089E+01+
*       5.1666683105E+02               0
GRID*               8424               01.0455161890E+027.6687353830E+01+
*       5.1718070360E+02               0
GRID*               8425               01.0480919879E+027.7530377766E+01+
*       5.1666502848E+02               0
GRID*               8426               01.0480916571E+027.7530409242E+01+
*       5.1769586162E+02               0
GRID*               8427               01.0413517833E+027.5910604508E+01+
*       5.1666581702E+02               0
GRID*               8428               01.0357484686E+027.5229675912E+01+
*       5.1615087967E+02               0
GRID*               8429               01.0413508173E+027.5910460249E+01+
*       5.1563495859E+02               0
GRID*               8430               01.0289386280E+027.4672082213E+01+
*       5.1563594441E+02               0
GRID*               8431               01.0127347981E+027.4002081310E+01+
*       5.1460575685E+02               0
GRID*               8432               01.0127348003E+027.4002081334E+01+
*       5.1357482902E+02               0
GRID*               8433               01.0211652722E+027.4257412175E+01+
*       5.1512103884E+02               0
GRID*               8434               01.0289379137E+027.4672034581E+01+
*       5.1460507933E+02               0
GRID*               8435               01.0481197852E+027.9282708245E+01+
*       5.3522201821E+02               0
GRID*               8436               01.0481212948E+027.9282728948E+01+
*       5.3625297893E+02               0
GRID*               8437               01.0481189714E+027.9282671239E+01+
*       5.3419101778E+02               0
GRID*               8438               01.0481187782E+027.9282699667E+01+
*       5.3315998275E+02               0
GRID*               8439               01.0489707155E+027.8406808068E+01+
*       5.3470670342E+02               0
GRID*               8440               01.0480914217E+027.7530664256E+01+
*       5.3522248683E+02               0
GRID*               8441               01.0480914561E+027.7530673390E+01+
*       5.3419145438E+02               0
GRID*               8442               01.0481254083E+027.9282783245E+01+
*       5.3831475903E+02               0
GRID*               8443               01.0481231860E+027.9282792268E+01+
*       5.3728388602E+02               0
GRID*               8444               01.0489718709E+027.8406379564E+01+
*       5.3883037376E+02               0
GRID*               8445               01.0480910439E+027.7530502750E+01+
*       5.3831528650E+02               0
GRID*               8446               01.0481275216E+027.9282665457E+01+
*       5.3934560818E+02               0
GRID*               8447               01.0357498937E+027.5229818052E+01+
*       5.3677013628E+02               0
GRID*               8448               01.0413544400E+027.5911000095E+01+
*       5.3625416450E+02               0
GRID*               8449               01.0413540556E+027.5910942408E+01+
*       5.3728514358E+02               0
GRID*               8450               01.0289406795E+027.4672218787E+01+
*       5.3625517515E+02               0
GRID*               8451               01.0455077234E+027.6688394523E+01+
*       5.3573822226E+02               0
GRID*               8452               01.0480915962E+027.7530759482E+01+
*       5.3625345314E+02               0
GRID*               8453               01.0413537398E+027.5910895904E+01+
*       5.3522314566E+02               0
GRID*               8454               01.0455071825E+027.6688364033E+01+
*       5.3780014591E+02               0
GRID*               8455               01.0480914503E+027.7530695663E+01+
*       5.3728438221E+02               0
GRID*               8456               01.0489711931E+027.8406725043E+01+
*       5.3676861876E+02               0
GRID*               8457               01.0481276417E+027.9282763828E+01+
*       5.2181881058E+02               0
GRID*               8458               01.0481275251E+027.9282816699E+01+
*       5.2078793650E+02               0
GRID*               8459               01.0481277615E+027.9282710056E+01+
*       5.2284970978E+02               0
GRID*               8460               01.0481276494E+027.9282775253E+01+
*       5.2388070470E+02               0
GRID*               8461               01.0489688884E+027.8405903268E+01+
*       5.2233443613E+02               0
GRID*               8462               01.0480910497E+027.7530408311E+01+
*       5.2285033094E+02               0
GRID*               8463               01.0480911905E+027.7530474943E+01+
*       5.2181940575E+02               0
GRID*               8464               01.0481273795E+027.9282880205E+01+
*       5.1872625654E+02               0
GRID*               8465               01.0481274259E+027.9282861542E+01+
*       5.1975708978E+02               0
GRID*               8466               01.0489682086E+027.8405737603E+01+
*       5.1821089943E+02               0
GRID*               8467               01.0480915795E+027.7530523798E+01+
*       5.1872675633E+02               0
GRID*               8468               01.0481276175E+027.9282754622E+01+
*       5.1769538798E+02               0
GRID*               8469               01.0455195517E+027.6687506925E+01+
*       5.2130433699E+02               0
GRID*               8470               01.0480915707E+027.7530661235E+01+
*       5.2078855883E+02               0
GRID*               8471               01.0413522956E+027.5910681552E+01+
*       5.2182026319E+02               0
GRID*               8472               01.0413532491E+027.5910823705E+01+
*       5.2078938604E+02               0
GRID*               8473               01.0357488919E+027.5229718128E+01+
*       5.2027439586E+02               0
GRID*               8474               01.0289402050E+027.4672187356E+01+
*       5.2079046516E+02               0
GRID*               8475               01.0413526871E+027.5910739758E+01+
*       5.1975846630E+02               0
GRID*               8476               01.0489685082E+027.8405902525E+01+
*       5.2027264986E+02               0
GRID*               8477               01.0480917499E+027.7530710202E+01+
*       5.1975768690E+02               0
GRID*               8478               01.0455186982E+027.6687475532E+01+
*       5.1924252461E+02               0
GRID*               8479               01.0211703038E+027.4257620759E+01+
*       5.3574029773E+02               0
GRID*               8480               01.0289416371E+027.4672282678E+01+
*       5.3522419718E+02               0
GRID*               8481               01.0127368726E+027.4002122868E+01+
*       5.3522459819E+02               0
GRID*               8482               01.0127368746E+027.4002122890E+01+
*       5.3419367035E+02               0
GRID*               8483               01.0455149249E+027.6688086354E+01+
*       5.3367620120E+02               0
GRID*               8484               01.0413545763E+027.5911020978E+01+
*       5.3419217362E+02               0
GRID*               8485               01.0413550347E+027.5911089595E+01+
*       5.3316111652E+02               0
GRID*               8486               01.0480916871E+027.7530780724E+01+
*       5.3316044583E+02               0
GRID*               8487               01.0357514386E+027.5229972142E+01+
*       5.3470812677E+02               0
GRID*               8488               01.0289428361E+027.4672362676E+01+
*       5.3419316725E+02               0
GRID*               8489               01.0127374675E+027.4002134642E+01+
*       5.3316267161E+02               0
GRID*               8490               01.0127374696E+027.4002134664E+01+
*       5.3213174377E+02               0
GRID*               8491               01.0211717565E+027.4257680814E+01+
*       5.3367828790E+02               0
GRID*               8492               01.0289433645E+027.4672397945E+01+
*       5.3316219902E+02               0
GRID*               8493               01.0357514249E+027.5229970780E+01+
*       5.3264605666E+02               0
GRID*               8494               01.0413541958E+027.5910964616E+01+
*       5.3213007232E+02               0
GRID*               8495               01.0289420683E+027.4672311498E+01+
*       5.3213110135E+02               0
GRID*               8496               01.0127359023E+027.4002103535E+01+
*       5.3110069090E+02               0
GRID*               8497               01.0127359044E+027.4002103558E+01+
*       5.3006976307E+02               0
GRID*               8498               01.0211706720E+027.4257635933E+01+
*       5.3161623617E+02               0
GRID*               8499               01.0289407670E+027.4672224716E+01+
*       5.3110007679E+02               0
GRID*               8500               01.0481241806E+027.9283064384E+01+
*       5.2903579797E+02               0
GRID*               8501               01.0481221311E+027.9282993655E+01+
*       5.3006688300E+02               0
GRID*               8502               01.0481261069E+027.9283089617E+01+
*       5.2800478631E+02               0
GRID*               8503               01.0481271405E+027.9283062634E+01+
*       5.2697371895E+02               0
GRID*               8504               01.0489701227E+027.8406628609E+01+
*       5.2852044007E+02               0
GRID*               8505               01.0480916599E+027.7530740694E+01+
*       5.2903627588E+02               0
GRID*               8506               01.0480915038E+027.7530657268E+01+
*       5.2800520723E+02               0
GRID*               8507               01.0481191304E+027.9282851057E+01+
*       5.3212898319E+02               0
GRID*               8508               01.0481203446E+027.9282927440E+01+
*       5.3109790713E+02               0
GRID*               8509               01.0489705531E+027.8406906364E+01+
*       5.3264466625E+02               0
GRID*               8510               01.0480918989E+027.7530878951E+01+
*       5.3212939915E+02               0
GRID*               8511               01.0357504346E+027.5229872000E+01+
*       5.3058397680E+02               0
GRID*               8512               01.0413547027E+027.5911040545E+01+
*       5.3006805760E+02               0
GRID*               8513               01.0413546319E+027.5911029846E+01+
*       5.3109904355E+02               0
GRID*               8514               01.0289408268E+027.4672228718E+01+
*       5.3006904147E+02               0
GRID*               8515               01.0455219941E+027.6687868632E+01+
*       5.2955207205E+02               0
GRID*               8516               01.0480920097E+027.7530920869E+01+
*       5.3006733193E+02               0
GRID*               8517               01.0413535448E+027.5910867888E+01+
*       5.2903696013E+02               0
GRID*               8518               01.0455215309E+027.6687997724E+01+
*       5.3161416545E+02               0
GRID*               8519               01.0480921172E+027.7530980801E+01+
*       5.3109841523E+02               0
GRID*               8520               01.0489704210E+027.8406883159E+01+
*       5.3058256896E+02               0
GRID*               8521               01.0211698142E+027.4257600425E+01+
*       5.2955423193E+02               0
GRID*               8522               01.0289415829E+027.4672279166E+01+
*       5.2903811621E+02               0
GRID*               8523               01.0127367706E+027.4002120733E+01+
*       5.2903881182E+02               0
GRID*               8524               01.0127367727E+027.4002120756E+01+
*       5.2800788399E+02               0
GRID*               8525               01.0455224058E+027.6687709245E+01+
*       5.2749001632E+02               0
GRID*               8526               01.0413541737E+027.5910961789E+01+
*       5.2800604474E+02               0
GRID*               8527               01.0413543451E+027.5910987418E+01+
*       5.2697505787E+02               0
GRID*               8528               01.0480916198E+027.7530709740E+01+
*       5.2697425865E+02               0
GRID*               8529               01.0357513019E+027.5229958504E+01+
*       5.2852202950E+02               0
GRID*               8530               01.0289424734E+027.4672338582E+01+
*       5.2800715527E+02               0
GRID*               8531               01.0211708571E+027.4257643515E+01+
*       5.2749232704E+02               0
GRID*               8532               01.0289429081E+027.4672367586E+01+
*       5.2697622579E+02               0
GRID*               8533               01.0127372610E+027.4002130430E+01+
*       5.2697693050E+02               0
GRID*               8534               01.0127372631E+027.4002130453E+01+
*       5.2594600267E+02               0
GRID*               8535               01.0357508821E+027.5229916632E+01+
*       5.2646008679E+02               0
GRID*               8536               01.0413534051E+027.5910847198E+01+
*       5.2594407295E+02               0
GRID*               8537               01.0289414625E+027.4672271173E+01+
*       5.2594519880E+02               0
GRID*               8538               01.0127358251E+027.4002101889E+01+
*       5.2491501234E+02               0
GRID*               8539               01.0127358273E+027.4002101913E+01+
*       5.2388408451E+02               0
GRID*               8540               01.0211696978E+027.4257595525E+01+
*       5.2543038306E+02               0
GRID*               8541               01.0289402653E+027.4672191339E+01+
*       5.2491423073E+02               0
GRID*               8542               01.0357501375E+027.5229842358E+01+
*       5.2233627900E+02               0
GRID*               8543               01.0413526869E+027.5910739995E+01+
*       5.2285119324E+02               0
GRID*               8544               01.0127369104E+027.4002123374E+01+
*       5.2182222702E+02               0
GRID*               8545               01.0127369082E+027.4002123350E+01+
*       5.2285315486E+02               0
GRID*               8546               01.0211687010E+027.4257554187E+01+
*       5.2130657121E+02               0
GRID*               8547               01.0289411163E+027.4672248126E+01+
*       5.2182140801E+02               0
GRID*               8548               01.0289417444E+027.4672290008E+01+
*       5.2285237390E+02               0
GRID*               8549               01.0211690589E+027.4257569049E+01+
*       5.2336846288E+02               0
GRID*               8550               01.0289408109E+027.4672227739E+01+
*       5.2388328312E+02               0
GRID*               8551               01.0357501636E+027.5229844969E+01+
*       5.2439815397E+02               0
GRID*               8552               01.0413539041E+027.5910921621E+01+
*       5.2388219377E+02               0
GRID*               8553               01.0413535075E+027.5910862476E+01+
*       5.2491310254E+02               0
GRID*               8554               01.0455210833E+027.6687571352E+01+
*       5.2336616863E+02               0
GRID*               8555               01.0480914319E+027.7530602545E+01+
*       5.2388129880E+02               0
GRID*               8556               01.0455227716E+027.6687759301E+01+
*       5.2542809480E+02               0
GRID*               8557               01.0481270444E+027.9283102225E+01+
*       5.2594275843E+02               0
GRID*               8558               01.0481272143E+027.9283005798E+01+
*       5.2491171053E+02               0
GRID*               8559               01.0489697289E+027.8406475604E+01+
*       5.2645839680E+02               0
GRID*               8560               01.0480917628E+027.7530776079E+01+
*       5.2594326774E+02               0
GRID*               8561               01.0480918502E+027.7530815088E+01+
*       5.2491233271E+02               0
GRID*               8562               01.0489693041E+027.8406186070E+01+
*       5.2439638459E+02               0
GRID*               8563               09.6648007068E+018.0903140073E+01+
*       5.7437203633E+02               0
GRID*               8564               09.6236904349E+018.0131285780E+01+
*       5.7488943348E+02               0
GRID*               8565               09.6647848016E+018.0902897395E+01+
*       5.7334193655E+02               0
GRID*               8566               09.6647660967E+018.0902613767E+01+
*       5.7231186788E+02               0
GRID*               8567               09.6236614891E+018.0130520110E+01+
*       5.7282915094E+02               0
GRID*               8568               09.7215556938E+018.1598300722E+01+
*       5.7385703889E+02               0
GRID*               8569               09.7898791037E+018.2158636087E+01+
*       5.7334124474E+02               0
GRID*               8570               09.6647569776E+018.0902475055E+01+
*       5.7128177517E+02               0
GRID*               8571               09.6647642894E+018.0902583983E+01+
*       5.7025177061E+02               0
GRID*               8572               09.6237750734E+018.0130063464E+01+
*       5.7076898900E+02               0
GRID*               8573               09.8677218407E+018.2574265241E+01+
*       5.7282570916E+02               0
GRID*               8574               09.7898563352E+018.2158483777E+01+
*       5.7231116215E+02               0
GRID*               8575               09.9521703706E+018.2829920121E+01+
*       5.7231040789E+02               0
GRID*               8576               09.7215279743E+018.1598023573E+01+
*       5.7179691872E+02               0
GRID*               8577               09.7898433737E+018.2158396945E+01+
*       5.7128112943E+02               0
GRID*               8578               01.0040132317E+028.2915914457E+01+
*       5.7179539125E+02               0
GRID*               8579               09.9521625566E+018.2829903892E+01+
*       5.7128035372E+02               0
GRID*               8580               01.0128033245E+028.2828362198E+01+
*       5.7128055467E+02               0
GRID*               8581               01.0212459390E+028.2571139915E+01+
*       5.7076591921E+02               0
GRID*               8582               01.0290191547E+028.2154344820E+01+
*       5.7025151825E+02               0
GRID*               8583               01.0128038694E+028.2828351064E+01+
*       5.7025043355E+02               0
GRID*               8584               09.8676993099E+018.2574171894E+01+
*       5.7076563818E+02               0
GRID*               8585               09.7898457685E+018.2158412669E+01+
*       5.7025110632E+02               0
GRID*               8586               09.9521656662E+018.2829909234E+01+
*       5.7025035432E+02               0
GRID*               8587               01.0040131595E+028.2915914464E+01+
*       5.6973524611E+02               0
GRID*               8588               01.0128046435E+028.2828335343E+01+
*       5.6922033218E+02               0
GRID*               8589               09.9521766902E+018.2829930176E+01+
*       5.6922026562E+02               0
GRID*               8590               09.6647729809E+018.0902714592E+01+
*       5.6922172524E+02               0
GRID*               8591               09.6647859979E+018.0902911048E+01+
*       5.6819173677E+02               0
GRID*               8592               09.6238805965E+018.0130155833E+01+
*       5.6870890952E+02               0
GRID*               8593               09.7215280008E+018.1598023839E+01+
*       5.6973684536E+02               0
GRID*               8594               09.7898573151E+018.2158489511E+01+
*       5.6922111542E+02               0
GRID*               8595               09.6647988523E+018.0903105955E+01+
*       5.6716166596E+02               0
GRID*               8596               09.6648121147E+018.0903307841E+01+
*       5.6613161165E+02               0
GRID*               8597               09.6237757954E+018.0131095913E+01+
*       5.6664879099E+02               0
GRID*               8598               09.8677167818E+018.2574244030E+01+
*       5.6870558718E+02               0
GRID*               8599               09.7898710501E+018.2158580959E+01+
*       5.6819105669E+02               0
GRID*               8600               09.9521931563E+018.2829961811E+01+
*       5.6819022766E+02               0
GRID*               8601               09.7215528873E+018.1598272664E+01+
*       5.6767678542E+02               0
GRID*               8602               09.7898871218E+018.2158687999E+01+
*       5.6716103430E+02               0
GRID*               8603               09.6648410982E+018.0903750943E+01+
*       5.6407130030E+02               0
GRID*               8604               09.6237290970E+018.0131922839E+01+
*       5.6458849367E+02               0
GRID*               8605               09.6648263295E+018.0903524842E+01+
*       5.6510146467E+02               0
GRID*               8606               09.6648570173E+018.0903995060E+01+
*       5.6304109515E+02               0
GRID*               8607               09.6648704981E+018.0904203343E+01+
*       5.6201083277E+02               0
GRID*               8608               09.6237516857E+018.0132452359E+01+
*       5.6252798617E+02               0
GRID*               8609               09.7216130188E+018.1598873720E+01+
*       5.6355630321E+02               0
GRID*               8610               09.7899394823E+018.2159036720E+01+
*       5.6407070106E+02               0
GRID*               8611               09.7899573793E+018.2159155895E+01+
*       5.6304053284E+02               0
GRID*               8612               01.0040193708E+028.2915913834E+01+
*       5.6561488842E+02               0
GRID*               8613               09.9522533384E+018.2830077468E+01+
*       5.6509996383E+02               0
GRID*               8614               09.9522276472E+018.2830027852E+01+
*       5.6613008484E+02               0
GRID*               8615               01.0128092160E+028.2828243132E+01+
*       5.6612999805E+02               0
GRID*               8616               01.0128113980E+028.2828199213E+01+
*       5.6509986301E+02               0
GRID*               8617               09.8677863105E+018.2574531317E+01+
*       5.6458525850E+02               0
GRID*               8618               09.7899181671E+018.2158894713E+01+
*       5.6510083703E+02               0
GRID*               8619               09.9522790252E+018.2830127107E+01+
*       5.6406984395E+02               0
GRID*               8620               09.8677473685E+018.2574370409E+01+
*       5.6664546297E+02               0
GRID*               8621               09.7899015204E+018.2158783857E+01+
*       5.6613094153E+02               0
GRID*               8622               09.9522101739E+018.2829994434E+01+
*       5.6716015942E+02               0
GRID*               8623               09.7215821758E+018.1598565452E+01+
*       5.6561661545E+02               0
GRID*               8624               01.0358407285E+028.1592936628E+01+
*       5.6973734725E+02               0
GRID*               8625               01.0290197353E+028.2154304922E+01+
*       5.6922134988E+02               0
GRID*               8626               01.0415034028E+028.0896973056E+01+
*       5.6922229470E+02               0
GRID*               8627               01.0455983470E+028.0125149376E+01+
*       5.6870948518E+02               0
GRID*               8628               01.0481278318E+027.9279941286E+01+
*       5.6819549968E+02               0
GRID*               8629               01.0415037518E+028.0896921795E+01+
*       5.6819199728E+02               0
GRID*               8630               01.0040155454E+028.2915914233E+01+
*       5.6767508413E+02               0
GRID*               8631               01.0128055587E+028.2828316796E+01+
*       5.6819025183E+02               0
GRID*               8632               01.0128068953E+028.2828289814E+01+
*       5.6716016977E+02               0
GRID*               8633               01.0212471959E+028.2571087628E+01+
*       5.6870567747E+02               0
GRID*               8634               01.0290205065E+028.2154252147E+01+
*       5.6819122070E+02               0
GRID*               8635               01.0212501255E+028.2570965785E+01+
*       5.6664538517E+02               0
GRID*               8636               01.0290221011E+028.2154144084E+01+
*       5.6716098241E+02               0
GRID*               8637               01.0290240890E+028.2154009538E+01+
*       5.6613076356E+02               0
GRID*               8638               01.0358422556E+028.1592783443E+01+
*       5.6767686398E+02               0
GRID*               8639               01.0415045324E+028.0896806462E+01+
*       5.6716168072E+02               0
GRID*               8640               09.6648968584E+018.0904612992E+01+
*       5.5995019075E+02               0
GRID*               8641               09.6237691601E+018.0132876806E+01+
*       5.6046729964E+02               0
GRID*               8642               09.6648849319E+018.0904426622E+01+
*       5.6098053700E+02               0
GRID*               8643               09.6649074880E+018.0904780579E+01+
*       5.5891986675E+02               0
GRID*               8644               09.6649186499E+018.0904956780E+01+
*       5.5788948594E+02               0
GRID*               8645               09.6237825443E+018.0133215506E+01+
*       5.5840649724E+02               0
GRID*               8646               09.7216624335E+018.1599367483E+01+
*       5.5943524108E+02               0
GRID*               8647               09.7900012046E+018.2159447504E+01+
*       5.5994977520E+02               0
GRID*               8648               09.7900090228E+018.2159499381E+01+
*       5.5891947848E+02               0
GRID*               8649               09.6649324485E+018.0905173109E+01+
*       5.5685915871E+02               0
GRID*               8650               09.6649415755E+018.0905320000E+01+
*       5.5582880444E+02               0
GRID*               8651               09.6237920494E+018.0133469291E+01+
*       5.5634568914E+02               0
GRID*               8652               09.8678891281E+018.2574955988E+01+
*       5.5840391857E+02               0
GRID*               8653               09.7900233717E+018.2159594829E+01+
*       5.5788920290E+02               0
GRID*               8654               09.9523702774E+018.2830302441E+01+
*       5.5891873166E+02               0
GRID*               8655               09.9523875329E+018.2830335683E+01+
*       5.5788846780E+02               0
GRID*               8656               09.7216802731E+018.1599545700E+01+
*       5.5737460979E+02               0
GRID*               8657               09.7900349530E+018.2159671804E+01+
*       5.5685889882E+02               0
GRID*               8658               01.0357427164E+027.5229102353E+01+
*       5.6563009728E+02               0
GRID*               8659               01.0289351927E+027.4671852575E+01+
*       5.6511747867E+02               0
GRID*               8660               01.0413484353E+027.5910073388E+01+
*       5.6511227754E+02               0
GRID*               8661               01.0413484358E+027.5910071264E+01+
*       5.6614295803E+02               0
GRID*               8662               01.0489753321E+027.8404279680E+01+
*       5.6768231192E+02               0
GRID*               8663               01.0481270224E+027.9279846965E+01+
*       5.6716509837E+02               0
GRID*               8664               01.0480861169E+027.7528336381E+01+
*       5.6716905533E+02               0
GRID*               8665               01.0455176520E+027.6686904832E+01+
*       5.6665586506E+02               0
GRID*               8666               01.0480862952E+027.7528424855E+01+
*       5.6613855933E+02               0
GRID*               8667               01.0358442701E+028.1592581329E+01+
*       5.6561636050E+02               0
GRID*               8668               01.0415045455E+028.0896807575E+01+
*       5.6613144826E+02               0
GRID*               8669               01.0415049456E+028.0896751271E+01+
*       5.6510118436E+02               0
GRID*               8670               01.0290252739E+028.2153928680E+01+
*       5.6510057114E+02               0
GRID*               8671               01.0455982605E+028.0125171311E+01+
*       5.6664883697E+02               0
GRID*               8672               01.0481264639E+027.9279731975E+01+
*       5.6613471148E+02               0
GRID*               8673               01.0455171953E+027.6686801946E+01+
*       5.6459461759E+02               0
GRID*               8674               01.0480860887E+027.7528315989E+01+
*       5.6407745409E+02               0
GRID*               8675               01.0480863265E+027.7528438092E+01+
*       5.6510804514E+02               0
GRID*               8676               01.0413474855E+027.5909933970E+01+
*       5.6408152559E+02               0
GRID*               8677               01.0489759865E+027.8404119645E+01+
*       5.6356041926E+02               0
GRID*               8678               01.0481265004E+027.9279309534E+01+
*       5.6304332872E+02               0
GRID*               8679               01.0481261046E+027.9279501778E+01+
*       5.6407384338E+02               0
GRID*               8680               01.0480856680E+027.7528101746E+01+
*       5.6304680673E+02               0
GRID*               8681               01.0489757020E+027.8404338302E+01+
*       5.6562144201E+02               0
GRID*               8682               01.0481260373E+027.9279672722E+01+
*       5.6510431297E+02               0
GRID*               8683               01.0455987098E+028.0125074425E+01+
*       5.6458814298E+02               0
GRID*               8684               01.0415056877E+028.0896644284E+01+
*       5.6407083656E+02               0
GRID*               8685               01.0212532294E+028.2570836670E+01+
*       5.6458503050E+02               0
GRID*               8686               01.0128124871E+028.2828177164E+01+
*       5.6406971894E+02               0
GRID*               8687               01.0290262475E+028.2153861950E+01+
*       5.6407038236E+02               0
GRID*               8688               01.0455996480E+028.0124865732E+01+
*       5.6252733896E+02               0
GRID*               8689               01.0481268847E+027.9279279008E+01+
*       5.6201289585E+02               0
GRID*               8690               01.0415063528E+028.0896555958E+01+
*       5.6201019663E+02               0
GRID*               8691               01.0415059300E+028.0896613339E+01+
*       5.6304054376E+02               0
GRID*               8692               01.0358458338E+028.1592424425E+01+
*       5.6355587165E+02               0
GRID*               8693               01.0290273154E+028.2153788980E+01+
*       5.6304015411E+02               0
GRID*               8694               01.0040297787E+028.2915912584E+01+
*       5.5943370792E+02               0
GRID*               8695               01.0128187162E+028.2828051404E+01+
*       5.5994881056E+02               0
GRID*               8696               01.0128205003E+028.2828015401E+01+
*       5.5891854462E+02               0
GRID*               8697               09.9523493539E+018.2830261984E+01+
*       5.5994898516E+02               0
GRID*               8698               01.0358477694E+028.1592230190E+01+
*       5.6149527151E+02               0
GRID*               8699               01.0290300056E+028.2153606075E+01+
*       5.6097959601E+02               0
GRID*               8700               01.0290284165E+028.2153713851E+01+
*       5.6200990450E+02               0
GRID*               8701               01.0415068789E+028.0896483752E+01+
*       5.6097983034E+02               0
GRID*               8702               01.0212584928E+028.2570617647E+01+
*       5.6046411822E+02               0
GRID*               8703               01.0128165251E+028.2828095550E+01+
*       5.6097909194E+02               0
GRID*               8704               01.0290319010E+028.2153477826E+01+
*       5.5994927573E+02               0
GRID*               8705               01.0040226876E+028.2915913462E+01+
*       5.6355460301E+02               0
GRID*               8706               09.9522911152E+018.2830149865E+01+
*       5.6303968667E+02               0
GRID*               8707               01.0128133295E+028.2828160047E+01+
*       5.6303954784E+02               0
GRID*               8708               01.0212553369E+028.2570748973E+01+
*       5.6252464184E+02               0
GRID*               8709               01.0128145757E+028.2828134843E+01+
*       5.6200934009E+02               0
GRID*               8710               09.7216420326E+018.1599163651E+01+
*       5.6149583489E+02               0
GRID*               8711               09.7899678267E+018.2159225336E+01+
*       5.6201030745E+02               0
GRID*               8712               09.7899823570E+018.2159322020E+01+
*       5.6098004355E+02               0
GRID*               8713               09.8678209003E+018.2574674208E+01+
*       5.6252491886E+02               0
GRID*               8714               09.9523039140E+018.2830174089E+01+
*       5.6200947558E+02               0
GRID*               8715               09.8678528147E+018.2574806021E+01+
*       5.6046444470E+02               0
GRID*               8716               09.9523267545E+018.2830218253E+01+
*       5.6097924061E+02               0
GRID*               8717               01.0040257584E+028.2915913096E+01+
*       5.6149420349E+02               0
GRID*               8718               09.6240717236E+017.6691341395E+01+
*       5.5428860742E+02               0
GRID*               8719               09.6657167108E+017.5913469032E+01+
*       5.5377441925E+02               0
GRID*               8720               09.6657113443E+017.5913548759E+01+
*       5.5480500286E+02               0
GRID*               8721               09.5983436892E+017.7535605737E+01+
*       5.5480255342E+02               0
GRID*               8722               09.5983501493E+017.7535490954E+01+
*       5.5377207478E+02               0
GRID*               8723               09.7217628184E+017.5231470420E+01+
*       5.5326028816E+02               0
GRID*               8724               09.7898894741E+017.4673093505E+01+
*       5.5274615107E+02               0
GRID*               8725               09.7898753138E+017.4673188019E+01+
*       5.5377683490E+02               0
GRID*               8726               09.6657260316E+017.5913330237E+01+
*       5.5274383816E+02               0
GRID*               8727               09.9520212953E+017.4002195957E+01+
*       5.5171794852E+02               0
GRID*               8728               09.9520204195E+017.4002197714E+01+
*       5.5068708124E+02               0
GRID*               8729               09.8676949822E+017.4257741073E+01+
*       5.5223205118E+02               0
GRID*               8730               09.7898925229E+017.4673073161E+01+
*       5.5171545024E+02               0
GRID*               8731               09.9520163930E+017.4002205678E+01+
*       5.5274876403E+02               0
GRID*               8732               09.9520115075E+017.4002215349E+01+
*       5.5481047700E+02               0
GRID*               8733               09.9520125422E+017.4002213278E+01+
*       5.5584133373E+02               0
GRID*               8734               09.9520173448E+017.4002203770E+01+
*       5.5377962624E+02               0
GRID*               8735               09.8676858790E+017.4257778749E+01+
*       5.5429359406E+02               0
GRID*               8736               09.7898715683E+017.4673213016E+01+
*       5.5480756141E+02               0
GRID*               8737               09.7217646768E+017.5231451865E+01+
*       5.5532159807E+02               0
GRID*               8738               09.6657219848E+017.5913389339E+01+
*       5.5583562876E+02               0
GRID*               8739               09.7898871035E+017.4673109312E+01+
*       5.5583829868E+02               0
GRID*               8740               09.9520308457E+017.4002176906E+01+
*       5.5687222176E+02               0
GRID*               8741               09.9520319703E+017.4002174656E+01+
*       5.5790307260E+02               0
GRID*               8742               09.8676986437E+017.4257725940E+01+
*       5.5635519913E+02               0
GRID*               8743               09.7899039070E+017.4672997151E+01+
*       5.5686905208E+02               0
GRID*               8744               09.9520175767E+017.4002202991E+01+
*       5.7645776546E+02               0
GRID*               8745               09.9520154854E+017.4002207157E+01+
*       5.7542699894E+02               0
GRID*               8746               09.9519790493E+017.4002279528E+01+
*       5.7748860699E+02               0
GRID*               8747               09.9519810861E+017.4002275469E+01+
*       5.7851934870E+02               0
GRID*               8748               09.8676371306E+017.4257980668E+01+
*       5.7696959272E+02               0
GRID*               8749               09.7898139800E+017.4673597369E+01+
*       5.7748152103E+02               0
GRID*               8750               09.7898451144E+017.4673389491E+01+
*       5.7645098990E+02               0
GRID*               8751               09.7217749395E+017.5231349401E+01+
*       5.7593270179E+02               0
GRID*               8752               09.7899315340E+017.4672812670E+01+
*       5.7542035062E+02               0
GRID*               8753               09.6657092635E+017.5913570822E+01+
*       5.7644511340E+02               0
GRID*               8754               09.6657672084E+017.5912705670E+01+
*       5.7541471591E+02               0
GRID*               8755               09.9520576729E+017.4002123386E+01+
*       5.7439617670E+02               0
GRID*               8756               09.9520556223E+017.4002127471E+01+
*       5.7336539360E+02               0
GRID*               8757               09.8677120026E+017.4257670824E+01+
*       5.7490823119E+02               0
GRID*               8758               09.7899651719E+017.4672588230E+01+
*       5.7438980576E+02               0
GRID*               8759               09.6240272455E+017.6692367188E+01+
*       5.7695782438E+02               0
GRID*               8760               09.5983729010E+017.7534912870E+01+
*       5.7644011202E+02               0
GRID*               8761               09.6656352753E+017.5914676257E+01+
*       5.7747564704E+02               0
GRID*               8762               09.7216195367E+017.5232901652E+01+
*       5.7799373782E+02               0
GRID*               8763               09.7897175926E+017.4674241179E+01+
*       5.7851217887E+02               0
GRID*               8764               09.9518758657E+017.4002484693E+01+
*       5.7955020107E+02               0
GRID*               8765               09.8675019668E+017.4258540392E+01+
*       5.7903094292E+02               0
GRID*               8766               09.5984268968E+017.9287824101E+01+
*       5.5892238239E+02               0
GRID*               8767               09.5984168124E+017.9288086072E+01+
*       5.5789195090E+02               0
GRID*               8768               09.5984349996E+017.9287543553E+01+
*       5.5995283096E+02               0
GRID*               8769               09.5984417564E+017.9287276075E+01+
*       5.6098323570E+02               0
GRID*               8770               09.5898245283E+017.8412549051E+01+
*       5.5943893632E+02               0
GRID*               8771               09.5983358637E+017.7535431706E+01+
*       5.5892464960E+02               0
GRID*               8772               09.5983375093E+017.7535270509E+01+
*       5.5995519520E+02               0
GRID*               8773               09.7217785324E+017.5231313533E+01+
*       5.5738299852E+02               0
GRID*               8774               09.6657197952E+017.5913421148E+01+
*       5.5789691572E+02               0
GRID*               8775               09.6657196270E+017.5913424111E+01+
*       5.5686625269E+02               0
GRID*               8776               09.7899037675E+017.4672998077E+01+
*       5.5789983569E+02               0
GRID*               8777               09.6240699532E+017.6691374610E+01+
*       5.5841092220E+02               0
GRID*               8778               09.5983336331E+017.7535643463E+01+
*       5.5789407312E+02               0
GRID*               8779               09.6657317452E+017.5913242179E+01+
*       5.5892760432E+02               0
GRID*               8780               09.6240649514E+017.6691500030E+01+
*       5.5634971649E+02               0
GRID*               8781               09.5983924596E+017.9288601489E+01+
*       5.5583112029E+02               0
GRID*               8782               09.5984058477E+017.9288369403E+01+
*       5.5686151837E+02               0
GRID*               8783               09.5898778733E+017.8413345894E+01+
*       5.5531696327E+02               0
GRID*               8784               09.5983375645E+017.7535727863E+01+
*       5.5583303457E+02               0
GRID*               8785               09.5983738864E+017.9288659882E+01+
*       5.5480072276E+02               0
GRID*               8786               09.5983334229E+017.7535779049E+01+
*       5.5686355015E+02               0
GRID*               8787               09.5898579826E+017.8413130148E+01+
*       5.5737792044E+02               0
GRID*               8788               09.5984159028E+017.9284860904E+01+
*       5.7231522379E+02               0
GRID*               8789               09.5984144032E+017.9285158267E+01+
*       5.7334539789E+02               0
GRID*               8790               09.5984200813E+017.9284779876E+01+
*       5.7128513000E+02               0
GRID*               8791               09.5984274873E+017.9284940254E+01+
*       5.7025502509E+02               0
GRID*               8792               09.5897147467E+017.8409460763E+01+
*       5.7180219913E+02               0
GRID*               8793               09.5983884130E+017.7533201787E+01+
*       5.7128869001E+02               0
GRID*               8794               09.5983907886E+017.7533232754E+01+
*       5.7231892199E+02               0
GRID*               8795               09.6241182411E+017.6690179632E+01+
*       5.7283641019E+02               0
GRID*               8796               09.5983885574E+017.7533517580E+01+
*       5.7334914928E+02               0
GRID*               8797               09.6658080238E+017.5912097463E+01+
*       5.7232353037E+02               0
GRID*               8798               09.6657884793E+017.5912388846E+01+
*       5.7335392047E+02               0
GRID*               8799               09.7218515054E+017.5230585176E+01+
*       5.7387172295E+02               0
GRID*               8800               09.7899697816E+017.4672557482E+01+
*       5.7335922465E+02               0
GRID*               8801               09.6657858317E+017.5912427976E+01+
*       5.7438427701E+02               0
GRID*               8802               09.6240913521E+017.6690824307E+01+
*       5.7489704873E+02               0
GRID*               8803               09.5984211990E+017.9286504297E+01+
*       5.7540581999E+02               0
GRID*               8804               09.5984181381E+017.9285813511E+01+
*       5.7437557537E+02               0
GRID*               8805               09.5896831801E+017.8411471446E+01+
*       5.7592308120E+02               0
GRID*               8806               09.5983796145E+017.7534359107E+01+
*       5.7540973793E+02               0
GRID*               8807               09.5983810745E+017.7534091035E+01+
*       5.7437946891E+02               0
GRID*               8808               09.5896970946E+017.8410198152E+01+
*       5.7386257261E+02               0
GRID*               8809               09.8677082280E+017.4257686296E+01+
*       5.5841682011E+02               0
GRID*               8810               09.7898973755E+017.4673040733E+01+
*       5.5893056771E+02               0
GRID*               8811               09.9520227459E+017.4002192961E+01+
*       5.5893395030E+02               0
GRID*               8812               09.9520239693E+017.4002190516E+01+
*       5.5996479480E+02               0
GRID*               8813               09.6240775111E+017.6691187482E+01+
*       5.6047209757E+02               0
GRID*               8814               09.6657273140E+017.5913307926E+01+
*       5.5995819330E+02               0
GRID*               8815               09.6657287376E+017.5913286213E+01+
*       5.6098879570E+02               0
GRID*               8816               09.5983370731E+017.7535234746E+01+
*       5.6098568019E+02               0
GRID*               8817               09.7217732128E+017.5231366641E+01+
*       5.5944437121E+02               0
GRID*               8818               09.7898903044E+017.4673087923E+01+
*       5.5996128717E+02               0
GRID*               8819               09.8676972996E+017.4257731526E+01+
*       5.6047839599E+02               0
GRID*               8820               09.7898888991E+017.4673097297E+01+
*       5.6099198440E+02               0
GRID*               8821               09.9520204792E+017.4002197433E+01+
*       5.6099564967E+02               0
GRID*               8822               09.9520218099E+017.4002194774E+01+
*       5.6202648737E+02               0
GRID*               8823               09.7217850433E+017.5231248533E+01+
*       5.6150573156E+02               0
GRID*               8824               09.6657424697E+017.5913080644E+01+
*       5.6201943644E+02               0
GRID*               8825               09.7899088123E+017.4672964384E+01+
*       5.6202276645E+02               0
GRID*               8826               09.9520418695E+017.4002154920E+01+
*       5.6305740186E+02               0
GRID*               8827               09.9520433161E+017.4002152032E+01+
*       5.6408823233E+02               0
GRID*               8828               09.8677140576E+017.4257662206E+01+
*       5.6253999581E+02               0
GRID*               8829               09.7899274970E+017.4672839684E+01+
*       5.6305351041E+02               0
GRID*               8830               09.5984520089E+017.9286234136E+01+
*       5.6510444022E+02               0
GRID*               8831               09.5984529369E+017.9286534899E+01+
*       5.6407419998E+02               0
GRID*               8832               09.5984497244E+017.9285948656E+01+
*       5.6613463750E+02               0
GRID*               8833               09.5984461375E+017.9285679519E+01+
*       5.6716477642E+02               0
GRID*               8834               09.5897259102E+017.8410684427E+01+
*       5.6562124844E+02               0
GRID*               8835               09.5983507324E+017.7534547168E+01+
*       5.6510733184E+02               0
GRID*               8836               09.5983568472E+017.7534289377E+01+
*       5.6613764634E+02               0
GRID*               8837               09.5984490019E+017.9287107455E+01+
*       5.6201356835E+02               0
GRID*               8838               09.5984518504E+017.9286821723E+01+
*       5.6304389779E+02               0
GRID*               8839               09.5897826807E+017.8411978571E+01+
*       5.6149985704E+02               0
GRID*               8840               09.5983379717E+017.7535156374E+01+
*       5.6201611670E+02               0
GRID*               8841               09.7218072705E+017.5231026653E+01+
*       5.6356701761E+02               0
GRID*               8842               09.6657478201E+017.5912999844E+01+
*       5.6408044657E+02               0
GRID*               8843               09.6657440025E+017.5913057305E+01+
*       5.6304994265E+02               0
GRID*               8844               09.7899325324E+017.4672806075E+01+
*       5.6408416710E+02               0
GRID*               8845               09.6240892561E+017.6690894603E+01+
*       5.6459400183E+02               0
GRID*               8846               09.5983435249E+017.7534878710E+01+
*       5.6407691228E+02               0
GRID*               8847               09.6657650238E+017.5912742470E+01+
*       5.6511099636E+02               0
GRID*               8848               09.6240779607E+017.6691171699E+01+
*       5.6253308115E+02               0
GRID*               8849               09.5983387151E+017.7535108687E+01+
*       5.6304649978E+02               0
GRID*               8850               09.5897424961E+017.8411350863E+01+
*       5.6356062882E+02               0
GRID*               8851               09.8677278445E+017.4257605188E+01+
*       5.6460149931E+02               0
GRID*               8852               09.7899286748E+017.4672831811E+01+
*       5.6511475512E+02               0
GRID*               8853               09.9520365749E+017.4002165405E+01+
*       5.6511900449E+02               0
GRID*               8854               09.9520381462E+017.4002162269E+01+
*       5.6614982724E+02               0
GRID*               8855               09.6241024516E+017.6690571975E+01+
*       5.6665476216E+02               0
GRID*               8856               09.6657630439E+017.5912771604E+01+
*       5.6614136927E+02               0
GRID*               8857               09.6657672047E+017.5912709034E+01+
*       5.6717172587E+02               0
GRID*               8858               09.5983604470E+017.7534178257E+01+
*       5.6716786524E+02               0
GRID*               8859               09.7218094827E+017.5231004572E+01+
*       5.6562804728E+02               0
GRID*               8860               09.7899249624E+017.4672856579E+01+
*       5.6614529310E+02               0
GRID*               8861               09.8677205422E+017.4257635414E+01+
*       5.6666284416E+02               0
GRID*               8862               09.7899249249E+017.4672856823E+01+
*       5.6717586468E+02               0
GRID*               8863               09.9520357216E+017.4002167070E+01+
*       5.6718059769E+02               0
GRID*               8864               09.9520374236E+017.4002163676E+01+
*       5.6821141218E+02               0
GRID*               8865               09.7218253724E+017.5230845976E+01+
*       5.6768900409E+02               0
GRID*               8866               09.6657818618E+017.5912489738E+01+
*       5.6820214455E+02               0
GRID*               8867               09.7899459068E+017.4672716807E+01+
*       5.6820646182E+02               0
GRID*               8868               09.9520554822E+017.4002127803E+01+
*       5.6924222224E+02               0
GRID*               8869               09.9520573153E+017.4002124149E+01+
*       5.7027302778E+02               0
GRID*               8870               09.8677367668E+017.4257568318E+01+
*       5.6872421113E+02               0
GRID*               8871               09.7899633755E+017.4672600246E+01+
*       5.6923705699E+02               0
GRID*               8872               09.7218486416E+017.5230613754E+01+
*       5.7181080563E+02               0
GRID*               8873               09.6658030522E+017.5912172095E+01+
*       5.7129317810E+02               0
GRID*               8874               09.9520471933E+017.4002144221E+01+
*       5.7233459311E+02               0
GRID*               8875               09.9520452376E+017.4002148117E+01+
*       5.7130379773E+02               0
GRID*               8876               09.8677422407E+017.4257545719E+01+
*       5.7284688112E+02               0
GRID*               8877               09.7899603404E+017.4672620477E+01+
*       5.7232867694E+02               0
GRID*               8878               09.7899538288E+017.4672663930E+01+
*       5.7129811667E+02               0
GRID*               8879               09.8677440092E+017.4257538383E+01+
*       5.7078556057E+02               0
GRID*               8880               09.7899617718E+017.4672610940E+01+
*       5.7026757912E+02               0
GRID*               8881               09.7218431464E+017.5230668592E+01+
*       5.6974993091E+02               0
GRID*               8882               09.6657855515E+017.5912433799E+01+
*       5.7026281713E+02               0
GRID*               8883               09.6657860050E+017.5912427449E+01+
*       5.6923248764E+02               0
GRID*               8884               09.6241205608E+017.6690127334E+01+
*       5.7077583947E+02               0
GRID*               8885               09.5983788261E+017.7533558490E+01+
*       5.7025848533E+02               0
GRID*               8886               09.6241068570E+017.6690461442E+01+
*       5.6871530454E+02               0
GRID*               8887               09.5984439959E+017.9285561801E+01+
*       5.6819484972E+02               0
GRID*               8888               09.5984374188E+017.9285300612E+01+
*       5.6922493130E+02               0
GRID*               8889               09.5897271415E+017.8410301194E+01+
*       5.6768162825E+02               0
GRID*               8890               09.5983645371E+017.7534060374E+01+
*       5.6819806333E+02               0
GRID*               8891               09.5983689676E+017.7533942117E+01+
*       5.6922826014E+02               0
GRID*               8892               09.5897275638E+017.8409774509E+01+
*       5.6974190509E+02               0
GRID*               8893               09.8677023701E+017.4257710633E+01+
*       5.2955416846E+02               0
GRID*               8894               09.7899118961E+017.4672943928E+01+
*       5.3006961602E+02               0
GRID*               8895               09.9520201213E+017.4002198671E+01+
*       5.3006974257E+02               0
GRID*               8896               09.9520205013E+017.4002197897E+01+
*       5.3110064328E+02               0
GRID*               8897               09.9520321901E+017.4002174721E+01+
*       5.2903873046E+02               0
GRID*               8898               09.7218010638E+017.5231088610E+01+
*       5.3058519158E+02               0
GRID*               8899               09.6657594625E+017.5912839728E+01+
*       5.3110066269E+02               0
GRID*               8900               09.7899039852E+017.4672996725E+01+
*       5.3110068584E+02               0
GRID*               8901               09.9520317506E+017.4002175536E+01+
*       5.3213171450E+02               0
GRID*               8902               09.9520321640E+017.4002174696E+01+
*       5.3316261295E+02               0
GRID*               8903               09.8677042937E+017.4257702642E+01+
*       5.3161620089E+02               0
GRID*               8904               09.7899140223E+017.4672929736E+01+
*       5.3213170564E+02               0
GRID*               8905               09.5897306249E+017.8412099460E+01+
*       5.3264694646E+02               0
GRID*               8906               09.5984328330E+017.7534458466E+01+
*       5.3213150254E+02               0
GRID*               8907               09.5984323967E+017.7534480518E+01+
*       5.3316246795E+02               0
GRID*               8908               09.5981323580E+017.9288284803E+01+
*       5.3316201250E+02               0
GRID*               8909               09.6241092619E+017.6690479310E+01+
*       5.3161609731E+02               0
GRID*               8910               09.6657501102E+017.5912979040E+01+
*       5.3213163989E+02               0
GRID*               8911               09.6241403388E+017.6690622823E+01+
*       5.3367812462E+02               0
GRID*               8912               09.6657444415E+017.5913063332E+01+
*       5.3316254606E+02               0
GRID*               8913               09.6657529933E+017.5912935220E+01+
*       5.3419363590E+02               0
GRID*               8914               09.5984357848E+017.7534311113E+01+
*       5.3419351768E+02               0
GRID*               8915               09.7217874276E+017.5231224731E+01+
*       5.3264716765E+02               0
GRID*               8916               09.7899055961E+017.4672985971E+01+
*       5.3316265793E+02               0
GRID*               8917               09.8677055608E+017.4257697372E+01+
*       5.3367811775E+02               0
GRID*               8918               09.7898955788E+017.4673052828E+01+
*       5.3419350304E+02               0
GRID*               8919               09.9520196817E+017.4002199468E+01+
*       5.3419351374E+02               0
GRID*               8920               09.9520201316E+017.4002198555E+01+
*       5.3522440974E+02               0
GRID*               8921               09.7217952690E+017.5231146454E+01+
*       5.3470913222E+02               0
GRID*               8922               09.6657645909E+017.5912761627E+01+
*       5.3522464807E+02               0
GRID*               8923               09.7899128637E+017.4672937464E+01+
*       5.3522456521E+02               0
GRID*               8924               09.9520352304E+017.4002168550E+01+
*       5.3625541890E+02               0
GRID*               8925               09.9520357196E+017.4002167560E+01+
*       5.3728631224E+02               0
GRID*               8926               09.8677102101E+017.4257678113E+01+
*       5.3573996790E+02               0
GRID*               8927               09.7899262410E+017.4672848188E+01+
*       5.3625551401E+02               0
GRID*               8928               09.6241991786E+017.6690803781E+01+
*       5.3573991309E+02               0
GRID*               8929               09.5984323548E+017.7534483108E+01+
*       5.3625501072E+02               0
GRID*               8930               09.5984343156E+017.7534384813E+01+
*       5.3522430873E+02               0
GRID*               8931               09.6657578782E+017.5912861480E+01+
*       5.3625539345E+02               0
GRID*               8932               09.5897305032E+017.8412091000E+01+
*       5.3677026543E+02               0
GRID*               8933               09.5981591857E+017.9288316501E+01+
*       5.3728524062E+02               0
GRID*               8934               09.5981521932E+017.9288404268E+01+
*       5.3625442543E+02               0
GRID*               8935               09.5984346273E+017.7534369462E+01+
*       5.3728585194E+02               0
GRID*               8936               09.7215428905E+018.1598172717E+01+
*       5.3470773509E+02               0
GRID*               8937               09.6650077629E+018.0906620171E+01+
*       5.3419189511E+02               0
GRID*               8938               09.6649995976E+018.0906480403E+01+
*       5.3522262859E+02               0
GRID*               8939               09.7898412713E+018.2158372953E+01+
*       5.3522287205E+02               0
GRID*               8940               09.6237419717E+018.0132918286E+01+
*       5.3367733557E+02               0
GRID*               8941               09.5981374631E+017.9288337896E+01+
*       5.3419277566E+02               0
GRID*               8942               09.6237555852E+018.0132821971E+01+
*       5.3573894513E+02               0
GRID*               8943               09.5981451514E+017.9288424524E+01+
*       5.3522354011E+02               0
GRID*               8944               09.6649896077E+018.0906313433E+01+
*       5.3625346321E+02               0
GRID*               8945               09.5897306329E+017.8412170731E+01+
*       5.3470866937E+02               0
GRID*               8946               09.6241821803E+017.6690755159E+01+
*       5.3780140458E+02               0
GRID*               8947               09.6657476565E+017.5913013742E+01+
*       5.3728604026E+02               0
GRID*               8948               09.6657533933E+017.5912927651E+01+
*       5.3831683258E+02               0
GRID*               8949               09.5984370419E+017.7534248702E+01+
*       5.3831659725E+02               0
GRID*               8950               09.7217973386E+017.5231125795E+01+
*       5.3677084130E+02               0
GRID*               8951               09.7899110010E+017.4672949891E+01+
*       5.3728621494E+02               0
GRID*               8952               09.8677120080E+017.4257670656E+01+
*       5.3780168837E+02               0
GRID*               8953               09.7898987037E+017.4673031962E+01+
*       5.3831692570E+02               0
GRID*               8954               09.9520204419E+017.4002197883E+01+
*       5.3831708834E+02               0
GRID*               8955               09.9520209739E+017.4002196808E+01+
*       5.3934797880E+02               0
GRID*               8956               09.7217958636E+017.5231140518E+01+
*       5.3883232161E+02               0
GRID*               8957               09.6657621961E+017.5912795770E+01+
*       5.3934761183E+02               0
GRID*               8958               09.7899117900E+017.4672944619E+01+
*       5.3934776362E+02               0
GRID*               8959               09.9520352267E+017.4002168483E+01+
*       5.4037888276E+02               0
GRID*               8960               09.9520358048E+017.4002167317E+01+
*       5.4140977009E+02               0
GRID*               8961               09.8677128135E+017.4257667309E+01+
*       5.3986329819E+02               0
GRID*               8962               09.7899245472E+017.4672859480E+01+
*       5.4037859672E+02               0
GRID*               8963               01.0040098311E+028.2915914772E+01+
*       5.3882949996E+02               0
GRID*               8964               09.9521844866E+018.2829924297E+01+
*       5.3831431841E+02               0
GRID*               8965               09.9522049268E+018.2829965022E+01+
*       5.3934488130E+02               0
GRID*               8966               01.0127990925E+028.2828439033E+01+
*       5.3934474021E+02               0
GRID*               8967               01.0127969205E+028.2828482202E+01+
*       5.3831417168E+02               0
GRID*               8968               01.0212382815E+028.2571457481E+01+
*       5.3779887623E+02               0
GRID*               8969               01.0290144533E+028.2154634082E+01+
*       5.3831422201E+02               0
GRID*               8970               01.0127954676E+028.2828510995E+01+
*       5.3728356691E+02               0
GRID*               8971               09.8676833025E+018.2574104959E+01+
*       5.3573794938E+02               0
GRID*               8972               09.9521593665E+018.2829874131E+01+
*       5.3625310417E+02               0
GRID*               8973               09.7898458314E+018.2158403670E+01+
*       5.3625348880E+02               0
GRID*               8974               09.7215519963E+018.1598263757E+01+
*       5.3676909665E+02               0
GRID*               8975               09.6649858152E+018.0906239529E+01+
*       5.3728407314E+02               0
GRID*               8976               09.7898548362E+018.2158464075E+01+
*       5.3728410083E+02               0
GRID*               8977               01.0040066520E+028.2915915037E+01+
*       5.3676832773E+02               0
GRID*               8978               09.9521689451E+018.2829893295E+01+
*       5.3728371043E+02               0
GRID*               8979               09.8677029484E+018.2574186211E+01+
*       5.3779917206E+02               0
GRID*               8980               09.7898680473E+018.2158552571E+01+
*       5.3831471405E+02               0
GRID*               8981               09.7215987093E+018.1598730708E+01+
*       5.4089098879E+02               0
GRID*               8982               09.6649831959E+018.0906150282E+01+
*       5.4037535810E+02               0
GRID*               8983               09.6649884053E+018.0906212148E+01+
*       5.4140575074E+02               0
GRID*               8984               09.7899231948E+018.2158921612E+01+
*       5.4140597582E+02               0
GRID*               8985               09.7899013466E+018.2158775470E+01+
*       5.4037558425E+02               0
GRID*               8986               09.8677399557E+018.2574339251E+01+
*       5.3986021759E+02               0
GRID*               8987               09.9522286795E+018.2830012325E+01+
*       5.4037531582E+02               0
GRID*               8988               09.7898811429E+018.2158640292E+01+
*       5.3934514408E+02               0
GRID*               8989               09.5897302009E+017.8412044958E+01+
*       5.3883155055E+02               0
GRID*               8990               09.5981876883E+017.9288628098E+01+
*       5.3934616465E+02               0
GRID*               8991               09.5981727840E+017.9288467024E+01+
*       5.3831570706E+02               0
GRID*               8992               09.5984346260E+017.7534369671E+01+
*       5.3934708021E+02               0
GRID*               8993               09.6237646635E+018.0133025843E+01+
*       5.3986116154E+02               0
GRID*               8994               09.6649840279E+018.0906179201E+01+
*       5.3934491267E+02               0
GRID*               8995               09.5982032075E+017.9288783400E+01+
*       5.4037667052E+02               0
GRID*               8996               09.6237568592E+018.0132847705E+01+
*       5.3780024724E+02               0
GRID*               8997               09.6649848978E+018.0906208908E+01+
*       5.3831448324E+02               0
GRID*               8998               09.7215699184E+018.1598442926E+01+
*       5.3883015239E+02               0
GRID*               8999               09.6237755541E+018.0133273087E+01+
*       5.4192198555E+02               0
GRID*               9000               09.5982215558E+017.9289046314E+01+
*       5.4140699829E+02               0
GRID*               9001               09.5982389230E+017.9289270695E+01+
*       5.4243737979E+02               0
GRID*               9002               09.6649917452E+018.0906246248E+01+
*       5.4243606920E+02               0
GRID*               9003               09.6241110812E+017.6690626767E+01+
*       5.3986260353E+02               0
GRID*               9004               09.5984306394E+017.7534568692E+01+
*       5.4037748317E+02               0
GRID*               9005               09.6657496853E+017.5912982200E+01+
*       5.4037806569E+02               0
GRID*               9006               09.5897296722E+017.8412317840E+01+
*       5.4089234596E+02               0
GRID*               9007               09.5984248349E+017.7534795009E+01+
*       5.4140783264E+02               0
GRID*               9008               09.7217893360E+017.5231205680E+01+
*       5.4089362916E+02               0
GRID*               9009               09.6657354845E+017.5913193889E+01+
*       5.4140853521E+02               0
GRID*               9010               09.7899033346E+017.4673001044E+01+
*       5.4140912974E+02               0
GRID*               9011               09.9520223039E+017.4002194112E+01+
*       5.4244050255E+02               0
GRID*               9012               09.9520229323E+017.4002192846E+01+
*       5.4347138649E+02               0
GRID*               9013               09.8677151180E+017.4257657765E+01+
*       5.4192485849E+02               0
GRID*               9014               09.7898926457E+017.4673072382E+01+
*       5.4243978547E+02               0
GRID*               9015               09.5897289084E+017.8412514439E+01+
*       5.4295308924E+02               0
GRID*               9016               09.5984168011E+017.7535045240E+01+
*       5.4243818334E+02               0
GRID*               9017               09.5984105622E+017.7535151506E+01+
*       5.4346860156E+02               0
GRID*               9018               09.5982529540E+017.9289376756E+01+
*       5.4346778229E+02               0
GRID*               9019               09.6239761082E+017.6690655436E+01+
*       5.4192342036E+02               0
GRID*               9020               09.6657216584E+017.5913400001E+01+
*       5.4243895280E+02               0
GRID*               9021               09.6240774926E+017.6691219544E+01+
*       5.4398430959E+02               0
GRID*               9022               09.6657122936E+017.5913539479E+01+
*       5.4346944596E+02               0
GRID*               9023               09.6657152656E+017.5913494641E+01+
*       5.4449997739E+02               0
GRID*               9024               09.5984063430E+017.7535124866E+01+
*       5.4449905494E+02               0
GRID*               9025               09.7217597553E+017.5231501004E+01+
*       5.4295465549E+02               0
GRID*               9026               09.7898786118E+017.4673166053E+01+
*       5.4347034745E+02               0
GRID*               9027               09.8676899351E+017.4257761954E+01+
*       5.4398623437E+02               0
GRID*               9028               09.7898669179E+017.4673244109E+01+
*       5.4450099021E+02               0
GRID*               9029               09.9520081742E+017.4002222142E+01+
*       5.4450211240E+02               0
GRID*               9030               09.9520088572E+017.4002220768E+01+
*       5.4553299266E+02               0
GRID*               9031               09.7217589962E+017.5231508584E+01+
*       5.4501580070E+02               0
GRID*               9032               09.6657237932E+017.5913366804E+01+
*       5.4553056047E+02               0
GRID*               9033               09.7898795200E+017.4673159982E+01+
*       5.4553164791E+02               0
GRID*               9034               09.9520222132E+017.4002194220E+01+
*       5.4656380273E+02               0
GRID*               9035               09.9520229550E+017.4002192729E+01+
*       5.4759467901E+02               0
GRID*               9036               09.8676899263E+017.4257761987E+01+
*       5.4604768090E+02               0
GRID*               9037               09.7898916969E+017.4673078698E+01+
*       5.4656236781E+02               0
GRID*               9038               01.0211680075E+027.4257525763E+01+
*       5.6460500374E+02               0
GRID*               9039               01.0289363057E+027.4671926787E+01+
*       5.6408669415E+02               0
GRID*               9040               01.0127357746E+027.4002101452E+01+
*       5.6409000376E+02               0
GRID*               9041               01.0127357753E+027.4002101460E+01+
*       5.6305907592E+02               0
GRID*               9042               01.0357433117E+027.5229161710E+01+
*       5.6356859384E+02               0
GRID*               9043               01.0413478238E+027.5909986574E+01+
*       5.6305088228E+02               0
GRID*               9044               01.0289368110E+027.4671960479E+01+
*       5.6305587347E+02               0
GRID*               9045               01.0127347951E+027.4002081999E+01+
*       5.6202809628E+02               0
GRID*               9046               01.0127347960E+027.4002082009E+01+
*       5.6099716845E+02               0
GRID*               9047               01.0211682893E+027.4257537433E+01+
*       5.6254313892E+02               0
GRID*               9048               01.0289360959E+027.4671912799E+01+
*       5.6202498717E+02               0
GRID*               9049               01.0489761987E+027.8403941280E+01+
*       5.6149937426E+02               0
GRID*               9050               01.0480859917E+027.7528254931E+01+
*       5.6201633506E+02               0
GRID*               9051               01.0480861192E+027.7528309763E+01+
*       5.6098580955E+02               0
GRID*               9052               01.0481271816E+027.9279458942E+01+
*       5.6098252456E+02               0
GRID*               9053               01.0455169488E+027.6686749899E+01+
*       5.6253340754E+02               0
GRID*               9054               01.0413484263E+027.5910078467E+01+
*       5.6202026254E+02               0
GRID*               9055               01.0455166773E+027.6686691977E+01+
*       5.6047215902E+02               0
GRID*               9056               01.0413488221E+027.5910139420E+01+
*       5.6098960937E+02               0
GRID*               9057               01.0413478694E+027.5909999106E+01+
*       5.5995883157E+02               0
GRID*               9058               01.0480858925E+027.7528188125E+01+
*       5.5995516815E+02               0
GRID*               9059               01.0357443977E+027.5229269980E+01+
*       5.6150713239E+02               0
GRID*               9060               01.0289366808E+027.4671951799E+01+
*       5.6099417061E+02               0
GRID*               9061               01.0211682824E+027.4257537165E+01+
*       5.6048126725E+02               0
GRID*               9062               01.0289375238E+027.4672008015E+01+
*       5.5996336425E+02               0
GRID*               9063               01.0127356677E+027.4002099300E+01+
*       5.5996627636E+02               0
GRID*               9064               01.0127356688E+027.4002099312E+01+
*       5.5893534853E+02               0
GRID*               9065               01.0357437367E+027.5229204075E+01+
*       5.5944553290E+02               0
GRID*               9066               01.0413468524E+027.5909849109E+01+
*       5.5892803735E+02               0
GRID*               9067               01.0289359892E+027.4671905689E+01+
*       5.5893241938E+02               0
GRID*               9068               01.0127343717E+027.4002073560E+01+
*       5.5790435594E+02               0
GRID*               9069               01.0127343729E+027.4002073573E+01+
*       5.5687342811E+02               0
GRID*               9070               01.0211679667E+027.4257524131E+01+
*       5.5841938262E+02               0
GRID*               9071               01.0289349879E+027.4671838932E+01+
*       5.5790150636E+02               0
GRID*               9072               01.0455162737E+027.6686602355E+01+
*       5.5841086648E+02               0
GRID*               9073               01.0480863622E+027.7528399817E+01+
*       5.5789412311E+02               0
GRID*               9074               01.0480860911E+027.7528276371E+01+
*       5.5892464943E+02               0
GRID*               9075               01.0413472900E+027.5909915974E+01+
*       5.5789738519E+02               0
GRID*               9076               01.0489763698E+027.8404036470E+01+
*       5.5737739559E+02               0
GRID*               9077               01.0481305002E+027.9280314178E+01+
*       5.5686096252E+02               0
GRID*               9078               01.0481293261E+027.9280194099E+01+
*       5.5789143062E+02               0
GRID*               9079               01.0480861669E+027.7528291731E+01+
*       5.5686348051E+02               0
GRID*               9080               01.0358491297E+028.1592093669E+01+
*       5.5943463319E+02               0
GRID*               9081               01.0415059524E+028.0896631006E+01+
*       5.5994956552E+02               0
GRID*               9082               01.0415055840E+028.0896694883E+01+
*       5.5891924300E+02               0
GRID*               9083               01.0290322519E+028.2153453185E+01+
*       5.5891900463E+02               0
GRID*               9084               01.0455996079E+028.0124898203E+01+
*       5.6046662221E+02               0
GRID*               9085               01.0481275658E+027.9279755696E+01+
*       5.5995221210E+02               0
GRID*               9086               01.0455995835E+028.0124927916E+01+
*       5.5840584067E+02               0
GRID*               9087               01.0481282031E+027.9280059313E+01+
*       5.5892186752E+02               0
GRID*               9088               01.0415058463E+028.0896664411E+01+
*       5.5788882689E+02               0
GRID*               9089               01.0489763387E+027.8404070293E+01+
*       5.5943844797E+02               0
GRID*               9090               01.0455160671E+027.6686559988E+01+
*       5.5634958981E+02               0
GRID*               9091               01.0413480926E+027.5910037189E+01+
*       5.5686676317E+02               0
GRID*               9092               01.0413474462E+027.5909942203E+01+
*       5.5583601179E+02               0
GRID*               9093               01.0480860510E+027.7528222584E+01+
*       5.5583284525E+02               0
GRID*               9094               01.0357435733E+027.5229187783E+01+
*       5.5738397651E+02               0
GRID*               9095               01.0289361676E+027.4671917593E+01+
*       5.5687074527E+02               0
GRID*               9096               01.0211678658E+027.4257519974E+01+
*       5.5635754215E+02               0
GRID*               9097               01.0289371961E+027.4671986181E+01+
*       5.5583997042E+02               0
GRID*               9098               01.0127354842E+027.4002095617E+01+
*       5.5584258017E+02               0
GRID*               9099               01.0127354855E+027.4002095631E+01+
*       5.5481165234E+02               0
GRID*               9100               01.0357437925E+027.5229209643E+01+
*       5.5532246535E+02               0
GRID*               9101               01.0413467425E+027.5909838585E+01+
*       5.5480525211E+02               0
GRID*               9102               01.0289361205E+027.4671914466E+01+
*       5.5480908239E+02               0
GRID*               9103               01.0127343639E+027.4002073360E+01+
*       5.5378069942E+02               0
GRID*               9104               01.0127343654E+027.4002073375E+01+
*       5.5274977158E+02               0
GRID*               9105               01.0211679180E+027.4257522142E+01+
*       5.5429574132E+02               0
GRID*               9106               01.0289352513E+027.4671856520E+01+
*       5.5377819734E+02               0
GRID*               9107               01.0212603085E+028.2570542062E+01+
*       5.5840360070E+02               0
GRID*               9108               01.0128203069E+028.2828019021E+01+
*       5.5788834057E+02               0
GRID*               9109               01.0290321296E+028.2153460331E+01+
*       5.5788876447E+02               0
GRID*               9110               01.0358494415E+028.1592062373E+01+
*       5.5737404288E+02               0
GRID*               9111               01.0415053992E+028.0896741395E+01+
*       5.5685851647E+02               0
GRID*               9112               01.0290324487E+028.2153437944E+01+
*       5.5685849953E+02               0
GRID*               9113               01.0040320796E+028.2915912276E+01+
*       5.5531283988E+02               0
GRID*               9114               01.0128203945E+028.2828016753E+01+
*       5.5582790908E+02               0
GRID*               9115               01.0128215723E+028.2827992893E+01+
*       5.5479769188E+02               0
GRID*               9116               09.9524008753E+018.2830359681E+01+
*       5.5479783887E+02               0
GRID*               9117               09.9523864924E+018.2830331983E+01+
*       5.5582804529E+02               0
GRID*               9118               09.8679057916E+018.2575024768E+01+
*       5.5634342353E+02               0
GRID*               9119               09.7900360045E+018.2159678526E+01+
*       5.5582866312E+02               0
GRID*               9120               09.9523849283E+018.2830329685E+01+
*       5.5685827034E+02               0
GRID*               9121               01.0212606737E+028.2570526822E+01+
*       5.5634314455E+02               0
GRID*               9122               01.0290330233E+028.2153398487E+01+
*       5.5582824383E+02               0
GRID*               9123               01.0128197589E+028.2828029746E+01+
*       5.5685813143E+02               0
GRID*               9124               01.0040312432E+028.2915912389E+01+
*       5.5737325015E+02               0
GRID*               9125               01.0358489476E+028.1592111942E+01+
*       5.5325311314E+02               0
GRID*               9126               01.0415025615E+028.0897201085E+01+
*       5.5376777914E+02               0
GRID*               9127               01.0415020820E+028.0897285142E+01+
*       5.5273755509E+02               0
GRID*               9128               01.0290335343E+028.2153361736E+01+
*       5.5273767134E+02               0
GRID*               9129               01.0290331132E+028.2153390756E+01+
*       5.5376786049E+02               0
GRID*               9130               01.0212617428E+028.2570482297E+01+
*       5.5428273183E+02               0
GRID*               9131               01.0128221179E+028.2827981702E+01+
*       5.5376752898E+02               0
GRID*               9132               01.0290326181E+028.2153424775E+01+
*       5.5479805417E+02               0
GRID*               9133               01.0489762940E+027.8404042482E+01+
*       5.5531640319E+02               0
GRID*               9134               01.0481311145E+027.9280777613E+01+
*       5.5480037392E+02               0
GRID*               9135               01.0481310227E+027.9280647173E+01+
*       5.5583071051E+02               0
GRID*               9136               01.0480863252E+027.7528346322E+01+
*       5.5480239480E+02               0
GRID*               9137               01.0455987368E+028.0125177502E+01+
*       5.5428450103E+02               0
GRID*               9138               01.0415031229E+028.0897105205E+01+
*       5.5479806093E+02               0
GRID*               9139               01.0481311374E+027.9280749212E+01+
*       5.5377000914E+02               0
GRID*               9140               01.0455994055E+028.0124994174E+01+
*       5.5634510190E+02               0
GRID*               9141               01.0415041084E+028.0896946006E+01+
*       5.5582829057E+02               0
GRID*               9142               01.0358491390E+028.1592092731E+01+
*       5.5531353817E+02               0
GRID*               9143               01.0455983550E+028.0125288030E+01+
*       5.5222393959E+02               0
GRID*               9144               01.0481307752E+027.9280940500E+01+
*       5.5273978989E+02               0
GRID*               9145               01.0481306836E+027.9281010530E+01+
*       5.5170952197E+02               0
GRID*               9146               01.0415011318E+028.0897440556E+01+
*       5.5170736528E+02               0
GRID*               9147               01.0455162132E+027.6686602185E+01+
*       5.5428846323E+02               0
GRID*               9148               01.0480867822E+027.7528560346E+01+
*       5.5377200977E+02               0
GRID*               9149               01.0413477069E+027.5909983673E+01+
*       5.5377475985E+02               0
GRID*               9150               01.0489761051E+027.8404388522E+01+
*       5.5325574019E+02               0
GRID*               9151               01.0480872542E+027.7528781805E+01+
*       5.5274170410E+02               0
GRID*               9152               01.0357444046E+027.5229270664E+01+
*       5.5326109440E+02               0
GRID*               9153               01.0413488310E+027.5910152515E+01+
*       5.5274426799E+02               0
GRID*               9154               01.0289369010E+027.4671966525E+01+
*       5.5274758692E+02               0
GRID*               9155               01.0127353286E+027.4002092479E+01+
*       5.5171899124E+02               0
GRID*               9156               01.0127353302E+027.4002092495E+01+
*       5.5068806340E+02               0
GRID*               9157               01.0211678170E+027.4257517977E+01+
*       5.5223400808E+02               0
GRID*               9158               01.0289377887E+027.4672025728E+01+
*       5.5171686899E+02               0
GRID*               9159               01.0489757897E+027.8404664829E+01+
*       5.5119513695E+02               0
GRID*               9160               01.0480877542E+027.7529017071E+01+
*       5.5171138701E+02               0
GRID*               9161               01.0480878783E+027.7529066075E+01+
*       5.5068100321E+02               0
GRID*               9162               01.0481306553E+027.9281060551E+01+
*       5.5067921825E+02               0
GRID*               9163               01.0455175505E+027.6686930316E+01+
*       5.5222766293E+02               0
GRID*               9164               01.0413499252E+027.5910316830E+01+
*       5.5171385185E+02               0
GRID*               9165               01.0455180222E+027.6687049919E+01+
*       5.5016682628E+02               0
GRID*               9166               01.0413506987E+027.5910433248E+01+
*       5.5068335682E+02               0
GRID*               9167               01.0413504002E+027.5910389684E+01+
*       5.4965283665E+02               0
GRID*               9168               01.0480878786E+027.7529053798E+01+
*       5.4965057446E+02               0
GRID*               9169               01.0357468812E+027.5229517611E+01+
*       5.5119999718E+02               0
GRID*               9170               01.0289389104E+027.4672100543E+01+
*       5.5068626455E+02               0
GRID*               9171               01.0211697692E+027.4257598703E+01+
*       5.5017247784E+02               0
GRID*               9172               01.0289398833E+027.4672165439E+01+
*       5.4965557230E+02               0
GRID*               9173               01.0127364030E+027.4002113776E+01+
*       5.4965731349E+02               0
GRID*               9174               01.0127364046E+027.4002113793E+01+
*       5.4862638566E+02               0
GRID*               9175               01.0357470549E+027.5229534933E+01+
*       5.4913881780E+02               0
GRID*               9176               01.0413497221E+027.5910289444E+01+
*       5.4862225414E+02               0
GRID*               9177               01.0289388365E+027.4672095640E+01+
*       5.4862488871E+02               0
GRID*               9178               01.0127352963E+027.4002091779E+01+
*       5.4759556179E+02               0
GRID*               9179               01.0127352979E+027.4002091798E+01+
*       5.4656463395E+02               0
GRID*               9180               01.0211697527E+027.4257598025E+01+
*       5.4811090405E+02               0
GRID*               9181               01.0289379571E+027.4672037004E+01+
*       5.4759411836E+02               0
GRID*               9182               09.5983594884E+017.9288909491E+01+
*       5.5377041167E+02               0
GRID*               9183               09.6237994008E+018.0133676433E+01+
*       5.5428499179E+02               0
GRID*               9184               09.5983467851E+017.9289228405E+01+
*       5.5274009645E+02               0
GRID*               9185               09.6238026263E+018.0133786654E+01+
*       5.5222443144E+02               0
GRID*               9186               09.5983303942E+017.9289372808E+01+
*       5.5170984121E+02               0
GRID*               9187               09.5898798477E+017.8413457983E+01+
*       5.5325613787E+02               0
GRID*               9188               09.5983517322E+017.7535627012E+01+
*       5.5274168475E+02               0
GRID*               9189               09.6240695594E+017.6691397919E+01+
*       5.5222761098E+02               0
GRID*               9190               09.6657154786E+017.5913488345E+01+
*       5.5171333445E+02               0
GRID*               9191               09.5983531620E+017.7535787184E+01+
*       5.5171128106E+02               0
GRID*               9192               09.5983137230E+017.9289445019E+01+
*       5.5067956033E+02               0
GRID*               9193               09.6237998374E+018.0133752251E+01+
*       5.5016396845E+02               0
GRID*               9194               09.5982997122E+017.9289520779E+01+
*       5.4964934583E+02               0
GRID*               9195               09.5898622949E+017.8413465024E+01+
*       5.5119544932E+02               0
GRID*               9196               09.5983608376E+017.7535670821E+01+
*       5.5068093582E+02               0
GRID*               9197               09.7217666862E+017.5231431803E+01+
*       5.5119909022E+02               0
GRID*               9198               09.7898836498E+017.4673132392E+01+
*       5.5068483354E+02               0
GRID*               9199               09.6657093782E+017.5913579938E+01+
*       5.5068281266E+02               0
GRID*               9200               09.6240702810E+017.6691384504E+01+
*       5.5016674621E+02               0
GRID*               9201               09.6657191741E+017.5913434033E+01+
*       5.4965236782E+02               0
GRID*               9202               09.5983708141E+017.7535461735E+01+
*       5.4965058911E+02               0
GRID*               9203               09.5982881197E+017.9289529829E+01+
*       5.4861910911E+02               0
GRID*               9204               09.6237962516E+018.0133697374E+01+
*       5.4810353815E+02               0
GRID*               9205               09.5982828358E+017.9289569464E+01+
*       5.4758887391E+02               0
GRID*               9206               09.5898258326E+017.8413084883E+01+
*       5.4913486562E+02               0
GRID*               9207               09.5983796594E+017.7535315728E+01+
*       5.4862030288E+02               0
GRID*               9208               09.7217547331E+017.5231551149E+01+
*       5.4913797424E+02               0
GRID*               9209               09.6657160477E+017.5913481188E+01+
*       5.4862186138E+02               0
GRID*               9210               09.8676889916E+017.4257765854E+01+
*       5.4810913565E+02               0
GRID*               9211               09.7898677481E+017.4673238549E+01+
*       5.4862355673E+02               0
GRID*               9212               09.7898800413E+017.4673156493E+01+
*       5.4759291276E+02               0
GRID*               9213               09.9520073289E+017.4002223751E+01+
*       5.4862542062E+02               0
GRID*               9214               09.9520081351E+017.4002222132E+01+
*       5.4965629257E+02               0
GRID*               9215               09.7898722308E+017.4673208621E+01+
*       5.4965415074E+02               0
GRID*               9216               09.8676869630E+017.4257774251E+01+
*       5.5017056086E+02               0
GRID*               9217               09.7217602999E+017.5231495567E+01+
*       5.4707692269E+02               0
GRID*               9218               09.6657070851E+017.5913615541E+01+
*       5.4759141499E+02               0
GRID*               9219               09.6657148117E+017.5913500543E+01+
*       5.4656095084E+02               0
GRID*               9220               09.6240719125E+017.6691348696E+01+
*       5.4810593207E+02               0
GRID*               9221               09.5983828163E+017.7535438273E+01+
*       5.4758994812E+02               0
GRID*               9222               09.5982843378E+017.9289721512E+01+
*       5.4655857543E+02               0
GRID*               9223               09.6237935667E+018.0133661653E+01+
*       5.4604306380E+02               0
GRID*               9224               09.5982785292E+017.9289690449E+01+
*       5.4552829508E+02               0
GRID*               9225               09.5897777567E+017.8412850254E+01+
*       5.4707429924E+02               0
GRID*               9226               09.5983869694E+017.7535514497E+01+
*       5.4655961869E+02               0
GRID*               9227               09.6240727719E+017.6691330962E+01+
*       5.4604516625E+02               0
GRID*               9228               09.5983968563E+017.7535318454E+01+
*       5.4552931598E+02               0
GRID*               9229               09.5982667587E+017.9289530475E+01+
*       5.4449805164E+02               0
GRID*               9230               09.6237873210E+018.0133536322E+01+
*       5.4398257220E+02               0
GRID*               9231               09.5897353859E+017.8412646128E+01+
*       5.4501375069E+02               0
GRID*               9232               01.0481303089E+027.9281282590E+01+
*       5.4964906576E+02               0
GRID*               9233               01.0455972061E+028.0125581200E+01+
*       5.5016358429E+02               0
GRID*               9234               01.0481298337E+027.9281575705E+01+
*       5.4861891742E+02               0
GRID*               9235               01.0481296388E+027.9281726316E+01+
*       5.4758872357E+02               0
GRID*               9236               01.0455958192E+028.0125927993E+01+
*       5.4810329762E+02               0
GRID*               9237               01.0489753492E+027.8405005088E+01+
*       5.4913461049E+02               0
GRID*               9238               01.0480884637E+027.7529331583E+01+
*       5.4862035189E+02               0
GRID*               9239               01.0481294924E+027.9281850803E+01+
*       5.4655848854E+02               0
GRID*               9240               01.0481292524E+027.9282019603E+01+
*       5.4552828184E+02               0
GRID*               9241               01.0455946102E+028.0126226990E+01+
*       5.4604295191E+02               0
GRID*               9242               01.0455183871E+027.6687143280E+01+
*       5.4810602888E+02               0
GRID*               9243               01.0480888972E+027.7529534419E+01+
*       5.4759006733E+02               0
GRID*               9244               01.0413506525E+027.5910429066E+01+
*       5.4759188510E+02               0
GRID*               9245               01.0489747882E+027.8405411271E+01+
*       5.4707415841E+02               0
GRID*               9246               01.0480891375E+027.7529641656E+01+
*       5.4655976370E+02               0
GRID*               9247               01.0357468245E+027.5229511957E+01+
*       5.4707767044E+02               0
GRID*               9248               01.0413511161E+027.5910499015E+01+
*       5.4656141424E+02               0
GRID*               9249               01.0289386114E+027.4672080656E+01+
*       5.4656355413E+02               0
GRID*               9250               01.0455188779E+027.6687266161E+01+
*       5.4604531929E+02               0
GRID*               9251               01.0480891890E+027.7529655426E+01+
*       5.4552941659E+02               0
GRID*               9252               01.0413509854E+027.5910480243E+01+
*       5.4553098909E+02               0
GRID*               9253               01.0481291753E+027.9282098956E+01+
*       5.4449800294E+02               0
GRID*               9254               01.0481288709E+027.9282287014E+01+
*       5.4346768848E+02               0
GRID*               9255               01.0455931480E+028.0126582848E+01+
*       5.4398248132E+02               0
GRID*               9256               01.0489741345E+027.8405611492E+01+
*       5.4501358119E+02               0
GRID*               9257               01.0480893532E+027.7529725383E+01+
*       5.4449907428E+02               0
GRID*               9258               01.0357484419E+027.5229673253E+01+
*       5.4501654764E+02               0
GRID*               9259               01.0413517698E+027.5910597935E+01+
*       5.4450042408E+02               0
GRID*               9260               01.0211701042E+027.4257612562E+01+
*       5.4604931084E+02               0
GRID*               9261               01.0289399174E+027.4672167766E+01+
*       5.4553283393E+02               0
GRID*               9262               01.0127367801E+027.4002121200E+01+
*       5.4553386462E+02               0
GRID*               9263               01.0127367818E+027.4002121219E+01+
*       5.4450293678E+02               0
GRID*               9264               01.0289410449E+027.4672242984E+01+
*       5.4450218269E+02               0
GRID*               9265               01.0211708773E+027.4257644528E+01+
*       5.4398772545E+02               0
GRID*               9266               01.0289405485E+027.4672209897E+01+
*       5.4347141226E+02               0
GRID*               9267               01.0455195012E+027.6687420042E+01+
*       5.4398441123E+02               0
GRID*               9268               01.0480898377E+027.7529954693E+01+
*       5.4346858567E+02               0
GRID*               9269               01.0413528711E+027.5910762862E+01+
*       5.4346986335E+02               0
GRID*               9270               01.0357489755E+027.5229726474E+01+
*       5.4295526558E+02               0
GRID*               9271               01.0413524886E+027.5910706374E+01+
*       5.4243922648E+02               0
GRID*               9272               01.0481282945E+027.9282616077E+01+
*       5.4037623541E+02               0
GRID*               9273               01.0455800351E+028.0126963680E+01+
*       5.3986066760E+02               0
GRID*               9274               01.0481281759E+027.9282676762E+01+
*       5.4140674689E+02               0
GRID*               9275               01.0455862828E+028.0126801288E+01+
*       5.4192172820E+02               0
GRID*               9276               01.0481285161E+027.9282491206E+01+
*       5.4243722937E+02               0
GRID*               9277               01.0489726301E+027.8406128330E+01+
*       5.4089176090E+02               0
GRID*               9278               01.0480901626E+027.7530094501E+01+
*       5.4140751066E+02               0
GRID*               9279               01.0455197960E+027.6687502180E+01+
*       5.4192329808E+02               0
GRID*               9280               01.0480902840E+027.7530165406E+01+
*       5.4243806800E+02               0
GRID*               9281               01.0489733989E+027.8405921733E+01+
*       5.4295278495E+02               0
GRID*               9282               09.6649736064E+018.0905845848E+01+
*       5.5170784009E+02               0
GRID*               9283               09.6649688076E+018.0905761711E+01+
*       5.5273805925E+02               0
GRID*               9284               09.6649748377E+018.0905876998E+01+
*       5.5067765701E+02               0
GRID*               9285               09.6649775609E+018.0905930952E+01+
*       5.4964748049E+02               0
GRID*               9286               09.7216939467E+018.1599682287E+01+
*       5.5119318242E+02               0
GRID*               9287               09.7900409820E+018.2159710558E+01+
*       5.5170788905E+02               0
GRID*               9288               09.7900314392E+018.2159646600E+01+
*       5.5067771882E+02               0
GRID*               9289               09.6649834078E+018.0906032139E+01+
*       5.4861732259E+02               0
GRID*               9290               09.6649879232E+018.0906113778E+01+
*       5.4758713453E+02               0
GRID*               9291               09.8679044721E+018.2575019210E+01+
*       5.5016243724E+02               0
GRID*               9292               09.7900296449E+018.2159634337E+01+
*       5.4964759980E+02               0
GRID*               9293               09.9523977887E+018.2830351007E+01+
*       5.5067730993E+02               0
GRID*               9294               09.9523958878E+018.2830346703E+01+
*       5.4964719924E+02               0
GRID*               9295               09.7216841544E+018.1599584474E+01+
*       5.4913284238E+02               0
GRID*               9296               09.7900263325E+018.2159611946E+01+
*       5.4861745196E+02               0
GRID*               9297               09.6649483623E+018.0905432380E+01+
*       5.5479854538E+02               0
GRID*               9298               09.6649585977E+018.0905596981E+01+
*       5.5376827324E+02               0
GRID*               9299               09.7216916358E+018.1599659205E+01+
*       5.5531403798E+02               0
GRID*               9300               09.7900362683E+018.2159679992E+01+
*       5.5479842343E+02               0
GRID*               9301               01.0212614329E+028.2570495149E+01+
*       5.5222245947E+02               0
GRID*               9302               01.0128202655E+028.2828018310E+01+
*       5.5170731352E+02               0
GRID*               9303               01.0128211068E+028.2828001709E+01+
*       5.5273739761E+02               0
GRID*               9304               01.0290328537E+028.2153406650E+01+
*       5.5170755882E+02               0
GRID*               9305               01.0040317549E+028.2915912323E+01+
*       5.5119228926E+02               0
GRID*               9306               09.9523938806E+018.2830343861E+01+
*       5.5170739996E+02               0
GRID*               9307               01.0128204363E+028.2828014632E+01+
*       5.5067721428E+02               0
GRID*               9308               09.7216969855E+018.1599712641E+01+
*       5.5325357447E+02               0
GRID*               9309               09.7900325185E+018.2159654681E+01+
*       5.5376823747E+02               0
GRID*               9310               09.7900370909E+018.2159684893E+01+
*       5.5273803947E+02               0
GRID*               9311               09.8679024659E+018.2575010987E+01+
*       5.5428301674E+02               0
GRID*               9312               09.9523967473E+018.2830350812E+01+
*       5.5376766269E+02               0
GRID*               9313               09.8679023545E+018.2575010491E+01+
*       5.5222269405E+02               0
GRID*               9314               09.9523890552E+018.2830334938E+01+
*       5.5273754134E+02               0
GRID*               9315               01.0040324348E+028.2915912228E+01+
*       5.5325250615E+02               0
GRID*               9316               01.0414947738E+028.0898451472E+01+
*       5.4758693783E+02               0
GRID*               9317               01.0414961101E+028.0898236266E+01+
*       5.4861706193E+02               0
GRID*               9318               01.0414928676E+028.0898752801E+01+
*       5.4655677483E+02               0
GRID*               9319               01.0414913670E+028.0898993443E+01+
*       5.4552663426E+02               0
GRID*               9320               01.0358433739E+028.1592671248E+01+
*       5.4707232850E+02               0
GRID*               9321               01.0290264056E+028.2153836000E+01+
*       5.4655700735E+02               0
GRID*               9322               01.0290279420E+028.2153733516E+01+
*       5.4758714813E+02               0
GRID*               9323               01.0212534454E+028.2570827314E+01+
*       5.4604178441E+02               0
GRID*               9324               01.0128124452E+028.2828173411E+01+
*       5.4552661429E+02               0
GRID*               9325               01.0128140827E+028.2828140878E+01+
*       5.4655675618E+02               0
GRID*               9326               01.0290250410E+028.2153926995E+01+
*       5.4552684316E+02               0
GRID*               9327               01.0414898300E+028.0899239870E+01+
*       5.4449644742E+02               0
GRID*               9328               01.0414881141E+028.0899513519E+01+
*       5.4346619580E+02               0
GRID*               9329               01.0358411477E+028.1592894581E+01+
*       5.4501198607E+02               0
GRID*               9330               01.0290241015E+028.2153989529E+01+
*       5.4449667498E+02               0
GRID*               9331               01.0414992856E+028.0897731324E+01+
*       5.5067726533E+02               0
GRID*               9332               01.0414975470E+028.0898006296E+01+
*       5.4964718656E+02               0
GRID*               9333               01.0358478039E+028.1592226725E+01+
*       5.5119281171E+02               0
GRID*               9334               01.0290312995E+028.2153510184E+01+
*       5.5067748919E+02               0
GRID*               9335               01.0212587256E+028.2570607755E+01+
*       5.5016226257E+02               0
GRID*               9336               01.0128184216E+028.2828054741E+01+
*       5.4964712489E+02               0
GRID*               9337               01.0290296230E+028.2153621959E+01+
*       5.4964737356E+02               0
GRID*               9338               01.0358455718E+028.1592450720E+01+
*       5.4913260415E+02               0
GRID*               9339               01.0290287370E+028.2153680765E+01+
*       5.4861727499E+02               0
GRID*               9340               01.0040262339E+028.2915913042E+01+
*       5.4707180898E+02               0
GRID*               9341               01.0128149126E+028.2828124514E+01+
*       5.4758688287E+02               0
GRID*               9342               09.9523474241E+018.2830249421E+01+
*       5.4655679314E+02               0
GRID*               9343               09.9523538722E+018.2830262618E+01+
*       5.4758691201E+02               0
GRID*               9344               09.8678846086E+018.2574937137E+01+
*       5.4810216575E+02               0
GRID*               9345               09.7900103435E+018.2159504973E+01+
*       5.4758728784E+02               0
GRID*               9346               09.9523725240E+018.2830299988E+01+
*       5.4861706845E+02               0
GRID*               9347               01.0212559055E+028.2570725032E+01+
*       5.4810204890E+02               0
GRID*               9348               01.0128158809E+028.2828105378E+01+
*       5.4861698556E+02               0
GRID*               9349               01.0040295080E+028.2915912624E+01+
*       5.4913206334E+02               0
GRID*               9350               01.0414841244E+028.0900145510E+01+
*       5.4140542158E+02               0
GRID*               9351               01.0414859680E+028.0899852129E+01+
*       5.4243584425E+02               0
GRID*               9352               01.0414821677E+028.0900456116E+01+
*       5.4037493606E+02               0
GRID*               9353               01.0414807415E+028.0900687166E+01+
*       5.3934437426E+02               0
GRID*               9354               01.0358358013E+028.1593430813E+01+
*       5.4089061349E+02               0
GRID*               9355               01.0290170087E+028.2154463417E+01+
*       5.4037525320E+02               0
GRID*               9356               01.0290185053E+028.2154363453E+01+
*       5.4140572611E+02               0
GRID*               9357               01.0212415335E+028.2571322397E+01+
*       5.3985997021E+02               0
GRID*               9358               01.0128011054E+028.2828399036E+01+
*       5.4037521502E+02               0
GRID*               9359               01.0290153171E+028.2154576469E+01+
*       5.3934476089E+02               0
GRID*               9360               01.0358337168E+028.1593639834E+01+
*       5.3882957538E+02               0
GRID*               9361               01.0040140705E+028.2915914383E+01+
*       5.4089039848E+02               0
GRID*               9362               01.0128032256E+028.2828356886E+01+
*       5.4140555340E+02               0
GRID*               9363               09.9522484715E+018.2830051796E+01+
*       5.4140564810E+02               0
GRID*               9364               01.0358387034E+028.1593139766E+01+
*       5.4295145096E+02               0
GRID*               9365               01.0290199709E+028.2154265582E+01+
*       5.4243604574E+02               0
GRID*               9366               01.0290217836E+028.2154144478E+01+
*       5.4346638177E+02               0
GRID*               9367               01.0212450672E+028.2571175576E+01+
*       5.4192076129E+02               0
GRID*               9368               01.0128049750E+028.2828322144E+01+
*       5.4243585407E+02               0
GRID*               9369               09.8677789023E+018.2574500276E+01+
*       5.4192091297E+02               0
GRID*               9370               09.9522659871E+018.2830086777E+01+
*       5.4243590570E+02               0
GRID*               9371               09.7899381324E+018.2159021610E+01+
*       5.4243623953E+02               0
GRID*               9372               09.6649933918E+018.0906255246E+01+
*       5.4346629913E+02               0
GRID*               9373               09.6649937428E+018.0906245126E+01+
*       5.4449650587E+02               0
GRID*               9374               09.7216300085E+018.1599043504E+01+
*       5.4295162328E+02               0
GRID*               9375               09.7899542297E+018.2159129342E+01+
*       5.4346646644E+02               0
GRID*               9376               09.6649872754E+018.0906118432E+01+
*       5.4655692919E+02               0
GRID*               9377               09.6649918787E+018.0906202132E+01+
*       5.4552670712E+02               0
GRID*               9378               09.7216708619E+018.1599451685E+01+
*       5.4707247636E+02               0
GRID*               9379               09.7899967408E+018.2159413915E+01+
*       5.4655708997E+02               0
GRID*               9380               09.7216515180E+018.1599258427E+01+
*       5.4501206362E+02               0
GRID*               9381               09.7899786368E+018.2159292812E+01+
*       5.4552688520E+02               0
GRID*               9382               09.7899682593E+018.2159223266E+01+
*       5.4449668910E+02               0
GRID*               9383               09.8678467149E+018.2574780561E+01+
*       5.4604180762E+02               0
GRID*               9384               09.9523262454E+018.2830207107E+01+
*       5.4552659548E+02               0
GRID*               9385               01.0040177617E+028.2915914012E+01+
*       5.4295096915E+02               0
GRID*               9386               01.0128066150E+028.2828289586E+01+
*       5.4346609547E+02               0
GRID*               9387               09.9522808412E+018.2830116509E+01+
*       5.4346614047E+02               0
GRID*               9388               09.8678110355E+018.2574633103E+01+
*       5.4398139014E+02               0
GRID*               9389               09.9522972553E+018.2830149352E+01+
*       5.4449635653E+02               0
GRID*               9390               01.0212493067E+028.2570999372E+01+
*       5.4398135152E+02               0
GRID*               9391               01.0128093755E+028.2828234602E+01+
*       5.4449636810E+02               0
GRID*               9392               01.0040224139E+028.2915913500E+01+
*       5.4501144684E+02               0
GRID*               9393               01.0414295753E+028.0909089816E+01+
*       4.9502184804E+02               0
GRID*               9394               01.0455739847E+028.0131161726E+01+
*       4.9450635367E+02               0
GRID*               9395               01.0414283856E+028.0909280955E+01+
*       4.9399075962E+02               0
GRID*               9396               01.0414309219E+028.0908874825E+01+
*       4.9605290557E+02               0
GRID*               9397               01.0414320688E+028.0908689466E+01+
*       4.9708389298E+02               0
GRID*               9398               01.0455749767E+028.0130921913E+01+
*       4.9656845173E+02               0
GRID*               9399               01.0358180249E+028.1595212452E+01+
*       4.9553741016E+02               0
GRID*               9400               01.0289941111E+028.2155999687E+01+
*       4.9502194020E+02               0
GRID*               9401               01.0289950978E+028.2155933385E+01+
*       4.9605300009E+02               0
GRID*               9402               01.0414336136E+028.0908444090E+01+
*       4.9811491906E+02               0
GRID*               9403               01.0414350352E+028.0908216900E+01+
*       4.9914584034E+02               0
GRID*               9404               01.0455760847E+028.0130653952E+01+
*       4.9863038545E+02               0
GRID*               9405               01.0212172754E+028.2572328884E+01+
*       4.9656863049E+02               0
GRID*               9406               01.0289964062E+028.2155845549E+01+
*       4.9708408503E+02               0
GRID*               9407               01.0127719525E+028.2828976409E+01+
*       4.9605314203E+02               0
GRID*               9408               01.0127734333E+028.2828946753E+01+
*       4.9708422375E+02               0
GRID*               9409               01.0358198663E+028.1595027987E+01+
*       4.9759950412E+02               0
GRID*               9410               01.0289976401E+028.2155762701E+01+
*       4.9811511415E+02               0
GRID*               9411               01.0414365565E+028.0907974437E+01+
*       5.0017671509E+02               0
GRID*               9412               01.0414380675E+028.0907733238E+01+
*       5.0120754147E+02               0
GRID*               9413               01.0455774020E+028.0130335168E+01+
*       5.0069216083E+02               0
GRID*               9414               01.0358218461E+028.1594829640E+01+
*       4.9966141700E+02               0
GRID*               9415               01.0289989064E+028.2155677674E+01+
*       4.9914607588E+02               0
GRID*               9416               01.0290000541E+028.2155600595E+01+
*       5.0017695427E+02               0
GRID*               9417               01.0414400239E+028.0907424883E+01+
*       5.0223842416E+02               0
GRID*               9418               01.0414418389E+028.0907137458E+01+
*       5.0326918627E+02               0
GRID*               9419               01.0455789514E+028.0129960063E+01+
*       5.0275377965E+02               0
GRID*               9420               01.0212230578E+028.2572088981E+01+
*       5.0069255696E+02               0
GRID*               9421               01.0290015431E+028.2155500660E+01+
*       5.0120788033E+02               0
GRID*               9422               01.0127781221E+028.2828852955E+01+
*       5.0017720749E+02               0
GRID*               9423               01.0127798273E+028.2828818876E+01+
*       5.0120812976E+02               0
GRID*               9424               01.0358242710E+028.1594586661E+01+
*       5.0172318797E+02               0
GRID*               9425               01.0290033000E+028.2155382789E+01+
*       5.0223876711E+02               0
GRID*               9426               09.8675063704E+018.2573373231E+01+
*       4.9863094282E+02               0
GRID*               9427               09.9519753879E+018.2829511701E+01+
*       4.9914637398E+02               0
GRID*               9428               09.9519571117E+018.2829475619E+01+
*       4.9811531425E+02               0
GRID*               9429               09.7896788488E+018.2157283709E+01+
*       4.9811546083E+02               0
GRID*               9430               09.7896938210E+018.2157383661E+01+
*       4.9914652177E+02               0
GRID*               9431               01.0039885041E+028.2915916112E+01+
*       4.9966177979E+02               0
GRID*               9432               01.0127763693E+028.2828887994E+01+
*       4.9914619128E+02               0
GRID*               9433               09.9519932342E+018.2829546927E+01+
*       5.0017738893E+02               0
GRID*               9434               01.0039851724E+028.2915916228E+01+
*       4.9759975600E+02               0
GRID*               9435               01.0127749323E+028.2828916749E+01+
*       4.9811523305E+02               0
GRID*               9436               09.9519417301E+018.2829445283E+01+
*       4.9708430611E+02               0
GRID*               9437               01.0212200655E+028.2572213139E+01+
*       4.9863067333E+02               0
GRID*               9438               01.0414254387E+028.0909747402E+01+
*       4.9192839153E+02               0
GRID*               9439               01.0414268786E+028.0909519371E+01+
*       4.9295957234E+02               0
GRID*               9440               01.0455727438E+028.0131461916E+01+
*       4.9244406512E+02               0
GRID*               9441               01.0414239783E+028.0909978144E+01+
*       4.9089719102E+02               0
GRID*               9442               01.0455714562E+028.0131773398E+01+
*       4.9038168398E+02               0
GRID*               9443               01.0414227899E+028.0910167760E+01+
*       4.8986600704E+02               0
GRID*               9444               01.0358140254E+028.1595613031E+01+
*       4.9141276260E+02               0
GRID*               9445               01.0289887538E+028.2156359276E+01+
*       4.9089713123E+02               0
GRID*               9446               01.0289900216E+028.2156274173E+01+
*       4.9192833243E+02               0
GRID*               9447               01.0358161434E+028.1595400907E+01+
*       4.9347515685E+02               0
GRID*               9448               01.0289913992E+028.2156181717E+01+
*       4.9295954846E+02               0
GRID*               9449               01.0289926824E+028.2156095572E+01+
*       4.9399073729E+02               0
GRID*               9450               01.0212112639E+028.2572578216E+01+
*       4.9244393050E+02               0
GRID*               9451               01.0127654876E+028.2829105986E+01+
*       4.9192832397E+02               0
GRID*               9452               01.0127670369E+028.2829074899E+01+
*       4.9295953728E+02               0
GRID*               9453               09.6237568532E+018.0132835319E+01+
*       4.9656883984E+02               0
GRID*               9454               09.6652292372E+018.0910540806E+01+
*       4.9708430738E+02               0
GRID*               9455               09.6652273636E+018.0910525899E+01+
*       4.9605314608E+02               0
GRID*               9456               09.5982693107E+017.9288784357E+01+
*       4.9605316297E+02               0
GRID*               9457               09.5982721374E+017.9288885781E+01+
*       4.9708433784E+02               0
GRID*               9458               09.7214072430E+018.1596815896E+01+
*       4.9759990536E+02               0
GRID*               9459               09.7896644649E+018.2157187703E+01+
*       4.9708431481E+02               0
GRID*               9460               09.6652314165E+018.0910559987E+01+
*       4.9811544798E+02               0
GRID*               9461               01.0212143072E+028.2572452004E+01+
*       4.9450634618E+02               0
GRID*               9462               01.0127685973E+028.2829043611E+01+
*       4.9399075116E+02               0
GRID*               9463               01.0127702137E+028.2829011222E+01+
*       4.9502195111E+02               0
GRID*               9464               01.0039784366E+028.2915916386E+01+
*       4.9347515404E+02               0
GRID*               9465               09.9518724302E+018.2829308465E+01+
*       4.9295957666E+02               0
GRID*               9466               09.9518885842E+018.2829340347E+01+
*       4.9399078954E+02               0
GRID*               9467               09.8674727373E+018.2573233963E+01+
*       4.9656871901E+02               0
GRID*               9468               09.7896495986E+018.2157088488E+01+
*       4.9605315030E+02               0
GRID*               9469               09.9519235222E+018.2829409330E+01+
*       4.9605314271E+02               0
GRID*               9470               01.0039818424E+028.2915916319E+01+
*       4.9553755737E+02               0
GRID*               9471               09.9519056625E+018.2829374064E+01+
*       4.9502195287E+02               0
GRID*               9472               09.7213805399E+018.1596548660E+01+
*       4.9553763463E+02               0
GRID*               9473               09.6652231772E+018.0910475999E+01+
*       4.9502202870E+02               0
GRID*               9474               09.7896327379E+018.2156975953E+01+
*       4.9502202834E+02               0
GRID*               9475               09.8674402401E+018.2573099370E+01+
*       4.9450639166E+02               0
GRID*               9476               09.7896188800E+018.2156883511E+01+
*       4.9399086397E+02               0
GRID*               9477               01.0414199983E+028.0910608189E+01+
*       4.8780367664E+02               0
GRID*               9478               01.0414213348E+028.0910397046E+01+
*       4.8883483612E+02               0
GRID*               9479               01.0455701918E+028.0132079226E+01+
*       4.8831932718E+02               0
GRID*               9480               01.0414184390E+028.0910852406E+01+
*       4.8677259392E+02               0
GRID*               9481               01.0455684808E+028.0132493233E+01+
*       4.8625708788E+02               0
GRID*               9482               01.0414166759E+028.0911126842E+01+
*       4.8574152429E+02               0
GRID*               9483               01.0358095162E+028.1596064532E+01+
*       4.8728813117E+02               0
GRID*               9484               01.0289828761E+028.2156753603E+01+
*       4.8677252436E+02               0
GRID*               9485               01.0289844053E+028.2156651032E+01+
*       4.8780360577E+02               0
GRID*               9486               01.0212013281E+028.2572990118E+01+
*       4.8625697860E+02               0
GRID*               9487               01.0127547275E+028.2829322068E+01+
*       4.8574139781E+02               0
GRID*               9488               01.0127566456E+028.2829283520E+01+
*       4.8677243025E+02               0
GRID*               9489               01.0289811654E+028.2156868304E+01+
*       4.8574148979E+02               0
GRID*               9490               01.0414151554E+028.0911364534E+01+
*       4.8471051281E+02               0
GRID*               9491               01.0455666511E+028.0132935934E+01+
*       4.8419504349E+02               0
GRID*               9492               01.0414137182E+028.0911589404E+01+
*       4.8367954508E+02               0
GRID*               9493               01.0358069741E+028.1596319015E+01+
*       4.8522603734E+02               0
GRID*               9494               01.0289796393E+028.2156970653E+01+
*       4.8471048073E+02               0
GRID*               9495               09.7218507783E+017.5230592442E+01+
*       4.9347394112E+02               0
GRID*               9496               09.6658007156E+017.5912226636E+01+
*       4.9398978619E+02               0
GRID*               9497               09.6658068003E+017.5912135392E+01+
*       4.9295864748E+02               0
GRID*               9498               09.7899593615E+017.4672626855E+01+
*       4.9295787876E+02               0
GRID*               9499               09.7899500558E+017.4672688969E+01+
*       4.9398902755E+02               0
GRID*               9500               09.5897214568E+017.8410995303E+01+
*       4.9553749586E+02               0
GRID*               9501               09.5984468245E+017.7533741196E+01+
*       4.9502165066E+02               0
GRID*               9502               09.5984455386E+017.7533806140E+01+
*       4.9605290484E+02               0
GRID*               9503               09.5982670472E+017.9288740125E+01+
*       4.9502191669E+02               0
GRID*               9504               09.6241531886E+017.6689479516E+01+
*       4.9450577484E+02               0
GRID*               9505               09.6658031194E+017.5912191102E+01+
*       4.9502107300E+02               0
GRID*               9506               09.5984457781E+017.7533792925E+01+
*       4.9399037283E+02               0
GRID*               9507               01.0039749583E+028.2915916428E+01+
*       4.9141269172E+02               0
GRID*               9508               09.9518358990E+018.2829236288E+01+
*       4.9089704420E+02               0
GRID*               9509               09.9518544930E+018.2829273032E+01+
*       4.9192829307E+02               0
GRID*               9510               01.0127636919E+028.2829141997E+01+
*       4.9089707417E+02               0
GRID*               9511               01.0358118810E+028.1595827763E+01+
*       4.8935038684E+02               0
GRID*               9512               01.0289859451E+028.2156547744E+01+
*       4.8883475066E+02               0
GRID*               9513               01.0289872609E+028.2156459434E+01+
*       4.8986592131E+02               0
GRID*               9514               01.0212081509E+028.2572707292E+01+
*       4.9038150755E+02               0
GRID*               9515               01.0127620140E+028.2829175681E+01+
*       4.8986586676E+02               0
GRID*               9516               01.0212048596E+028.2572843741E+01+
*       4.8831915551E+02               0
GRID*               9517               01.0127585200E+028.2829245861E+01+
*       4.8780354649E+02               0
GRID*               9518               01.0127602453E+028.2829211193E+01+
*       4.8883468907E+02               0
GRID*               9519               01.0039674482E+028.2915916426E+01+
*       4.8728797278E+02               0
GRID*               9520               09.9517615236E+018.2829089253E+01+
*       4.8677233201E+02               0
GRID*               9521               09.9517810897E+018.2829127957E+01+
*       4.8780344743E+02               0
GRID*               9522               09.8673749502E+018.2572828868E+01+
*       4.9038143220E+02               0
GRID*               9523               09.7895631337E+018.2156511840E+01+
*       4.8986578281E+02               0
GRID*               9524               09.7895776224E+018.2156608419E+01+
*       4.9089701154E+02               0
GRID*               9525               09.9518179399E+018.2829200802E+01+
*       4.8986581638E+02               0
GRID*               9526               01.0039712519E+028.2915916443E+01+
*       4.8935026551E+02               0
GRID*               9527               09.9517995266E+018.2829164406E+01+
*       4.8883463956E+02               0
GRID*               9528               09.7213068306E+018.1595810770E+01+
*       4.8935012882E+02               0
GRID*               9529               09.6652053438E+018.0910278867E+01+
*       4.8883445323E+02               0
GRID*               9530               09.6652096084E+018.0910331955E+01+
*       4.8986569287E+02               0
GRID*               9531               09.7895479509E+018.2156410642E+01+
*       4.8883454170E+02               0
GRID*               9532               09.8673414300E+018.2572689943E+01+
*       4.8831901174E+02               0
GRID*               9533               09.7895331226E+018.2156311838E+01+
*       4.8780334873E+02               0
GRID*               9534               09.6237488955E+018.0132641962E+01+
*       4.9450639791E+02               0
GRID*               9535               09.5982635165E+017.9288639071E+01+
*       4.9399064431E+02               0
GRID*               9536               09.6652225208E+018.0910478704E+01+
*       4.9399076841E+02               0
GRID*               9537               09.6241621911E+017.6689264189E+01+
*       4.9244333167E+02               0
GRID*               9538               09.5984464945E+017.7533756467E+01+
*       4.9295906879E+02               0
GRID*               9539               09.5984518117E+017.7533489902E+01+
*       4.9192791163E+02               0
GRID*               9540               09.6658224454E+017.5911901380E+01+
*       4.9192748201E+02               0
GRID*               9541               09.5897209166E+017.8410864606E+01+
*       4.9347494571E+02               0
GRID*               9542               09.5982615374E+017.9288606027E+01+
*       4.9295934773E+02               0
GRID*               9543               09.7213557607E+018.1596300639E+01+
*       4.9347520139E+02               0
GRID*               9544               09.6652211670E+018.0910470628E+01+
*       4.9295946326E+02               0
GRID*               9545               09.7896068737E+018.2156803471E+01+
*       4.9295955521E+02               0
GRID*               9546               09.8674080056E+018.2572965835E+01+
*       4.9244394416E+02               0
GRID*               9547               09.7895923437E+018.2156706574E+01+
*       4.9192827066E+02               0
GRID*               9548               09.6237320315E+018.0132232340E+01+
*       4.9038129924E+02               0
GRID*               9549               09.6652179226E+018.0910445434E+01+
*       4.9089691454E+02               0
GRID*               9550               09.5982486939E+017.9288005940E+01+
*       4.8986561653E+02               0
GRID*               9551               09.5982529610E+017.9288236766E+01+
*       4.9089684645E+02               0
GRID*               9552               09.5897204109E+017.8410512478E+01+
*       4.9141244300E+02               0
GRID*               9553               09.5984574453E+017.7533207598E+01+
*       4.9089670545E+02               0
GRID*               9554               09.5982588949E+017.9288518734E+01+
*       4.9192804531E+02               0
GRID*               9555               09.7213326957E+018.1596069740E+01+
*       4.9141263119E+02               0
GRID*               9556               09.6652214715E+018.0910487093E+01+
*       4.9192817108E+02               0
GRID*               9557               09.6237428848E+018.0132495812E+01+
*       4.9244382788E+02               0
GRID*               9558               01.0127398110E+027.4002180247E+01+
*       4.8264739075E+02               0
GRID*               9559               01.0127398091E+027.4002180225E+01+
*       4.8367831858E+02               0
GRID*               9560               01.0127389683E+027.4002163492E+01+
*       4.8161644407E+02               0
GRID*               9561               01.0127389702E+027.4002163513E+01+
*       4.8058551623E+02               0
GRID*               9562               01.0211700866E+027.4257610785E+01+
*       4.8213216867E+02               0
GRID*               9563               01.0289490811E+027.4672779495E+01+
*       4.8161682306E+02               0
GRID*               9564               01.0289497886E+027.4672826712E+01+
*       4.8264776558E+02               0
GRID*               9565               01.0357589378E+027.5230720358E+01+
*       4.8316338889E+02               0
GRID*               9566               01.0289482558E+027.4672724433E+01+
*       4.8367873411E+02               0
GRID*               9567               01.0413634296E+027.5912330827E+01+
*       4.8264799390E+02               0
GRID*               9568               01.0413623740E+027.5912173684E+01+
*       4.8367895452E+02               0
GRID*               9569               01.0127384365E+027.4002152985E+01+
*       4.8470929787E+02               0
GRID*               9570               01.0127384345E+027.4002152963E+01+
*       4.8574022571E+02               0
GRID*               9571               01.0211695757E+027.4257589647E+01+
*       4.8419409464E+02               0
GRID*               9572               01.0289470870E+027.4672646456E+01+
*       4.8470970891E+02               0
GRID*               9573               01.0455230164E+027.6689446556E+01+
*       4.8213261900E+02               0
GRID*               9574               01.0480978761E+027.7533615834E+01+
*       4.8161732280E+02               0
GRID*               9575               01.0480978398E+027.7533598002E+01+
*       4.8264824017E+02               0
GRID*               9576               01.0413634830E+027.5912338356E+01+
*       4.8161706957E+02               0
GRID*               9577               01.0357588839E+027.5230714972E+01+
*       4.8110151701E+02               0
GRID*               9578               01.0413624361E+027.5912181607E+01+
*       4.8058616569E+02               0
GRID*               9579               01.0289474818E+027.4672672778E+01+
*       4.8058591188E+02               0
GRID*               9580               01.0127378871E+027.4002141989E+01+
*       4.7955461607E+02               0
GRID*               9581               01.0127378890E+027.4002142010E+01+
*       4.7852368824E+02               0
GRID*               9582               01.0211682992E+027.4257536851E+01+
*       4.8007032184E+02               0
GRID*               9583               01.0289465706E+027.4672611974E+01+
*       4.7955501557E+02               0
GRID*               9584               01.0455198929E+027.6688035954E+01+
*       5.0481414115E+02               0
GRID*               9585               01.0413554335E+027.5911146263E+01+
*       5.0532925941E+02               0
GRID*               9586               01.0413565127E+027.5911306960E+01+
*       5.0429853086E+02               0
GRID*               9587               01.0480990777E+027.7531727551E+01+
*       5.0429905280E+02               0
GRID*               9588               01.0480986230E+027.7531524954E+01+
*       5.0532976582E+02               0
GRID*               9589               01.0357520960E+027.5230037715E+01+
*       5.0584439080E+02               0
GRID*               9590               01.0289417272E+027.4672288942E+01+
*       5.0635956224E+02               0
GRID*               9591               01.0289433745E+027.4672398825E+01+
*       5.0532879615E+02               0
GRID*               9592               01.0413542979E+027.5910977154E+01+
*       5.0636000658E+02               0
GRID*               9593               01.0127364050E+027.4002113066E+01+
*       5.0738977180E+02               0
GRID*               9594               01.0127364028E+027.4002113043E+01+
*       5.0842069963E+02               0
GRID*               9595               01.0211664172E+027.4257459246E+01+
*       5.0687479625E+02               0
GRID*               9596               01.0289412790E+027.4672259047E+01+
*       5.0739036562E+02               0
GRID*               9597               01.0127369213E+027.4002123297E+01+
*       5.0635895762E+02               0
GRID*               9598               01.0127377424E+027.4002139540E+01+
*       5.0326623606E+02               0
GRID*               9599               01.0127377403E+027.4002139517E+01+
*       5.0429716390E+02               0
GRID*               9600               01.0127364434E+027.4002113732E+01+
*       5.0223540157E+02               0
GRID*               9601               01.0127364456E+027.4002113756E+01+
*       5.0120447374E+02               0
GRID*               9602               01.0211666920E+027.4257470519E+01+
*       5.0275141545E+02               0
GRID*               9603               01.0289420493E+027.4672310429E+01+
*       5.0223636444E+02               0
GRID*               9604               01.0289431394E+027.4672383140E+01+
*       5.0326718969E+02               0
GRID*               9605               01.0357527184E+027.5230099798E+01+
*       5.0378289295E+02               0
GRID*               9606               01.0289440764E+027.4672445646E+01+
*       5.0429794022E+02               0
GRID*               9607               01.0413559128E+027.5911217100E+01+
*       5.0326779781E+02               0
GRID*               9608               01.0127369235E+027.4002123321E+01+
*       5.0532802979E+02               0
GRID*               9609               01.0211673902E+027.4257499435E+01+
*       5.0481311600E+02               0
GRID*               9610               01.0481194085E+027.9286988933E+01+
*       4.8677253843E+02               0
GRID*               9611               01.0481188792E+027.9287262678E+01+
*       4.8574146190E+02               0
GRID*               9612               01.0481200187E+027.9286674133E+01+
*       4.8780369125E+02               0
GRID*               9613               01.0481203841E+027.9286483598E+01+
*       4.8883485944E+02               0
GRID*               9614               01.0489703844E+027.8409271991E+01+
*       4.8728795058E+02               0
GRID*               9615               01.0480963314E+027.7532846038E+01+
*       4.8780352371E+02               0
GRID*               9616               01.0480968878E+027.7533123638E+01+
*       4.8677236353E+02               0
GRID*               9617               01.0455243362E+027.6689093595E+01+
*       4.8625669775E+02               0
GRID*               9618               01.0480975305E+027.7533444456E+01+
*       4.8574125716E+02               0
GRID*               9619               01.0413610343E+027.5911975020E+01+
*       4.8677211483E+02               0
GRID*               9620               01.0413628210E+027.5912241312E+01+
*       4.8574100037E+02               0
GRID*               9621               01.0357577879E+027.5230605601E+01+
*       4.8522538609E+02               0
GRID*               9622               01.0289472731E+027.4672658879E+01+
*       4.8574074605E+02               0
GRID*               9623               01.0413627232E+027.5912226255E+01+
*       4.8470997179E+02               0
GRID*               9624               01.0455235635E+027.6689437767E+01+
*       4.8419455381E+02               0
GRID*               9625               01.0481179006E+027.9287769603E+01+
*       4.8367945825E+02               0
GRID*               9626               01.0481183292E+027.9287546938E+01+
*       4.8471043109E+02               0
GRID*               9627               01.0489703169E+027.8410163418E+01+
*       4.8316377705E+02               0
GRID*               9628               01.0480979200E+027.7533638458E+01+
*       4.8367920975E+02               0
GRID*               9629               01.0481179214E+027.9287764477E+01+
*       4.8264849504E+02               0
GRID*               9630               01.0480980260E+027.7533691861E+01+
*       4.8471021950E+02               0
GRID*               9631               01.0489703169E+027.8409847006E+01+
*       4.8522576042E+02               0
GRID*               9632               01.0481230998E+027.9285057132E+01+
*       5.0017645279E+02               0
GRID*               9633               01.0481234432E+027.9284879479E+01+
*       5.0120729834E+02               0
GRID*               9634               01.0481228861E+027.9285169140E+01+
*       4.9914559555E+02               0
GRID*               9635               01.0481225606E+027.9285338125E+01+
*       4.9811465682E+02               0
GRID*               9636               01.0489702429E+027.8408328075E+01+
*       4.9966067930E+02               0
GRID*               9637               01.0480994818E+027.7532273288E+01+
*       5.0017586000E+02               0
GRID*               9638               01.0480992487E+027.7532339658E+01+
*       4.9914499584E+02               0
GRID*               9639               01.0481241391E+027.9284520175E+01+
*       5.0326887059E+02               0
GRID*               9640               01.0481237023E+027.9284744868E+01+
*       5.0223808764E+02               0
GRID*               9641               01.0489692374E+027.8407396368E+01+
*       5.0378388271E+02               0
GRID*               9642               01.0480996480E+027.7532031578E+01+
*       5.0326825718E+02               0
GRID*               9643               01.0481247837E+027.9284189958E+01+
*       5.0429965352E+02               0
GRID*               9644               01.0357527053E+027.5230098499E+01+
*       5.0172128409E+02               0
GRID*               9645               01.0413578337E+027.5911503032E+01+
*       5.0120609221E+02               0
GRID*               9646               01.0413571981E+027.5911408544E+01+
*       5.0223695174E+02               0
GRID*               9647               01.0289429529E+027.4672370700E+01+
*       5.0120548876E+02               0
GRID*               9648               01.0455227187E+027.6688457276E+01+
*       5.0069095754E+02               0
GRID*               9649               01.0480999463E+027.7532359011E+01+
*       5.0120662883E+02               0
GRID*               9650               01.0413573698E+027.5911433442E+01+
*       5.0017530605E+02               0
GRID*               9651               01.0455220595E+027.6688281901E+01+
*       5.0275260489E+02               0
GRID*               9652               01.0480999724E+027.7532261041E+01+
*       5.0223742766E+02               0
GRID*               9653               01.0489697550E+027.8407982620E+01+
*       5.0172231825E+02               0
GRID*               9654               01.0127388165E+027.4002160567E+01+
*       4.8677122214E+02               0
GRID*               9655               01.0127388145E+027.4002160545E+01+
*       4.8780214997E+02               0
GRID*               9656               01.0211686487E+027.4257551303E+01+
*       4.8625607038E+02               0
GRID*               9657               01.0289475899E+027.4672680019E+01+
*       4.8677173760E+02               0
GRID*               9658               01.0357582695E+027.5230653660E+01+
*       4.8728746958E+02               0
GRID*               9659               01.0289479745E+027.4672705686E+01+
*       4.8780279313E+02               0
GRID*               9660               01.0413612650E+027.5912009907E+01+
*       4.8780316110E+02               0
GRID*               9661               01.0455238728E+027.6688868998E+01+
*       4.8831893263E+02               0
GRID*               9662               01.0480962608E+027.7532811312E+01+
*       4.8883464918E+02               0
GRID*               9663               01.0413611047E+027.5911986405E+01+
*       4.8883429528E+02               0
GRID*               9664               01.0127392719E+027.4002169647E+01+
*       4.8883313778E+02               0
GRID*               9665               01.0127392699E+027.4002169625E+01+
*       4.8986406562E+02               0
GRID*               9666               01.0211694660E+027.4257585115E+01+
*       4.8831805464E+02               0
GRID*               9667               01.0289483549E+027.4672731070E+01+
*       4.8883377566E+02               0
GRID*               9668               01.0357571373E+027.5230540679E+01+
*       4.8934963477E+02               0
GRID*               9669               01.0289466468E+027.4672617102E+01+
*       4.8986489525E+02               0
GRID*               9670               01.0413599303E+027.5911811536E+01+
*       4.8986540486E+02               0
GRID*               9671               01.0127378825E+027.4002142093E+01+
*       4.9089510394E+02               0
GRID*               9672               01.0127378804E+027.4002142071E+01+
*       4.9192603177E+02               0
GRID*               9673               01.0211686372E+027.4257550838E+01+
*       4.9038008081E+02               0
GRID*               9674               01.0289454647E+027.4672538239E+01+
*       4.9089592788E+02               0
GRID*               9675               01.0481213569E+027.9285970395E+01+
*       4.9295950221E+02               0
GRID*               9676               01.0481209833E+027.9286164749E+01+
*       4.9192830916E+02               0
GRID*               9677               01.0481218154E+027.9285732981E+01+
*       4.9399064563E+02               0
GRID*               9678               01.0481220870E+027.9285590672E+01+
*       4.9502174806E+02               0
GRID*               9679               01.0489708003E+027.8408837003E+01+
*       4.9347485030E+02               0
GRID*               9680               01.0480969728E+027.7532416712E+01+
*       4.9399024985E+02               0
GRID*               9681               01.0480968270E+027.7532594660E+01+
*       4.9295910330E+02               0
GRID*               9682               01.0481203328E+027.9286504645E+01+
*       4.8986596241E+02               0
GRID*               9683               01.0481206321E+027.9286347811E+01+
*       4.9089715689E+02               0
GRID*               9684               01.0489705117E+027.8409081331E+01+
*       4.8935022960E+02               0
GRID*               9685               01.0480964164E+027.7532871668E+01+
*       4.8986575972E+02               0
GRID*               9686               01.0455249116E+027.6689116285E+01+
*       4.9244320896E+02               0
GRID*               9687               01.0480969258E+027.7532867716E+01+
*       4.9192794780E+02               0
GRID*               9688               01.0413591780E+027.5911700526E+01+
*       4.9295863025E+02               0
GRID*               9689               01.0413608266E+027.5911946181E+01+
*       4.9192745931E+02               0
GRID*               9690               01.0357559783E+027.5230425035E+01+
*       4.9141176624E+02               0
GRID*               9691               01.0289458192E+027.4672561894E+01+
*       4.9192695049E+02               0
GRID*               9692               01.0413606165E+027.5911914398E+01+
*       4.9089644754E+02               0
GRID*               9693               01.0489706672E+027.8409080585E+01+
*       4.9141251910E+02               0
GRID*               9694               01.0480968522E+027.7532997163E+01+
*       4.9089679093E+02               0
GRID*               9695               01.0455249590E+027.6689135223E+01+
*       4.9038105382E+02               0
GRID*               9696               01.0127383976E+027.4002152358E+01+
*       4.9295698931E+02               0
GRID*               9697               01.0127383955E+027.4002152335E+01+
*       4.9398791714E+02               0
GRID*               9698               01.0211678876E+027.4257519844E+01+
*       4.9244207672E+02               0
GRID*               9699               01.0289462494E+027.4672590603E+01+
*       4.9295790184E+02               0
GRID*               9700               01.0357567754E+027.5230504567E+01+
*       4.9347375199E+02               0
GRID*               9701               01.0289468401E+027.4672630014E+01+
*       4.9398887662E+02               0
GRID*               9702               01.0413595463E+027.5911755914E+01+
*       4.9398959329E+02               0
GRID*               9703               01.0455241390E+027.6688908230E+01+
*       4.9450533780E+02               0
GRID*               9704               01.0480975515E+027.7532451824E+01+
*       4.9502122619E+02               0
GRID*               9705               01.0413596466E+027.5911771295E+01+
*       4.9502058665E+02               0
GRID*               9706               01.0127389730E+027.4002163822E+01+
*       4.9501885261E+02               0
GRID*               9707               01.0127389709E+027.4002163799E+01+
*       4.9604978045E+02               0
GRID*               9708               01.0211690132E+027.4257566418E+01+
*       4.9450396980E+02               0
GRID*               9709               01.0289473211E+027.4672662110E+01+
*       4.9501980538E+02               0
GRID*               9710               01.0357561188E+027.5230439056E+01+
*       4.9553573517E+02               0
GRID*               9711               01.0289459699E+027.4672571963E+01+
*       4.9605082639E+02               0
GRID*               9712               01.0413587110E+027.5911632054E+01+
*       4.9605159495E+02               0
GRID*               9713               01.0127378753E+027.4002142063E+01+
*       4.9708075648E+02               0
GRID*               9714               01.0127378732E+027.4002142040E+01+
*       4.9811168431E+02               0
GRID*               9715               01.0211686460E+027.4257551247E+01+
*       4.9656588138E+02               0
GRID*               9716               01.0289450339E+027.4672509515E+01+
*       4.9708179519E+02               0
GRID*               9717               01.0357546381E+027.5230291323E+01+
*       4.9965948539E+02               0
GRID*               9718               01.0413583054E+027.5911572691E+01+
*       4.9914438193E+02               0
GRID*               9719               01.0127383075E+027.4002150683E+01+
*       4.9914259145E+02               0
GRID*               9720               01.0127383054E+027.4002150659E+01+
*       5.0017351929E+02               0
GRID*               9721               01.0211681720E+027.4257531666E+01+
*       4.9862776466E+02               0
GRID*               9722               01.0289455283E+027.4672542501E+01+
*       4.9811270449E+02               0
GRID*               9723               01.0289458872E+027.4672566447E+01+
*       4.9914360377E+02               0
GRID*               9724               01.0289445369E+027.4672476363E+01+
*       5.0017454279E+02               0
GRID*               9725               01.0211670090E+027.4257483595E+01+
*       5.0068962637E+02               0
GRID*               9726               01.0455236825E+027.6688725181E+01+
*       4.9862915612E+02               0
GRID*               9727               01.0480992302E+027.7532549614E+01+
*       4.9811403480E+02               0
GRID*               9728               01.0413595707E+027.5911761139E+01+
*       4.9811340284E+02               0
GRID*               9729               01.0357553789E+027.5230365230E+01+
*       4.9759765185E+02               0
GRID*               9730               01.0413592673E+027.5911715470E+01+
*       4.9708250729E+02               0
GRID*               9731               01.0455245204E+027.6688966699E+01+
*       4.9656723993E+02               0
GRID*               9732               01.0481218987E+027.9285682220E+01+
*       4.9605266382E+02               0
GRID*               9733               01.0481221414E+027.9285554907E+01+
*       4.9708366699E+02               0
GRID*               9734               01.0489708368E+027.8408818116E+01+
*       4.9553692854E+02               0
GRID*               9735               01.0480983480E+027.7532599009E+01+
*       4.9605214571E+02               0
GRID*               9736               01.0480990680E+027.7532712273E+01+
*       4.9708304031E+02               0
GRID*               9737               01.0489706401E+027.8408714989E+01+
*       4.9759883684E+02               0
GRID*               9738               09.8676714824E+017.4257839233E+01+
*       4.9450394177E+02               0
GRID*               9739               09.7899380046E+017.4672769406E+01+
*       4.9501998958E+02               0
GRID*               9740               09.9520292675E+017.4002181149E+01+
*       4.9501885314E+02               0
GRID*               9741               09.9520293508E+017.4002180967E+01+
*       4.9604977401E+02               0
GRID*               9742               09.9520438127E+017.4002152286E+01+
*       4.9398787893E+02               0
GRID*               9743               09.7218319429E+017.5230780408E+01+
*       4.9553611906E+02               0
GRID*               9744               09.6657947699E+017.5912316089E+01+
*       4.9605210216E+02               0
GRID*               9745               09.7899253667E+017.4672853762E+01+
*       4.9605102966E+02               0
GRID*               9746               09.9520366009E+017.4002166553E+01+
*       4.9708083203E+02               0
GRID*               9747               09.9520366924E+017.4002166353E+01+
*       4.9811175232E+02               0
GRID*               9748               09.8676658929E+017.4257862339E+01+
*       4.9656596097E+02               0
GRID*               9749               09.7899317516E+017.4672811174E+01+
*       4.9708207447E+02               0
GRID*               9750               09.5897220086E+017.8411269784E+01+
*       4.9759974285E+02               0
GRID*               9751               09.5984406547E+017.7534051109E+01+
*       4.9708387473E+02               0
GRID*               9752               09.5984371500E+017.7534227112E+01+
*       4.9811487622E+02               0
GRID*               9753               09.5982762627E+017.9289003327E+01+
*       4.9811532974E+02               0
GRID*               9754               09.6241449417E+017.6689676688E+01+
*       4.9656803142E+02               0
GRID*               9755               09.6657802600E+017.5912533041E+01+
*       4.9708308173E+02               0
GRID*               9756               09.6241375087E+017.6689854288E+01+
*       4.9863013543E+02               0
GRID*               9757               09.6657723603E+017.5912651262E+01+
*       4.9811404088E+02               0
GRID*               9758               09.6657760012E+017.5912597102E+01+
*       4.9914517591E+02               0
GRID*               9759               09.5984386601E+017.7534152138E+01+
*       4.9914600076E+02               0
GRID*               9760               09.7218109010E+017.5230990421E+01+
*       4.9759811829E+02               0
GRID*               9761               09.7899198227E+017.4672890799E+01+
*       4.9811304546E+02               0
GRID*               9762               09.8676622780E+017.4257877272E+01+
*       4.9862791706E+02               0
GRID*               9763               09.7899092848E+017.4672961145E+01+
*       4.9914394333E+02               0
GRID*               9764               09.9520239399E+017.4002191658E+01+
*       4.9914266449E+02               0
GRID*               9765               09.9520240404E+017.4002191441E+01+
*       5.0017358415E+02               0
GRID*               9766               09.7218121714E+017.5230977740E+01+
*       4.9966019079E+02               0
GRID*               9767               09.6657851636E+017.5912460460E+01+
*       5.0017627742E+02               0
GRID*               9768               09.7899228108E+017.4672870893E+01+
*       5.0017505767E+02               0
GRID*               9769               09.9520382979E+017.4002163111E+01+
*       5.0120462323E+02               0
GRID*               9770               09.9520384080E+017.4002162874E+01+
*       5.0223554221E+02               0
GRID*               9771               09.8676655636E+017.4257863652E+01+
*       5.0068985304E+02               0
GRID*               9772               09.7899351275E+017.4672788717E+01+
*       5.0120608126E+02               0
GRID*               9773               09.6237800015E+018.0133398028E+01+
*       5.0275465140E+02               0
GRID*               9774               09.5983095942E+017.9289158260E+01+
*       5.0223903479E+02               0
GRID*               9775               09.5983169212E+017.9289157513E+01+
*       5.0326991300E+02               0
GRID*               9776               09.6652308623E+018.0910479918E+01+
*       5.0326997888E+02               0
GRID*               9777               09.6652341856E+018.0910544623E+01+
*       5.0223911393E+02               0
GRID*               9778               09.6241354286E+017.6689903003E+01+
*       5.0069216689E+02               0
GRID*               9779               09.5984331328E+017.7534429998E+01+
*       5.0120780168E+02               0
GRID*               9780               09.5984352287E+017.7534324481E+01+
*       5.0017690516E+02               0
GRID*               9781               09.6657785029E+017.5912560077E+01+
*       5.0120718527E+02               0
GRID*               9782               09.5897231636E+017.8411876453E+01+
*       5.0172348623E+02               0
GRID*               9783               09.5983024298E+017.9289213821E+01+
*       5.0120809749E+02               0
GRID*               9784               09.5984328374E+017.7534445376E+01+
*       5.0223875418E+02               0
GRID*               9785               09.7214511046E+018.1597254751E+01+
*       5.0172377787E+02               0
GRID*               9786               09.6652343505E+018.0910561734E+01+
*       5.0120819195E+02               0
GRID*               9787               09.7897308748E+018.2157631045E+01+
*       5.0223921575E+02               0
GRID*               9788               09.7897190075E+018.2157551804E+01+
*       5.0120828690E+02               0
GRID*               9789               09.8675373451E+018.2573501460E+01+
*       5.0069287141E+02               0
GRID*               9790               09.9520085995E+018.2829577224E+01+
*       5.0120825706E+02               0
GRID*               9791               09.7897064567E+018.2157468009E+01+
*       5.0017741748E+02               0
GRID*               9792               09.6237684451E+018.0133116733E+01+
*       4.9863089065E+02               0
GRID*               9793               09.6652367196E+018.0910625685E+01+
*       4.9914631444E+02               0
GRID*               9794               09.5982845221E+017.9289135041E+01+
*       4.9914620797E+02               0
GRID*               9795               09.5897225748E+017.8411655030E+01+
*       4.9966163939E+02               0
GRID*               9796               09.5982942065E+017.9289228887E+01+
*       5.0017709829E+02               0
GRID*               9797               09.7214302797E+018.1597046404E+01+
*       4.9966195008E+02               0
GRID*               9798               09.6652373943E+018.0910621714E+01+
*       5.0017720398E+02               0
GRID*               9799               09.6237770259E+018.0133325231E+01+
*       5.0069277063E+02               0
GRID*               9800               09.7218099317E+017.5231000096E+01+
*       5.0172209396E+02               0
GRID*               9801               09.6657677740E+017.5912720424E+01+
*       5.0223797409E+02               0
GRID*               9802               09.7899190486E+017.4672896032E+01+
*       5.0223688396E+02               0
GRID*               9803               09.9520279977E+017.4002183527E+01+
*       5.0326639442E+02               0
GRID*               9804               09.9520281186E+017.4002183268E+01+
*       5.0429731266E+02               0
GRID*               9805               09.8676713763E+017.4257839573E+01+
*       5.0275172781E+02               0
GRID*               9806               09.7899104963E+017.4672953123E+01+
*       5.0326771940E+02               0
GRID*               9807               09.5897237690E+017.8411947026E+01+
*       5.0378525734E+02               0
GRID*               9808               09.5984291429E+017.7534630939E+01+
*       5.0326947459E+02               0
GRID*               9809               09.5984286629E+017.7534655552E+01+
*       5.0430030402E+02               0
GRID*               9810               09.5983221797E+017.9289131126E+01+
*       5.0430072784E+02               0
GRID*               9811               09.6241230492E+017.6690199774E+01+
*       5.0275379505E+02               0
GRID*               9812               09.6657565246E+017.5912888532E+01+
*       5.0326870673E+02               0
GRID*               9813               09.6241187772E+017.6690301306E+01+
*       5.0481538568E+02               0
GRID*               9814               09.6657488724E+017.5913002895E+01+
*       5.0429946289E+02               0
GRID*               9815               09.6657540974E+017.5912924890E+01+
*       5.0533033418E+02               0
GRID*               9816               09.5984307657E+017.7534550831E+01+
*       5.0533116207E+02               0
GRID*               9817               09.7217864274E+017.5231234719E+01+
*       5.0378365284E+02               0
GRID*               9818               09.7898990286E+017.4673029674E+01+
*       5.0429849060E+02               0
GRID*               9819               09.8676519222E+017.4257920023E+01+
*       5.0481336297E+02               0
GRID*               9820               09.7898883110E+017.4673101222E+01+
*       5.0532927326E+02               0
GRID*               9821               09.9520151443E+017.4002209016E+01+
*       5.0532811349E+02               0
GRID*               9822               09.9520152769E+017.4002208734E+01+
*       5.0635903093E+02               0
GRID*               9823               09.7217880667E+017.5231218354E+01+
*       5.0584530789E+02               0
GRID*               9824               09.6657631320E+017.5912789970E+01+
*       5.0636121801E+02               0
GRID*               9825               09.7899017281E+017.4673011681E+01+
*       5.0636017340E+02               0
GRID*               9826               09.9520285729E+017.4002182310E+01+
*       5.0738994981E+02               0
GRID*               9827               09.9520287180E+017.4002182003E+01+
*       5.0842086640E+02               0
GRID*               9828               09.8676551389E+017.4257906672E+01+
*       5.0687506331E+02               0
GRID*               9829               09.7899132477E+017.4672934810E+01+
*       5.0739107259E+02               0
GRID*               9830               01.0290047144E+028.2155287841E+01+
*       5.0326949142E+02               0
GRID*               9831               01.0212262163E+028.2571957898E+01+
*       5.0275420282E+02               0
GRID*               9832               01.0290055411E+028.2155232252E+01+
*       5.0430006789E+02               0
GRID*               9833               01.0212291093E+028.2571837816E+01+
*       5.0481550017E+02               0
GRID*               9834               01.0290067886E+028.2155148489E+01+
*       5.0533064580E+02               0
GRID*               9835               01.0358264267E+028.1594370633E+01+
*       5.0378465748E+02               0
GRID*               9836               01.0414432110E+028.0906916271E+01+
*       5.0429975816E+02               0
GRID*               9837               01.0290083497E+028.2155043719E+01+
*       5.0636123138E+02               0
GRID*               9838               01.0212318687E+028.2571723261E+01+
*       5.0687654950E+02               0
GRID*               9839               01.0290096414E+028.2154956994E+01+
*       5.0739170808E+02               0
GRID*               9840               01.0455802594E+028.0129643500E+01+
*       5.0481511416E+02               0
GRID*               9841               01.0481249977E+027.9284079131E+01+
*       5.0533021557E+02               0
GRID*               9842               01.0414444280E+028.0906718099E+01+
*       5.0533029755E+02               0
GRID*               9843               01.0358284194E+028.1594170905E+01+
*       5.0584582632E+02               0
GRID*               9844               01.0414463147E+028.0906419118E+01+
*       5.0636087833E+02               0
GRID*               9845               01.0127846077E+028.2828723388E+01+
*       5.0430030205E+02               0
GRID*               9846               01.0127860379E+028.2828694836E+01+
*       5.0533087552E+02               0
GRID*               9847               01.0127828987E+028.2828757513E+01+
*       5.0326959369E+02               0
GRID*               9848               01.0127812763E+028.2828789919E+01+
*       5.0223887349E+02               0
GRID*               9849               01.0039949871E+028.2915915814E+01+
*       5.0378498798E+02               0
GRID*               9850               09.9520394515E+018.2829638058E+01+
*       5.0326976169E+02               0
GRID*               9851               09.9520567140E+018.2829672118E+01+
*       5.0430046859E+02               0
GRID*               9852               09.8675663074E+018.2573621331E+01+
*       5.0275450257E+02               0
GRID*               9853               09.7897441060E+018.2157719414E+01+
*       5.0326997940E+02               0
GRID*               9854               09.9520233322E+018.2829606265E+01+
*       5.0223899944E+02               0
GRID*               9855               01.0039917733E+028.2915915974E+01+
*       5.0172353788E+02               0
GRID*               9856               09.9521153287E+018.2829787660E+01+
*       5.0842252939E+02               0
GRID*               9857               09.8676487285E+018.2573962327E+01+
*       5.0893785668E+02               0
GRID*               9858               09.9521331556E+018.2829822840E+01+
*       5.0945292927E+02               0
GRID*               9859               01.0127887892E+028.2828639936E+01+
*       5.0739184612E+02               0
GRID*               9860               01.0127873023E+028.2828669603E+01+
*       5.0636137424E+02               0
GRID*               9861               01.0040011034E+028.2915915447E+01+
*       5.0790716002E+02               0
GRID*               9862               09.9520972779E+018.2829752035E+01+
*       5.0739206036E+02               0
GRID*               9863               01.0127905912E+028.2828603988E+01+
*       5.0842231684E+02               0
GRID*               9864               09.9520705419E+018.2829699363E+01+
*       5.0533108256E+02               0
GRID*               9865               09.8675938414E+018.2573735267E+01+
*       5.0481587963E+02               0
GRID*               9866               09.9520832850E+018.2829724458E+01+
*       5.0636157970E+02               0
GRID*               9867               09.8676193958E+018.2573840989E+01+
*       5.0687697516E+02               0
GRID*               9868               01.0039980027E+028.2915915644E+01+
*       5.0584619290E+02               0
GRID*               9869               09.7897664394E+018.2157868596E+01+
*       5.0533120173E+02               0
GRID*               9870               09.7897551109E+018.2157792917E+01+
*       5.0430058626E+02               0
GRID*               9871               09.7897763599E+018.2157934879E+01+
*       5.0636181545E+02               0
GRID*               9872               09.7897878649E+018.2158011759E+01+
*       5.0739229773E+02               0
GRID*               9873               09.7214881251E+018.1597625062E+01+
*       5.0584654148E+02               0
GRID*               9874               09.6652286671E+018.0910416450E+01+
*       5.0533117491E+02               0
GRID*               9875               09.6652266161E+018.0910370066E+01+
*       5.0636178069E+02               0
GRID*               9876               09.6237846240E+018.0133510767E+01+
*       5.0481614321E+02               0
GRID*               9877               09.5983273756E+017.9289197460E+01+
*       5.0533134121E+02               0
GRID*               9878               09.6652298184E+018.0910449113E+01+
*       5.0430057829E+02               0
GRID*               9879               09.7214704740E+018.1597448511E+01+
*       5.0378531709E+02               0
GRID*               9880               09.6652227913E+018.0910247935E+01+
*       5.1048355521E+02               0
GRID*               9881               09.6238034004E+018.0133968218E+01+
*       5.1099909531E+02               0
GRID*               9882               09.6652219119E+018.0910218049E+01+
*       5.1151395557E+02               0
GRID*               9883               09.7898157834E+018.2158198337E+01+
*       5.0945310829E+02               0
GRID*               9884               09.7898009939E+018.2158099498E+01+
*       5.0842270665E+02               0
GRID*               9885               09.7215298162E+018.1598041991E+01+
*       5.0996843879E+02               0
GRID*               9886               09.6652230513E+018.0910268351E+01+
*       5.0945310675E+02               0
GRID*               9887               09.7898291750E+018.2158287846E+01+
*       5.1048356544E+02               0
GRID*               9888               09.6652235819E+018.0910308724E+01+
*       5.0739228686E+02               0
GRID*               9889               09.6237897523E+018.0133635817E+01+
*       5.0687727851E+02               0
GRID*               9890               09.6652233905E+018.0910289751E+01+
*       5.0842268740E+02               0
GRID*               9891               09.6237957137E+018.0133781101E+01+
*       5.0893823874E+02               0
GRID*               9892               09.7215075112E+018.1597818946E+01+
*       5.0790756825E+02               0
GRID*               9893               09.5983324243E+017.9289368674E+01+
*       5.0636182030E+02               0
GRID*               9894               09.5983330679E+017.9289432871E+01+
*       5.0739234730E+02               0
GRID*               9895               09.5897243787E+017.8412202622E+01+
*       5.0584656721E+02               0
GRID*               9896               09.5984268649E+017.7534746729E+01+
*       5.0636165417E+02               0
GRID*               9897               09.5983308366E+017.9289462382E+01+
*       5.0842291650E+02               0
GRID*               9898               09.5983286191E+017.9289602172E+01+
*       5.0945336077E+02               0
GRID*               9899               09.6241170259E+017.6690342131E+01+
*       5.0687684146E+02               0
GRID*               9900               09.5984245219E+017.7534864633E+01+
*       5.0739223871E+02               0
GRID*               9901               09.6657556631E+017.5912901512E+01+
*       5.0739181688E+02               0
GRID*               9902               09.5897249950E+017.8412462157E+01+
*       5.0790762715E+02               0
GRID*               9903               09.5984239627E+017.7534893194E+01+
*       5.0842281912E+02               0
GRID*               9904               09.9520152633E+017.4002208647E+01+
*       5.1254422909E+02               0
GRID*               9905               09.9520150895E+017.4002209012E+01+
*       5.1151331446E+02               0
GRID*               9906               09.9520072994E+017.4002224447E+01+
*       5.1357498497E+02               0
GRID*               9907               09.9520074895E+017.4002224050E+01+
*       5.1460589850E+02               0
GRID*               9908               09.8676454524E+017.4257946595E+01+
*       5.1305973466E+02               0
GRID*               9909               09.7898748128E+017.4673191399E+01+
*       5.1357520691E+02               0
GRID*               9910               09.7898812544E+017.4673148393E+01+
*       5.1254447604E+02               0
GRID*               9911               09.7217702071E+017.5231396652E+01+
*       5.1409059530E+02               0
GRID*               9912               09.6657372951E+017.5913175212E+01+
*       5.1460590491E+02               0
GRID*               9913               09.6657324587E+017.5913247611E+01+
*       5.1357529116E+02               0
GRID*               9914               09.7898820421E+017.4673143149E+01+
*       5.1460584311E+02               0
GRID*               9915               09.9520205803E+017.4002198029E+01+
*       5.1563668937E+02               0
GRID*               9916               09.9520207879E+017.4002197598E+01+
*       5.1666760172E+02               0
GRID*               9917               09.8676549202E+017.4257907351E+01+
*       5.1512125478E+02               0
GRID*               9918               09.7898934349E+017.4673067110E+01+
*       5.1563660688E+02               0
GRID*               9919               09.7217851383E+017.5231247588E+01+
*       5.0790680217E+02               0
GRID*               9920               09.6657443628E+017.5913070267E+01+
*       5.0842241099E+02               0
GRID*               9921               09.7898963897E+017.4673047333E+01+
*       5.0842168436E+02               0
GRID*               9922               09.9520170420E+017.4002205172E+01+
*       5.0945162401E+02               0
GRID*               9923               09.9520172009E+017.4002204837E+01+
*       5.1048253966E+02               0
GRID*               9924               09.8676599686E+017.4257886642E+01+
*       5.0893671884E+02               0
GRID*               9925               09.7898867850E+017.4673111452E+01+
*       5.0945242066E+02               0
GRID*               9926               09.7898758510E+017.4673184454E+01+
*       5.1151380898E+02               0
GRID*               9927               09.7217593854E+017.5231504699E+01+
*       5.1202931445E+02               0
GRID*               9928               09.7898773516E+017.4673174429E+01+
*       5.1048305727E+02               0
GRID*               9929               09.7217627729E+017.5231470877E+01+
*       5.0996803146E+02               0
GRID*               9930               09.8676507396E+017.4257924775E+01+
*       5.1099822856E+02               0
GRID*               9931               09.6657316936E+017.5913259466E+01+
*       5.0945290029E+02               0
GRID*               9932               09.6657253647E+017.5913353938E+01+
*       5.1048351778E+02               0
GRID*               9933               09.6241028934E+017.6690681230E+01+
*       5.0893791409E+02               0
GRID*               9934               09.5984198056E+017.7535101985E+01+
*       5.0945329294E+02               0
GRID*               9935               09.5983255052E+017.9289791220E+01+
*       5.1048378275E+02               0
GRID*               9936               09.5983202812E+017.9289939959E+01+
*       5.1151421141E+02               0
GRID*               9937               09.5897256141E+017.8412691624E+01+
*       5.0996862572E+02               0
GRID*               9938               09.5984164844E+017.7535268935E+01+
*       5.1048372464E+02               0
GRID*               9939               09.5897262309E+017.8412859248E+01+
*       5.1202956276E+02               0
GRID*               9940               09.5983115391E+017.9289937743E+01+
*       5.1254472178E+02               0
GRID*               9941               09.6657183863E+017.5913458099E+01+
*       5.1151403342E+02               0
GRID*               9942               09.6657220046E+017.5913403923E+01+
*       5.1254467976E+02               0
GRID*               9943               09.6240890075E+017.6691014458E+01+
*       5.1099890224E+02               0
GRID*               9944               09.5984143354E+017.7535377152E+01+
*       5.1151422352E+02               0
GRID*               9945               09.5984149650E+017.7535346113E+01+
*       5.1254474345E+02               0
GRID*               9946               09.6240908899E+017.6690967749E+01+
*       5.1306001113E+02               0
GRID*               9947               09.5984189414E+017.7535147365E+01+
*       5.1357533671E+02               0
GRID*               9948               09.9520189542E+017.4002201065E+01+
*       5.2594582204E+02               0
GRID*               9949               09.9520192746E+017.4002200410E+01+
*       5.2697672677E+02               0
GRID*               9950               09.9520227512E+017.4002193543E+01+
*       5.2491475956E+02               0
GRID*               9951               09.9520224572E+017.4002194147E+01+
*       5.2388385306E+02               0
GRID*               9952               09.8676873695E+017.4257772778E+01+
*       5.2542998233E+02               0
GRID*               9953               09.7899025870E+017.4673006057E+01+
*       5.2594517586E+02               0
GRID*               9954               09.7899053836E+017.4672987391E+01+
*       5.2491415380E+02               0
GRID*               9955               09.7218038052E+017.5231061245E+01+
*       5.2646058003E+02               0
GRID*               9956               09.6657602412E+017.5912829797E+01+
*       5.2594475834E+02               0
GRID*               9957               09.7899143718E+017.4672927406E+01+
*       5.2697638923E+02               0
GRID*               9958               09.9520318412E+017.4002175433E+01+
*       5.2800782766E+02               0
GRID*               9959               09.8676989167E+017.4257724959E+01+
*       5.2749210239E+02               0
GRID*               9960               09.9520105753E+017.4002217766E+01+
*       5.2285289205E+02               0
GRID*               9961               09.9520103054E+017.4002218321E+01+
*       5.2182198391E+02               0
GRID*               9962               09.8676761296E+017.4257819334E+01+
*       5.2336799877E+02               0
GRID*               9963               09.7898927019E+017.4673072031E+01+
*       5.2388309262E+02               0
GRID*               9964               09.7898822520E+017.4673141780E+01+
*       5.2285216893E+02               0
GRID*               9965               09.7217776539E+017.5231322305E+01+
*       5.2233633600E+02               0
GRID*               9966               09.7898891197E+017.4673095937E+01+
*       5.2182119099E+02               0
GRID*               9967               09.6657435486E+017.5913080006E+01+
*       5.2285144415E+02               0
GRID*               9968               09.6657481901E+017.5913010952E+01+
*       5.2182049712E+02               0
GRID*               9969               09.9520177369E+017.4002203580E+01+
*       5.2079105120E+02               0
GRID*               9970               09.9520174896E+017.4002204090E+01+
*       5.1976014155E+02               0
GRID*               9971               09.8676679404E+017.4257853274E+01+
*       5.2130614187E+02               0
GRID*               9972               09.7898950418E+017.4673056406E+01+
*       5.2079029273E+02               0
GRID*               9973               09.6241235066E+017.6690808187E+01+
*       5.2542890171E+02               0
GRID*               9974               09.6657448759E+017.5913059595E+01+
*       5.2491357282E+02               0
GRID*               9975               09.5984278623E+017.7534705293E+01+
*       5.2491311636E+02               0
GRID*               9976               09.5897295175E+017.8412364073E+01+
*       5.2439728058E+02               0
GRID*               9977               09.5981984664E+017.9289061002E+01+
*       5.2388129424E+02               0
GRID*               9978               09.5984257875E+017.7534808835E+01+
*       5.2388194677E+02               0
GRID*               9979               09.7217827775E+017.5231271154E+01+
*       5.2439834169E+02               0
GRID*               9980               09.6657363958E+017.5913186563E+01+
*       5.2388254514E+02               0
GRID*               9981               09.6241193048E+017.6690975440E+01+
*       5.2336663878E+02               0
GRID*               9982               09.5984279468E+017.7534700318E+01+
*       5.2285087271E+02               0
GRID*               9983               09.5984253586E+017.7534829537E+01+
*       5.2181994451E+02               0
GRID*               9984               09.5897290559E+017.8412589825E+01+
*       5.2233520572E+02               0
GRID*               9985               09.5984201335E+017.7535090859E+01+
*       5.2078918342E+02               0
GRID*               9986               09.5897285495E+017.8412716092E+01+
*       5.2027356819E+02               0
GRID*               9987               09.5984199144E+017.7535101414E+01+
*       5.1975845284E+02               0
GRID*               9988               09.6241123412E+017.6691056006E+01+
*       5.2130478905E+02               0
GRID*               9989               09.6657342731E+017.5913219093E+01+
*       5.2078971113E+02               0
GRID*               9990               09.7217739653E+017.5231359131E+01+
*       5.2027460494E+02               0
GRID*               9991               09.7898840196E+017.4673129973E+01+
*       5.1975950877E+02               0
GRID*               9992               09.6657269059E+017.5913329395E+01+
*       5.1975895571E+02               0
GRID*               9993               09.5984217541E+017.7535008814E+01+
*       5.1872775683E+02               0
GRID*               9994               09.5897280063E+017.8412750854E+01+
*       5.1821230542E+02               0
GRID*               9995               09.5984208806E+017.7535052126E+01+
*       5.1769720496E+02               0
GRID*               9996               09.6241017639E+017.6691094494E+01+
*       5.1924333256E+02               0
GRID*               9997               09.6657331036E+017.5913237044E+01+
*       5.1872823674E+02               0
GRID*               9998               09.7217598288E+017.5231500272E+01+
*       5.1821314387E+02               0
GRID*               9999               09.6657294865E+017.5913291297E+01+
*       5.1769755749E+02               0
GRID*              10000               09.9520058756E+017.4002227178E+01+
*       5.1872931609E+02               0
GRID*              10001               09.9520056489E+017.4002227648E+01+
*       5.1769840504E+02               0
GRID*              10002               09.8676596088E+017.4257887811E+01+
*       5.1924441765E+02               0
GRID*              10003               09.7898738416E+017.4673197909E+01+
*       5.1872871512E+02               0
GRID*              10004               09.7898684119E+017.4673234151E+01+
*       5.1769800953E+02               0
GRID*              10005               09.8676580882E+017.4257894170E+01+
*       5.1718282015E+02               0
GRID*              10006               09.7898808965E+017.4673150807E+01+
*       5.1666723555E+02               0
GRID*              10007               09.5984170702E+017.7535242578E+01+
*       5.1666666290E+02               0
GRID*              10008               09.5897274334E+017.8412875858E+01+
*       5.1615130845E+02               0
GRID*              10009               09.5984150353E+017.7535344075E+01+
*       5.1563619953E+02               0
GRID*              10010               09.6240933348E+017.6691037066E+01+
*       5.1718210110E+02               0
GRID*              10011               09.6657195555E+017.5913439864E+01+
*       5.1666699418E+02               0
GRID*              10012               09.7217657734E+017.5231440919E+01+
*       5.1615183590E+02               0
GRID*              10013               09.6657279933E+017.5913313995E+01+
*       5.1563638982E+02               0
GRID*              10014               09.5984179806E+017.7535196001E+01+
*       5.1460573424E+02               0
GRID*              10015               09.5897268395E+017.8412904483E+01+
*       5.1409046449E+02               0
GRID*              10016               09.6240910549E+017.6690962431E+01+
*       5.1512108782E+02               0
GRID*              10017               09.5982871571E+017.9290012748E+01+
*       5.1666627875E+02               0
GRID*              10018               09.5982922594E+017.9290131968E+01+
*       5.1563583056E+02               0
GRID*              10019               09.5982839935E+017.9289966311E+01+
*       5.1769677126E+02               0
GRID*              10020               09.5982751183E+017.9289859530E+01+
*       5.1872729711E+02               0
GRID*              10021               09.6238090919E+018.0134109612E+01+
*       5.1718140848E+02               0
GRID*              10022               09.6651894070E+018.0909627627E+01+
*       5.1769608124E+02               0
GRID*              10023               09.6651976273E+018.0909768343E+01+
*       5.1666561424E+02               0
GRID*              10024               09.7215808881E+018.1598552581E+01+
*       5.1821150529E+02               0
GRID*              10025               09.7898909378E+018.2158701208E+01+
*       5.1872655232E+02               0
GRID*              10026               09.7898876464E+018.2158679081E+01+
*       5.1769601196E+02               0
GRID*              10027               09.6651817281E+018.0909494917E+01+
*       5.1872661280E+02               0
GRID*              10028               09.5982631055E+017.9289756098E+01+
*       5.1975788995E+02               0
GRID*              10029               09.5982492107E+017.9289661524E+01+
*       5.2078858674E+02               0
GRID*              10030               09.6238057889E+018.0134031067E+01+
*       5.1924249501E+02               0
GRID*              10031               09.6651720007E+018.0909331434E+01+
*       5.1975718806E+02               0
GRID*              10032               01.0040142818E+028.2915914368E+01+
*       5.2027214583E+02               0
GRID*              10033               09.9522297057E+018.2830012946E+01+
*       5.1975689928E+02               0
GRID*              10034               09.9522325428E+018.2830018497E+01+
*       5.2078764540E+02               0
GRID*              10035               01.0128021993E+028.2828373089E+01+
*       5.1975664491E+02               0
GRID*              10036               09.8677433498E+018.2574353516E+01+
*       5.1924176560E+02               0
GRID*              10037               09.7898893633E+018.2158690854E+01+
*       5.1975722889E+02               0
GRID*              10038               09.9522313560E+018.2830016292E+01+
*       5.1872622531E+02               0
GRID*              10039               09.5982159481E+017.9289299175E+01+
*       5.2285031344E+02               0
GRID*              10040               09.5982333162E+017.9289514042E+01+
*       5.2181942198E+02               0
GRID*              10041               09.6237894160E+018.0133637840E+01+
*       5.2336576750E+02               0
GRID*              10042               09.6651387142E+018.0908779069E+01+
*       5.2284960082E+02               0
GRID*              10043               09.8677457858E+018.2574363554E+01+
*       5.2130322998E+02               0
GRID*              10044               09.7898881037E+018.2158682612E+01+
*       5.2078798293E+02               0
GRID*              10045               09.7898919114E+018.2158708213E+01+
*       5.2181877461E+02               0
GRID*              10046               09.7215821505E+018.1598565200E+01+
*       5.2027280639E+02               0
GRID*              10047               09.6651611830E+018.0909151537E+01+
*       5.2078793357E+02               0
GRID*              10048               09.7215796717E+018.1598540422E+01+
*       5.2233442325E+02               0
GRID*              10049               09.6651494889E+018.0908958445E+01+
*       5.2181875345E+02               0
GRID*              10050               09.6238001332E+018.0133895675E+01+
*       5.2130393616E+02               0
GRID*              10051               09.9521556871E+018.2829867195E+01+
*       5.1151348893E+02               0
GRID*              10052               09.9521704586E+018.2829896327E+01+
*       5.1254378266E+02               0
GRID*              10053               01.0040069288E+028.2915915019E+01+
*       5.1202849545E+02               0
GRID*              10054               09.9521456081E+018.2829847367E+01+
*       5.1048321454E+02               0
GRID*              10055               01.0040041801E+028.2915915230E+01+
*       5.0996791534E+02               0
GRID*              10056               09.8676744063E+018.2574068522E+01+
*       5.1099853201E+02               0
GRID*              10057               09.7898374302E+018.2158343055E+01+
*       5.1151384173E+02               0
GRID*              10058               09.9521844174E+018.2829923851E+01+
*       5.1357410361E+02               0
GRID*              10059               09.9521961392E+018.2829946949E+01+
*       5.1460441279E+02               0
GRID*              10060               01.0040096096E+028.2915914796E+01+
*       5.1408909956E+02               0
GRID*              10061               09.7215500114E+018.1598243912E+01+
*       5.1202919185E+02               0
GRID*              10062               09.7898481174E+018.2158414516E+01+
*       5.1254413279E+02               0
GRID*              10063               09.6652196441E+018.0910167192E+01+
*       5.1254423776E+02               0
GRID*              10064               09.8676964742E+018.2574159768E+01+
*       5.1305912847E+02               0
GRID*              10065               09.7898596925E+018.2158491916E+01+
*       5.1357445578E+02               0
GRID*              10066               09.5983049971E+017.9290061233E+01+
*       5.1357503358E+02               0
GRID*              10067               09.5982982761E+017.9290129547E+01+
*       5.1460542016E+02               0
GRID*              10068               09.6238098151E+018.0134124610E+01+
*       5.1305981604E+02               0
GRID*              10069               09.6652171802E+018.0910113231E+01+
*       5.1357451928E+02               0
GRID*              10070               09.9522113916E+018.2829976938E+01+
*       5.1666519884E+02               0
GRID*              10071               01.0040116207E+028.2915914618E+01+
*       5.1614982778E+02               0
GRID*              10072               09.9522032671E+018.2829960952E+01+
*       5.1563478108E+02               0
GRID*              10073               09.9522237903E+018.2830001397E+01+
*       5.1769564967E+02               0
GRID*              10074               01.0040132163E+028.2915914470E+01+
*       5.1821082257E+02               0
GRID*              10075               09.8677336820E+018.2574313574E+01+
*       5.1718063937E+02               0
GRID*              10076               09.7898773359E+018.2158610094E+01+
*       5.1666555873E+02               0
GRID*              10077               09.6238113791E+018.0134163672E+01+
*       5.1512051862E+02               0
GRID*              10078               09.6652034760E+018.0909873421E+01+
*       5.1563521131E+02               0
GRID*              10079               09.6652116096E+018.0910012590E+01+
*       5.1460483093E+02               0
GRID*              10080               09.7215735525E+018.1598479254E+01+
*       5.1615054689E+02               0
GRID*              10081               09.7898715026E+018.2158571011E+01+
*       5.1563514686E+02               0
GRID*              10082               09.7215638696E+018.1598382458E+01+
*       5.1408980874E+02               0
GRID*              10083               09.7898656889E+018.2158532069E+01+
*       5.1460477636E+02               0
GRID*              10084               09.8677157962E+018.2574239645E+01+
*       5.1511981893E+02               0
GRID*              10085               01.0127990417E+028.2828435695E+01+
*       5.1563443753E+02               0
GRID*              10086               01.0127998800E+028.2828419056E+01+
*       5.1666485761E+02               0
GRID*              10087               01.0127977097E+028.2828462209E+01+
*       5.1460409973E+02               0
GRID*              10088               01.0127965191E+028.2828485903E+01+
*       5.1357378841E+02               0
GRID*              10089               01.0212405365E+028.2571363326E+01+
*       5.1511915621E+02               0
GRID*              10090               01.0290168043E+028.2154475771E+01+
*       5.1563420264E+02               0
GRID*              10091               01.0290156574E+028.2154552752E+01+
*       5.1460385819E+02               0
GRID*              10092               01.0127956625E+028.2828502931E+01+
*       5.1254347286E+02               0
GRID*              10093               01.0127941742E+028.2828532588E+01+
*       5.1151317713E+02               0
GRID*              10094               01.0358347094E+028.1593540309E+01+
*       5.1408856995E+02               0
GRID*              10095               01.0290151445E+028.2154587261E+01+
*       5.1357349434E+02               0
GRID*              10096               01.0414578069E+028.0904560193E+01+
*       5.1460342008E+02               0
GRID*              10097               01.0414565168E+028.0904771223E+01+
*       5.1357306119E+02               0
GRID*              10098               01.0212384803E+028.2571448725E+01+
*       5.1305849737E+02               0
GRID*              10099               01.0290143973E+028.2154637481E+01+
*       5.1254317265E+02               0
GRID*              10100               01.0128011744E+028.2828393439E+01+
*       5.1872600194E+02               0
GRID*              10101               01.0128003846E+028.2828409095E+01+
*       5.1769542380E+02               0
GRID*              10102               01.0212436900E+028.2571232348E+01+
*       5.1924128175E+02               0
GRID*              10103               01.0290186947E+028.2154348758E+01+
*       5.1872587765E+02               0
GRID*              10104               01.0212422588E+028.2571291791E+01+
*       5.1718006614E+02               0
GRID*              10105               01.0290176768E+028.2154417071E+01+
*       5.1769529822E+02               0
GRID*              10106               01.0290172339E+028.2154446864E+01+
*       5.1666472482E+02               0
GRID*              10107               01.0358367177E+028.1593338917E+01+
*       5.1821057861E+02               0
GRID*              10108               01.0414617547E+028.0903914544E+01+
*       5.1769497753E+02               0
GRID*              10109               01.0489680027E+027.8405687781E+01+
*       5.1614942411E+02               0
GRID*              10110               01.0481269862E+027.9283069516E+01+
*       5.1563426346E+02               0
GRID*              10111               01.0481272601E+027.9282933055E+01+
*       5.1666484041E+02               0
GRID*              10112               01.0480927731E+027.7530529792E+01+
*       5.1563442494E+02               0
GRID*              10113               01.0455851516E+028.0128460965E+01+
*       5.1511901703E+02               0
GRID*              10114               01.0414586745E+028.0904412468E+01+
*       5.1563394570E+02               0
GRID*              10115               01.0481269530E+027.9283083981E+01+
*       5.1460370628E+02               0
GRID*              10116               01.0455860648E+028.0128240403E+01+
*       5.1718010460E+02               0
GRID*              10117               01.0414599279E+028.0904206648E+01+
*       5.1666446321E+02               0
GRID*              10118               01.0358354972E+028.1593461307E+01+
*       5.1614946607E+02               0
GRID*              10119               01.0414477385E+028.0906189410E+01+
*       5.0739131493E+02               0
GRID*              10120               01.0455812616E+028.0129401174E+01+
*       5.0687612578E+02               0
GRID*              10121               01.0414490272E+028.0905979755E+01+
*       5.0842163259E+02               0
GRID*              10122               01.0414507090E+028.0905710835E+01+
*       5.0945197770E+02               0
GRID*              10123               01.0455825532E+028.0129088589E+01+
*       5.0893694552E+02               0
GRID*              10124               01.0358302365E+028.1593988756E+01+
*       5.0790674200E+02               0
GRID*              10125               01.0290102571E+028.2154915554E+01+
*       5.0842203084E+02               0
GRID*              10126               01.0414534707E+028.0905262778E+01+
*       5.1151253984E+02               0
GRID*              10127               01.0455837429E+028.0128800749E+01+
*       5.1099759393E+02               0
GRID*              10128               01.0414521524E+028.0905477506E+01+
*       5.1048227704E+02               0
GRID*              10129               01.0414552596E+028.0904977163E+01+
*       5.1254278804E+02               0
GRID*              10130               01.0455846137E+028.0128590393E+01+
*       5.1305817285E+02               0
GRID*              10131               01.0358331902E+028.1593692638E+01+
*       5.1202794353E+02               0
GRID*              10132               01.0290130987E+028.2154724650E+01+
*       5.1151291941E+02               0
GRID*              10133               01.0358314223E+028.1593869883E+01+
*       5.0996737719E+02               0
GRID*              10134               01.0127926383E+028.2828563203E+01+
*       5.1048288965E+02               0
GRID*              10135               01.0127913889E+028.2828588101E+01+
*       5.0945260255E+02               0
GRID*              10136               01.0212362288E+028.2571542230E+01+
*       5.1099788926E+02               0
GRID*              10137               01.0290117726E+028.2154813665E+01+
*       5.1048262625E+02               0
GRID*              10138               01.0290109611E+028.2154868204E+01+
*       5.0945232177E+02               0
GRID*              10139               01.0212340282E+028.2571633605E+01+
*       5.0893731140E+02               0
GRID*              10140               01.0481258191E+027.9283656862E+01+
*       5.0945199901E+02               0
GRID*              10141               01.0481254670E+027.9283836591E+01+
*       5.0842162786E+02               0
GRID*              10142               01.0481261866E+027.9283469712E+01+
*       5.1048236995E+02               0
GRID*              10143               01.0481263996E+027.9283361657E+01+
*       5.1151266062E+02               0
GRID*              10144               01.0489681004E+027.8406398006E+01+
*       5.0996693828E+02               0
GRID*              10145               01.0480965238E+027.7531149621E+01+
*       5.1048218269E+02               0
GRID*              10146               01.0480973269E+027.7531340462E+01+
*       5.0945179018E+02               0
GRID*              10147               01.0481249080E+027.9284123177E+01+
*       5.0636069121E+02               0
GRID*              10148               01.0481251820E+027.9283982492E+01+
*       5.0739115216E+02               0
GRID*              10149               01.0489687685E+027.8406996797E+01+
*       5.0584513629E+02               0
GRID*              10150               01.0480986334E+027.7531584637E+01+
*       5.0636025693E+02               0
GRID*              10151               01.0455169097E+027.6688323794E+01+
*       5.0893634030E+02               0
GRID*              10152               01.0480982082E+027.7531596676E+01+
*       5.0842125884E+02               0
GRID*              10153               01.0413543736E+027.5910989325E+01+
*       5.0945169000E+02               0
GRID*              10154               01.0413556678E+027.5911182128E+01+
*       5.0842114429E+02               0
GRID*              10155               01.0357512075E+027.5229949083E+01+
*       5.0790577189E+02               0
GRID*              10156               01.0289419059E+027.4672300856E+01+
*       5.0842100094E+02               0
GRID*              10157               01.0413552762E+027.5911123405E+01+
*       5.0739052947E+02               0
GRID*              10158               01.0489683856E+027.8406802608E+01+
*       5.0790608699E+02               0
GRID*              10159               01.0480987680E+027.7531736956E+01+
*       5.0739076449E+02               0
GRID*              10160               01.0455184148E+027.6688217434E+01+
*       5.0687533034E+02               0
GRID*              10161               01.0481265374E+027.9283293739E+01+
*       5.1357334155E+02               0
GRID*              10162               01.0481263570E+027.9283384210E+01+
*       5.1254303874E+02               0
GRID*              10163               01.0455151649E+027.6687654917E+01+
*       5.1511929047E+02               0
GRID*              10164               01.0480937945E+027.7530773026E+01+
*       5.1460390117E+02               0
GRID*              10165               01.0413519923E+027.5910635306E+01+
*       5.1460441753E+02               0
GRID*              10166               01.0489679079E+027.8406005927E+01+
*       5.1408845835E+02               0
GRID*              10167               01.0480947904E+027.7530998146E+01+
*       5.1357351063E+02               0
GRID*              10168               01.0357488238E+027.5229711339E+01+
*       5.1408942127E+02               0
GRID*              10169               01.0413532744E+027.5910826341E+01+
*       5.1357384381E+02               0
GRID*              10170               01.0289397783E+027.4672158935E+01+
*       5.1357447957E+02               0
GRID*              10171               01.0127359875E+027.4002104878E+01+
*       5.1254408175E+02               0
GRID*              10172               01.0127359897E+027.4002104902E+01+
*       5.1151315392E+02               0
GRID*              10173               01.0211651283E+027.4257406143E+01+
*       5.1305941130E+02               0
GRID*              10174               01.0289407966E+027.4672226855E+01+
*       5.1254374600E+02               0
GRID*              10175               01.0357519254E+027.5230020696E+01+
*       5.0996701255E+02               0
GRID*              10176               01.0413545064E+027.5911009408E+01+
*       5.1048229519E+02               0
GRID*              10177               01.0127374108E+027.4002133073E+01+
*       5.0945147004E+02               0
GRID*              10178               01.0127374086E+027.4002133049E+01+
*       5.1048239787E+02               0
GRID*              10179               01.0211671985E+027.4257491614E+01+
*       5.0893638103E+02               0
GRID*              10180               01.0289427476E+027.4672356999E+01+
*       5.0945175961E+02               0
GRID*              10181               01.0289429895E+027.4672373137E+01+
*       5.1048238698E+02               0
GRID*              10182               01.0211671724E+027.4257490596E+01+
*       5.1099790772E+02               0
GRID*              10183               01.0289417760E+027.4672292184E+01+
*       5.1151313039E+02               0
GRID*              10184               01.0489679409E+027.8406196780E+01+
*       5.1202769818E+02               0
GRID*              10185               01.0480958759E+027.7531267094E+01+
*       5.1254306343E+02               0
GRID*              10186               01.0480963167E+027.7531253698E+01+
*       5.1151266187E+02               0
GRID*              10187               01.0455157797E+027.6688189129E+01+
*       5.1305828051E+02               0
GRID*              10188               01.0413545916E+027.5911022621E+01+
*       5.1254338125E+02               0
GRID*              10189               01.0455159186E+027.6688308931E+01+
*       5.1099734011E+02               0
GRID*              10190               01.0413552791E+027.5911124943E+01+
*       5.1151278966E+02               0
GRID*              10191               01.0357512729E+027.5229955614E+01+
*       5.1202823171E+02               0
GRID*              10192               01.0127395549E+027.4002174934E+01+
*       4.6821418365E+02               0
GRID*              10193               01.0127395533E+027.4002174915E+01+
*       4.6924511148E+02               0
GRID*              10194               01.0127381117E+027.4002146257E+01+
*       4.6718302656E+02               0
GRID*              10195               01.0127381133E+027.4002146275E+01+
*       4.6615209872E+02               0
GRID*              10196               01.0211694874E+027.4257586079E+01+
*       4.6769853399E+02               0
GRID*              10197               01.0289478376E+027.4672696442E+01+
*       4.6718284543E+02               0
GRID*              10198               01.0289490551E+027.4672777688E+01+
*       4.6821400010E+02               0
GRID*              10199               01.0357582612E+027.5230652828E+01+
*       4.6872970107E+02               0
GRID*              10200               01.0289478121E+027.4672694751E+01+
*       4.6924538998E+02               0
GRID*              10201               01.0413634709E+027.5912330702E+01+
*       4.6821402720E+02               0
GRID*              10202               01.0413626130E+027.5912203068E+01+
*       4.6924541250E+02               0
GRID*              10203               01.0127386561E+027.4002157113E+01+
*       4.7027624473E+02               0
GRID*              10204               01.0127386543E+027.4002157094E+01+
*       4.7130717256E+02               0
GRID*              10205               01.0211699015E+027.4257603192E+01+
*       4.6976082426E+02               0
GRID*              10206               01.0289470473E+027.4672643732E+01+
*       4.7027652064E+02               0
GRID*              10207               01.0489695883E+027.8411230121E+01+
*       4.6666622106E+02               0
GRID*              10208               01.0480995948E+027.7534474234E+01+
*       4.6718227897E+02               0
GRID*              10209               01.0480998878E+027.7534620978E+01+
*       4.6615050877E+02               0
GRID*              10210               01.0481144811E+027.9289594964E+01+
*       4.6615025840E+02               0
GRID*              10211               01.0481148261E+027.9289415088E+01+
*       4.6718202484E+02               0
GRID*              10212               01.0455256312E+027.6689371072E+01+
*       4.6769813531E+02               0
GRID*              10213               01.0413656362E+027.5912653589E+01+
*       4.6718241081E+02               0
GRID*              10214               01.0480988113E+027.7534081963E+01+
*       4.6821389111E+02               0
GRID*              10215               01.0455268140E+027.6689635313E+01+
*       4.6563488121E+02               0
GRID*              10216               01.0413664253E+027.5912770991E+01+
*       4.6615100733E+02               0
GRID*              10217               01.0413658456E+027.5912683985E+01+
*       4.6511936508E+02               0
GRID*              10218               01.0480997084E+027.7534531161E+01+
*       4.6511887047E+02               0
GRID*              10219               01.0357602899E+027.5230855294E+01+
*       4.6666690800E+02               0
GRID*              10220               01.0289489794E+027.4672772623E+01+
*       4.6615143771E+02               0
GRID*              10221               01.0211700319E+027.4257608621E+01+
*       4.6563618803E+02               0
GRID*              10222               01.0289505973E+027.4672880582E+01+
*       4.6512025100E+02               0
GRID*              10223               01.0127400184E+027.4002184095E+01+
*       4.6512090980E+02               0
GRID*              10224               01.0127400200E+027.4002184112E+01+
*       4.6408998196E+02               0
GRID*              10225               01.0357604876E+027.5230875027E+01+
*       4.6460403356E+02               0
GRID*              10226               01.0413652596E+027.5912596044E+01+
*       4.6408789810E+02               0
GRID*              10227               01.0289496900E+027.4672820030E+01+
*       4.6408878010E+02               0
GRID*              10228               01.0127385899E+027.4002155696E+01+
*       4.6305875009E+02               0
GRID*              10229               01.0127385914E+027.4002155713E+01+
*       4.6202782225E+02               0
GRID*              10230               01.0211705956E+027.4257631960E+01+
*       4.6357376730E+02               0
GRID*              10231               01.0289484833E+027.4672739503E+01+
*       4.6305755029E+02               0
GRID*              10232               01.0357590102E+027.5230727583E+01+
*       4.7079221710E+02               0
GRID*              10233               01.0289491689E+027.4672785302E+01+
*       4.7130765168E+02               0
GRID*              10234               01.0413634795E+027.5912332879E+01+
*       4.7027678048E+02               0
GRID*              10235               01.0413648788E+027.5912542260E+01+
*       4.7130790659E+02               0
GRID*              10236               01.0455248061E+027.6689215767E+01+
*       4.7182376468E+02               0
GRID*              10237               01.0480987279E+027.7534040300E+01+
*       4.7130835529E+02               0
GRID*              10238               01.0480984400E+027.7533896286E+01+
*       4.7233963700E+02               0
GRID*              10239               01.0413641212E+027.5912429583E+01+
*       4.7233919315E+02               0
GRID*              10240               01.0127400720E+027.4002185265E+01+
*       4.7233816423E+02               0
GRID*              10241               01.0127400703E+027.4002185246E+01+
*       4.7336909206E+02               0
GRID*              10242               01.0211703005E+027.4257619682E+01+
*       4.7182294913E+02               0
GRID*              10243               01.0289503644E+027.4672865082E+01+
*       4.7233864053E+02               0
GRID*              10244               01.0357597776E+027.5230804162E+01+
*       4.7285446187E+02               0
GRID*              10245               01.0289491434E+027.4672783606E+01+
*       4.7336975954E+02               0
GRID*              10246               01.0413632771E+027.5912304001E+01+
*       4.7337030682E+02               0
GRID*              10247               01.0127391078E+027.4002166148E+01+
*       4.7440008289E+02               0
GRID*              10248               01.0127391060E+027.4002166128E+01+
*       4.7543101072E+02               0
GRID*              10249               01.0211706482E+027.4257634051E+01+
*       4.7388493157E+02               0
GRID*              10250               01.0289483230E+027.4672728875E+01+
*       4.7440074734E+02               0
GRID*              10251               01.0489701489E+027.8410972304E+01+
*       4.7079266373E+02               0
GRID*              10252               01.0481154152E+027.9289100616E+01+
*       4.7027707977E+02               0
GRID*              10253               01.0481159464E+027.9288826225E+01+
*       4.7130860476E+02               0
GRID*              10254               01.0480992074E+027.7534280259E+01+
*       4.7027682604E+02               0
GRID*              10255               01.0455247026E+027.6689168825E+01+
*       4.6976111498E+02               0
GRID*              10256               01.0480989258E+027.7534139309E+01+
*       4.6924546259E+02               0
GRID*              10257               01.0357935132E+028.1597665879E+01+
*       4.6872933192E+02               0
GRID*              10258               01.0414001247E+028.0913758305E+01+
*       4.6924532542E+02               0
GRID*              10259               01.0413990848E+028.0913924682E+01+
*       4.6821350124E+02               0
GRID*              10260               01.0289610841E+028.2158215486E+01+
*       4.6821327084E+02               0
GRID*              10261               01.0289623203E+028.2158132616E+01+
*       4.6924509333E+02               0
GRID*              10262               01.0455601615E+028.0134503692E+01+
*       4.6976123927E+02               0
GRID*              10263               01.0481149185E+027.9289357464E+01+
*       4.6924534196E+02               0
GRID*              10264               01.0414015002E+028.0913541592E+01+
*       4.7027706029E+02               0
GRID*              10265               01.0455589620E+028.0134793512E+01+
*       4.6769775442E+02               0
GRID*              10266               01.0481149777E+027.9289332990E+01+
*       4.6821377447E+02               0
GRID*              10267               01.0413987353E+028.0913987590E+01+
*       4.6718175444E+02               0
GRID*              10268               01.0489698532E+027.8411091289E+01+
*       4.6872955612E+02               0
GRID*              10269               09.9520441724E+017.4002151686E+01+
*       4.8677100896E+02               0
GRID*              10270               09.9520442295E+017.4002151557E+01+
*       4.8780193173E+02               0
GRID*              10271               09.9520521980E+017.4002135768E+01+
*       4.8574001534E+02               0
GRID*              10272               09.9520521461E+017.4002135887E+01+
*       4.8470909219E+02               0
GRID*              10273               09.8676913000E+017.4257757291E+01+
*       4.8625565378E+02               0
GRID*              10274               09.7899680103E+017.4672569024E+01+
*       4.8677126218E+02               0
GRID*              10275               09.7899746124E+017.4672524961E+01+
*       4.8574027742E+02               0
GRID*              10276               09.7218776286E+017.5230324530E+01+
*       4.8728696912E+02               0
GRID*              10277               09.6658386946E+017.5911656620E+01+
*       4.8780263941E+02               0
GRID*              10278               09.6658356465E+017.5911701452E+01+
*       4.8677156603E+02               0
GRID*              10279               09.7899720830E+017.4672541871E+01+
*       4.8780234348E+02               0
GRID*              10280               09.9520550833E+017.4002129994E+01+
*       4.8883296727E+02               0
GRID*              10281               09.9520551459E+017.4002129853E+01+
*       4.8986388961E+02               0
GRID*              10282               09.8676942779E+017.4257744971E+01+
*       4.8831767342E+02               0
GRID*              10283               09.7899814749E+017.4672479233E+01+
*       4.8883336942E+02               0
GRID*              10284               09.9520475704E+017.4002144985E+01+
*       4.8367819118E+02               0
GRID*              10285               09.9520475230E+017.4002145093E+01+
*       4.8264726767E+02               0
GRID*              10286               09.8676944366E+017.4257744317E+01+
*       4.8419376795E+02               0
GRID*              10287               09.7899723686E+017.4672539915E+01+
*       4.8470933921E+02               0
GRID*              10288               09.7899683292E+017.4672566850E+01+
*       4.8367844639E+02               0
GRID*              10289               09.7218864762E+017.5230236259E+01+
*       4.8316316129E+02               0
GRID*              10290               09.7899870522E+017.4672441930E+01+
*       4.8264758100E+02               0
GRID*              10291               09.6658443480E+017.5911569234E+01+
*       4.8367870416E+02               0
GRID*              10292               09.6658564545E+017.5911387635E+01+
*       4.8264784551E+02               0
GRID*              10293               09.9520633786E+017.4002113632E+01+
*       4.8161638537E+02               0
GRID*              10294               09.9520633353E+017.4002113732E+01+
*       4.8058546154E+02               0
GRID*              10295               09.8677051369E+017.4257700058E+01+
*       4.8213199278E+02               0
GRID*              10296               09.7900003202E+017.4672353412E+01+
*       4.8161670627E+02               0
GRID*              10297               09.6241793384E+017.6688855679E+01+
*       4.8625623764E+02               0
GRID*              10298               09.6658293976E+017.5911794017E+01+
*       4.8574056492E+02               0
GRID*              10299               09.5984622156E+017.7532966651E+01+
*       4.8677184470E+02               0
GRID*              10300               09.5984598869E+017.7533082411E+01+
*       4.8574085020E+02               0
GRID*              10301               09.5897190217E+017.8409697288E+01+
*       4.8522547058E+02               0
GRID*              10302               09.5982485386E+017.9287711769E+01+
*       4.8574096355E+02               0
GRID*              10303               09.5982465328E+017.9287547059E+01+
*       4.8470998418E+02               0
GRID*              10304               09.5984642365E+017.7532864399E+01+
*       4.8470986456E+02               0
GRID*              10305               09.7218723524E+017.5230377172E+01+
*       4.8522495755E+02               0
GRID*              10306               09.6658275156E+017.5911821339E+01+
*       4.8470963402E+02               0
GRID*              10307               09.6241864993E+017.6688684766E+01+
*       4.8419431346E+02               0
GRID*              10308               09.5984700593E+017.7532572848E+01+
*       4.8367894083E+02               0
GRID*              10309               09.6241766910E+017.6688917988E+01+
*       4.8831842439E+02               0
GRID*              10310               09.5984553018E+017.7533313510E+01+
*       4.8883416225E+02               0
GRID*              10311               09.5984587804E+017.7533138977E+01+
*       4.8780297644E+02               0
GRID*              10312               09.6658283879E+017.5911811094E+01+
*       4.8883383235E+02               0
GRID*              10313               09.5897199222E+017.8410258847E+01+
*       4.8934997548E+02               0
GRID*              10314               09.5982509367E+017.9288074873E+01+
*       4.8883435540E+02               0
GRID*              10315               09.5984564872E+017.7533254868E+01+
*       4.8986543057E+02               0
GRID*              10316               09.7212810343E+018.1595552447E+01+
*       4.8728777412E+02               0
GRID*              10317               09.6652040585E+018.0910280329E+01+
*       4.8677216659E+02               0
GRID*              10318               09.6652082915E+018.0910333634E+01+
*       4.8780327794E+02               0
GRID*              10319               09.7895186197E+018.2156215238E+01+
*       4.8677223710E+02               0
GRID*              10320               09.6237143652E+018.0131803338E+01+
*       4.8625662546E+02               0
GRID*              10321               09.5982509546E+017.9287920450E+01+
*       4.8677204910E+02               0
GRID*              10322               09.6651942269E+018.0910142662E+01+
*       4.8574108560E+02               0
GRID*              10323               09.6237234802E+018.0132024664E+01+
*       4.8831889046E+02               0
GRID*              10324               09.5982521086E+017.9288064733E+01+
*       4.8780317387E+02               0
GRID*              10325               09.5897194479E+017.8410118974E+01+
*       4.8728758191E+02               0
GRID*              10326               09.6241712836E+017.6689046729E+01+
*       4.9038089207E+02               0
GRID*              10327               09.6658147293E+017.5912015574E+01+
*       4.8986498016E+02               0
GRID*              10328               09.6658169752E+017.5911982565E+01+
*       4.9089626275E+02               0
GRID*              10329               09.7218633023E+017.5230467472E+01+
*       4.8934919821E+02               0
GRID*              10330               09.7899607332E+017.4672617634E+01+
*       4.8986452581E+02               0
GRID*              10331               09.8676880840E+017.4257770584E+01+
*       4.9037974550E+02               0
GRID*              10332               09.7899457474E+017.4672717645E+01+
*       4.9089556225E+02               0
GRID*              10333               09.9520371555E+017.4002165554E+01+
*       4.9089493644E+02               0
GRID*              10334               09.9520372244E+017.4002165401E+01+
*       4.9192585833E+02               0
GRID*              10335               09.7218521742E+017.5230578513E+01+
*       4.9141157385E+02               0
GRID*              10336               09.7899535972E+017.4672665292E+01+
*       4.9192679081E+02               0
GRID*              10337               09.9520437370E+017.4002152453E+01+
*       4.9295695753E+02               0
GRID*              10338               09.8676780354E+017.4257812139E+01+
*       4.9244188039E+02               0
GRID*              10339               01.0414122429E+028.0911819632E+01+
*       4.8264873406E+02               0
GRID*              10340               01.0358044464E+028.1596572022E+01+
*       4.8316421776E+02               0
GRID*              10341               01.0414109573E+028.0912011157E+01+
*       4.8161795207E+02               0
GRID*              10342               01.0414094517E+028.0912246283E+01+
*       4.8058721758E+02               0
GRID*              10343               01.0358021609E+028.1596800741E+01+
*       4.8110267659E+02               0
GRID*              10344               01.0455649805E+028.0133339968E+01+
*       4.8213328803E+02               0
GRID*              10345               01.0481174706E+027.9287998461E+01+
*       4.8161770784E+02               0
GRID*              10346               01.0414083756E+028.0912417276E+01+
*       4.7955649124E+02               0
GRID*              10347               01.0414070015E+028.0912633175E+01+
*       4.7852580265E+02               0
GRID*              10348               01.0358001279E+028.1597004170E+01+
*       4.7904125763E+02               0
GRID*              10349               01.0489703746E+027.8410424876E+01+
*       4.8110207646E+02               0
GRID*              10350               01.0481170860E+027.9288198840E+01+
*       4.8058694864E+02               0
GRID*              10351               01.0480982053E+027.7533780207E+01+
*       4.8058655765E+02               0
GRID*              10352               01.0455636540E+028.0133660634E+01+
*       4.8007177516E+02               0
GRID*              10353               01.0481168302E+027.9288333965E+01+
*       4.7955621875E+02               0
GRID*              10354               01.0455251887E+027.6689588265E+01+
*       4.8007096661E+02               0
GRID*              10355               01.0480987146E+027.7534034788E+01+
*       4.7955580680E+02               0
GRID*              10356               01.0413638347E+027.5912389955E+01+
*       4.7955540835E+02               0
GRID*              10357               01.0357582324E+027.5230649960E+01+
*       4.7903983033E+02               0
GRID*              10358               01.0289474026E+027.4672667481E+01+
*       4.7852423284E+02               0
GRID*              10359               01.0413644189E+027.5912476740E+01+
*       4.7852463238E+02               0
GRID*              10360               01.0489704630E+027.8410890798E+01+
*       4.7904060440E+02               0
GRID*              10361               01.0481163919E+027.9288561547E+01+
*       4.7852548413E+02               0
GRID*              10362               01.0480990983E+027.7534226577E+01+
*       4.7852506661E+02               0
GRID*              10363               01.0455260007E+027.6689574110E+01+
*       4.7800948799E+02               0
GRID*              10364               01.0413638659E+027.5912393720E+01+
*       4.7749389489E+02               0
GRID*              10365               01.0480989237E+027.7534138975E+01+
*       4.7749433514E+02               0
GRID*              10366               01.0414057157E+028.0912836009E+01+
*       4.7749502600E+02               0
GRID*              10367               01.0414046437E+028.0913006968E+01+
*       4.7646424146E+02               0
GRID*              10368               01.0357983786E+028.1597179190E+01+
*       4.7697978803E+02               0
GRID*              10369               01.0455624953E+028.0133940629E+01+
*       4.7801026908E+02               0
GRID*              10370               01.0481160245E+027.9288753171E+01+
*       4.7749470405E+02               0
GRID*              10371               01.0489705740E+027.8410986866E+01+
*       4.7697913353E+02               0
GRID*              10372               01.0481161134E+027.9288713762E+01+
*       4.7646396588E+02               0
GRID*              10373               01.0480987766E+027.7534065217E+01+
*       4.7646359178E+02               0
GRID*              10374               01.0414043307E+028.0913064301E+01+
*       4.7543340606E+02               0
GRID*              10375               01.0414034700E+028.0913203815E+01+
*       4.7440238773E+02               0
GRID*              10376               01.0357970562E+028.1597311485E+01+
*       4.7491798817E+02               0
GRID*              10377               01.0455617299E+028.0134125428E+01+
*       4.7594865386E+02               0
GRID*              10378               01.0481160561E+027.9288748348E+01+
*       4.7543312715E+02               0
GRID*              10379               01.0357599404E+027.5230820412E+01+
*       4.7697820377E+02               0
GRID*              10380               01.0413646787E+027.5912514623E+01+
*       4.7646305061E+02               0
GRID*              10381               01.0127399785E+027.4002183472E+01+
*       4.7646189301E+02               0
GRID*              10382               01.0127399767E+027.4002183452E+01+
*       4.7749282085E+02               0
GRID*              10383               01.0211704931E+027.4257627624E+01+
*       4.7594680465E+02               0
GRID*              10384               01.0289496158E+027.4672815147E+01+
*       4.7543163947E+02               0
GRID*              10385               01.0289503492E+027.4672864089E+01+
*       4.7646251847E+02               0
GRID*              10386               01.0289491762E+027.4672785821E+01+
*       4.7749336898E+02               0
GRID*              10387               01.0211692898E+027.4257577836E+01+
*       4.7800855431E+02               0
GRID*              10388               01.0455259572E+027.6689539196E+01+
*       4.7594784322E+02               0
GRID*              10389               01.0480991122E+027.7534233041E+01+
*       4.7543268473E+02               0
GRID*              10390               01.0413655770E+027.5912648316E+01+
*       4.7543213795E+02               0
GRID*              10391               01.0357598388E+027.5230810273E+01+
*       4.7491646730E+02               0
GRID*              10392               01.0413647347E+027.5912522083E+01+
*       4.7440125159E+02               0
GRID*              10393               01.0489710142E+027.8411002747E+01+
*       4.7491734342E+02               0
GRID*              10394               01.0481157674E+027.9288900138E+01+
*       4.7440209200E+02               0
GRID*              10395               01.0480993463E+027.7534350059E+01+
*       4.7440164472E+02               0
GRID*              10396               01.0455253885E+027.6689378726E+01+
*       4.7388599100E+02               0
GRID*              10397               01.0480988558E+027.7534104449E+01+
*       4.7337070516E+02               0
GRID*              10398               01.0414021159E+028.0913438657E+01+
*       4.7130864083E+02               0
GRID*              10399               01.0357949634E+028.1597520831E+01+
*       4.7079273485E+02               0
GRID*              10400               01.0414019259E+028.0913456444E+01+
*       4.7233988001E+02               0
GRID*              10401               01.0357959335E+028.1597423792E+01+
*       4.7285564282E+02               0
GRID*              10402               01.0414026907E+028.0913331193E+01+
*       4.7337120958E+02               0
GRID*              10403               01.0455609257E+028.0134319158E+01+
*       4.7182421654E+02               0
GRID*              10404               01.0481158764E+027.9288856126E+01+
*       4.7233984702E+02               0
GRID*              10405               01.0489706748E+027.8410955402E+01+
*       4.7285524501E+02               0
GRID*              10406               01.0481155195E+027.9289031173E+01+
*       4.7337091066E+02               0
GRID*              10407               01.0455612018E+028.0134252776E+01+
*       4.7388663710E+02               0
GRID*              10408               01.0289694046E+028.2157656916E+01+
*       4.7749523786E+02               0
GRID*              10409               01.0289684987E+028.2157717755E+01+
*       4.7646445613E+02               0
GRID*              10410               01.0289709802E+028.2157551315E+01+
*       4.7852595305E+02               0
GRID*              10411               01.0289721956E+028.2157469781E+01+
*       4.7955663847E+02               0
GRID*              10412               01.0211875865E+028.2573559431E+01+
*       4.7801062935E+02               0
GRID*              10413               01.0127398506E+028.2829622149E+01+
*       4.7749532529E+02               0
GRID*              10414               01.0127415661E+028.2829587389E+01+
*       4.7852603898E+02               0
GRID*              10415               01.0289736122E+028.2157374795E+01+
*       4.8058736676E+02               0
GRID*              10416               01.0289748528E+028.2157291565E+01+
*       4.8161809766E+02               0
GRID*              10417               01.0039505668E+028.2915915956E+01+
*       4.7904148216E+02               0
GRID*              10418               01.0127434109E+028.2829550097E+01+
*       4.7955678110E+02               0
GRID*              10419               09.9515881086E+018.2828745645E+01+
*       4.7852614780E+02               0
GRID*              10420               09.9516078296E+018.2828784732E+01+
*       4.7955688929E+02               0
GRID*              10421               01.0211908267E+028.2573425223E+01+
*       4.8007207098E+02               0
GRID*              10422               01.0127449514E+028.2829518886E+01+
*       4.8058750774E+02               0
GRID*              10423               01.0289655204E+028.2157917654E+01+
*       4.7337125887E+02               0
GRID*              10424               01.0289648502E+028.2157962722E+01+
*       4.7233993147E+02               0
GRID*              10425               01.0289667573E+028.2157834712E+01+
*       4.7440241463E+02               0
GRID*              10426               01.0289674689E+028.2157786865E+01+
*       4.7543343049E+02               0
GRID*              10427               01.0211823427E+028.2573776597E+01+
*       4.7388671039E+02               0
GRID*              10428               01.0127341038E+028.2829739476E+01+
*       4.7337114897E+02               0
GRID*              10429               01.0127353921E+028.2829713022E+01+
*       4.7440230348E+02               0
GRID*              10430               09.7211242140E+018.1593981155E+01+
*       4.7697971103E+02               0
GRID*              10431               09.7893593684E+018.2155154955E+01+
*       4.7749522501E+02               0
GRID*              10432               09.7893391995E+018.2155020760E+01+
*       4.7646423377E+02               0
GRID*              10433               09.6651313525E+018.0909188456E+01+
*       4.7646416131E+02               0
GRID*              10434               09.6651394482E+018.0909297901E+01+
*       4.7749515435E+02               0
GRID*              10435               09.8671412402E+018.2571859539E+01+
*       4.7801065861E+02               0
GRID*              10436               09.9515681658E+018.2828706107E+01+
*       4.7749524224E+02               0
GRID*              10437               09.7893750422E+018.2155259097E+01+
*       4.7852613119E+02               0
GRID*              10438               01.0039432621E+028.2915915553E+01+
*       4.7491775966E+02               0
GRID*              10439               01.0127372939E+028.2829674431E+01+
*       4.7543331648E+02               0
GRID*              10440               09.9515057859E+018.2828582337E+01+
*       4.7440228319E+02               0
GRID*              10441               09.9515263668E+018.2828623180E+01+
*       4.7543329562E+02               0
GRID*              10442               09.8670992888E+018.2571685373E+01+
*       4.7594879005E+02               0
GRID*              10443               09.7893190087E+018.2154886459E+01+
*       4.7543327052E+02               0
GRID*              10444               09.9515517882E+018.2828673675E+01+
*       4.7646425828E+02               0
GRID*              10445               01.0211847762E+028.2573675817E+01+
*       4.7594889022E+02               0
GRID*              10446               01.0127383533E+028.2829652617E+01+
*       4.7646434074E+02               0
GRID*              10447               01.0039469583E+028.2915915772E+01+
*       4.7697975637E+02               0
GRID*              10448               01.0289635616E+028.2158049402E+01+
*       4.7027677612E+02               0
GRID*              10449               01.0289640929E+028.2158013615E+01+
*       4.7130835475E+02               0
GRID*              10450               01.0211780788E+028.2573953186E+01+
*       4.6976072118E+02               0
GRID*              10451               01.0127297195E+028.2829830600E+01+
*       4.6924475025E+02               0
GRID*              10452               01.0127309780E+028.2829804504E+01+
*       4.7027643200E+02               0
GRID*              10453               09.5897173375E+017.8407451044E+01+
*       4.7491705245E+02               0
GRID*              10454               09.5982246554E+017.9286026737E+01+
*       4.7543272008E+02               0
GRID*              10455               09.5982198726E+017.9285729279E+01+
*       4.7440152589E+02               0
GRID*              10456               09.5985089303E+017.7530627701E+01+
*       4.7440125325E+02               0
GRID*              10457               09.5985016163E+017.7530992929E+01+
*       4.7543245228E+02               0
GRID*              10458               09.6236449489E+018.0130118261E+01+
*       4.7594842601E+02               0
GRID*              10459               09.6651250504E+018.0909106153E+01+
*       4.7543296600E+02               0
GRID*              10460               09.5982251081E+017.9286183397E+01+
*       4.7646391638E+02               0
GRID*              10461               09.6236257114E+018.0129651133E+01+
*       4.7388593596E+02               0
GRID*              10462               09.6651191173E+018.0909029549E+01+
*       4.7440166404E+02               0
GRID*              10463               09.6651022794E+018.0908789272E+01+
*       4.7337037148E+02               0
GRID*              10464               09.5982139687E+017.9285460298E+01+
*       4.7337023113E+02               0
GRID*              10465               09.7210927156E+018.1593665364E+01+
*       4.7491741820E+02               0
GRID*              10466               09.7893039197E+018.2154786374E+01+
*       4.7440197004E+02               0
GRID*              10467               01.0211802125E+028.2573864820E+01+
*       4.7182397935E+02               0
GRID*              10468               01.0127323759E+028.2829775703E+01+
*       4.7130804499E+02               0
GRID*              10469               01.0127330836E+028.2829760663E+01+
*       4.7233962056E+02               0
GRID*              10470               01.0039372593E+028.2915915131E+01+
*       4.7079207844E+02               0
GRID*              10471               09.9514435825E+018.2828459074E+01+
*       4.7027616609E+02               0
GRID*              10472               09.9514594575E+018.2828490548E+01+
*       4.7130777857E+02               0
GRID*              10473               09.8670627830E+018.2571533780E+01+
*       4.7388635919E+02               0
GRID*              10474               09.7892933885E+018.2154716871E+01+
*       4.7337050159E+02               0
GRID*              10475               09.9514916452E+018.2828554348E+01+
*       4.7337081530E+02               0
GRID*              10476               01.0039400212E+028.2915915336E+01+
*       4.7285521906E+02               0
GRID*              10477               09.9514797368E+018.2828530814E+01+
*       4.7233928743E+02               0
GRID*              10478               09.7210590890E+018.1593328167E+01+
*       4.7285469636E+02               0
GRID*              10479               09.6650904530E+018.0908624331E+01+
*       4.7233894993E+02               0
GRID*              10480               09.7892709818E+018.2154567884E+01+
*       4.7233908123E+02               0
GRID*              10481               09.8670311005E+018.2571402190E+01+
*       4.7182338215E+02               0
GRID*              10482               09.7892554040E+018.2154464697E+01+
*       4.7130757183E+02               0
GRID*              10483               01.0127528038E+028.2829360753E+01+
*       4.8471050657E+02               0
GRID*              10484               01.0039634678E+028.2915916373E+01+
*       4.8522596641E+02               0
GRID*              10485               01.0127510702E+028.2829395681E+01+
*       4.8367968122E+02               0
GRID*              10486               01.0127490310E+028.2829436714E+01+
*       4.8264891109E+02               0
GRID*              10487               01.0039592989E+028.2915916280E+01+
*       4.8316430608E+02               0
GRID*              10488               01.0211977731E+028.2573137440E+01+
*       4.8419511909E+02               0
GRID*              10489               01.0289780772E+028.2157075401E+01+
*       4.8367965342E+02               0
GRID*              10490               01.0289765642E+028.2157176858E+01+
*       4.8264884600E+02               0
GRID*              10491               01.0127471320E+028.2829474988E+01+
*       4.8161816454E+02               0
GRID*              10492               01.0039548459E+028.2915916136E+01+
*       4.8110288014E+02               0
GRID*              10493               01.0211942186E+028.2573284712E+01+
*       4.8213354562E+02               0
GRID*              10494               09.7900302893E+017.4672153488E+01+
*       4.7749331033E+02               0
GRID*              10495               09.7219493689E+017.5229608930E+01+
*       4.7697810726E+02               0
GRID*              10496               09.7900542002E+017.4671994025E+01+
*       4.7646237376E+02               0
GRID*              10497               09.9520603495E+017.4002119684E+01+
*       4.7852365542E+02               0
GRID*              10498               09.9520603892E+017.4002119593E+01+
*       4.7955457957E+02               0
GRID*              10499               09.8677343224E+017.4257579349E+01+
*       4.7800846908E+02               0
GRID*              10500               09.7900132042E+017.4672267446E+01+
*       4.7852419584E+02               0
GRID*              10501               09.9520806726E+017.4002079360E+01+
*       4.7749276346E+02               0
GRID*              10502               09.7900072263E+017.4672307336E+01+
*       4.8058592229E+02               0
GRID*              10503               09.7219083772E+017.5230017777E+01+
*       4.8110151870E+02               0
GRID*              10504               09.7900046027E+017.4672324826E+01+
*       4.7955504731E+02               0
GRID*              10505               09.7219216387E+017.5229885497E+01+
*       4.7903988952E+02               0
GRID*              10506               09.8677175453E+017.4257648735E+01+
*       4.8007023604E+02               0
GRID*              10507               09.6658983355E+017.5910755818E+01+
*       4.7646286435E+02               0
GRID*              10508               09.6658830075E+017.5910985870E+01+
*       4.7749379564E+02               0
GRID*              10509               09.6242421682E+017.6687351480E+01+
*       4.7594760013E+02               0
GRID*              10510               09.5984911910E+017.7531513529E+01+
*       4.7646340131E+02               0
GRID*              10511               09.6659278454E+017.5910314129E+01+
*       4.7543191075E+02               0
GRID*              10512               09.6658778488E+017.5911064096E+01+
*       4.7852471875E+02               0
GRID*              10513               09.6658726862E+017.5911142308E+01+
*       4.7955556449E+02               0
GRID*              10514               09.5897175766E+017.8408187753E+01+
*       4.7697913365E+02               0
GRID*              10515               09.5982286910E+017.9286519871E+01+
*       4.7749479705E+02               0
GRID*              10516               09.5984843966E+017.7531853205E+01+
*       4.7749428776E+02               0
GRID*              10517               09.6242181827E+017.6687926807E+01+
*       4.7800947170E+02               0
GRID*              10518               09.5984826039E+017.7531943305E+01+
*       4.7852520596E+02               0
GRID*              10519               09.6658560265E+017.5911392046E+01+
*       4.8058631100E+02               0
GRID*              10520               09.6658519174E+017.5911454400E+01+
*       4.8161708876E+02               0
GRID*              10521               09.5984773710E+017.7532205181E+01+
*       4.7955596755E+02               0
GRID*              10522               09.5897178657E+017.8408820117E+01+
*       4.7904077710E+02               0
GRID*              10523               09.6242031508E+017.6688286960E+01+
*       4.8007113582E+02               0
GRID*              10524               09.5984715540E+017.7532496310E+01+
*       4.8058670877E+02               0
GRID*              10525               09.5984710934E+017.7532520567E+01+
*       4.8264819161E+02               0
GRID*              10526               09.5897186110E+017.8409399754E+01+
*       4.8316374135E+02               0
GRID*              10527               09.5984694122E+017.7532603923E+01+
*       4.8161744056E+02               0
GRID*              10528               09.5897182138E+017.8409216477E+01+
*       4.8110226558E+02               0
GRID*              10529               09.6241948640E+017.6688484912E+01+
*       4.8213263317E+02               0
GRID*              10530               09.5982336635E+017.9286903088E+01+
*       4.7852550422E+02               0
GRID*              10531               09.5982373402E+017.9287170301E+01+
*       4.7955625995E+02               0
GRID*              10532               09.6236651184E+018.0130607887E+01+
*       4.7801032969E+02               0
GRID*              10533               09.6651553538E+018.0909524864E+01+
*       4.7852586077E+02               0
GRID*              10534               09.7211627969E+018.1594367888E+01+
*       4.7904136991E+02               0
GRID*              10535               09.7893987193E+018.2155416858E+01+
*       4.7955679759E+02               0
GRID*              10536               09.6651643256E+018.0909648009E+01+
*       4.7955652935E+02               0
GRID*              10537               09.5982400802E+017.9287333112E+01+
*       4.8058700768E+02               0
GRID*              10538               09.5982423193E+017.9287421320E+01+
*       4.8161773380E+02               0
GRID*              10539               09.6236846496E+018.0131081901E+01+
*       4.8007178434E+02               0
GRID*              10540               09.6651809797E+018.0909674956E+01+
*       4.8058727352E+02               0
GRID*              10541               09.9517419112E+018.2829050450E+01+
*       4.8574138163E+02               0
GRID*              10542               09.9517217502E+018.2829010546E+01+
*       4.8471049115E+02               0
GRID*              10543               09.8673063596E+018.2572544556E+01+
*       4.8625686876E+02               0
GRID*              10544               09.7895028667E+018.2156110300E+01+
*       4.8574128594E+02               0
GRID*              10545               09.9517000939E+018.2828967653E+01+
*       4.8367964600E+02               0
GRID*              10546               09.9516786688E+018.2828925212E+01+
*       4.8264887658E+02               0
GRID*              10547               09.7212560143E+018.1595301858E+01+
*       4.8522577536E+02               0
GRID*              10548               09.6651898209E+018.0910086049E+01+
*       4.8471019926E+02               0
GRID*              10549               09.7894887487E+018.2156016330E+01+
*       4.8471040060E+02               0
GRID*              10550               09.8672682656E+018.2572386592E+01+
*       4.8419507280E+02               0
GRID*              10551               09.7894713431E+018.2155900391E+01+
*       4.8367955472E+02               0
GRID*              10552               09.9516345250E+018.2828837718E+01+
*       4.8058751126E+02               0
GRID*              10553               09.9516574826E+018.2828883236E+01+
*       4.8161816738E+02               0
GRID*              10554               09.8671843839E+018.2572038603E+01+
*       4.8007218650E+02               0
GRID*              10555               09.7894202087E+018.2155560004E+01+
*       4.8058742021E+02               0
GRID*              10556               09.5982470184E+017.9287561062E+01+
*       4.8367919269E+02               0
GRID*              10557               09.5982462705E+017.9287567594E+01+
*       4.8264844924E+02               0
GRID*              10558               09.6237043029E+018.0131559050E+01+
*       4.8419475073E+02               0
GRID*              10559               09.6651906916E+018.0910108286E+01+
*       4.8367941112E+02               0
GRID*              10560               09.7212023430E+018.1594764178E+01+
*       4.8110271047E+02               0
GRID*              10561               09.7894417321E+018.2155703408E+01+
*       4.8161809301E+02               0
GRID*              10562               09.6651963703E+018.0909883458E+01+
*       4.8161794518E+02               0
GRID*              10563               09.6236967180E+018.0131374839E+01+
*       4.8213324614E+02               0
GRID*              10564               09.6651868049E+018.0910058779E+01+
*       4.8264865695E+02               0
GRID*              10565               09.8672286929E+018.2572222449E+01+
*       4.8213351804E+02               0
GRID*              10566               09.7894586557E+018.2155816057E+01+
*       4.8264880290E+02               0
GRID*              10567               09.7212323962E+018.1595065274E+01+
*       4.8316413658E+02               0
GRID*              10568               09.6650849962E+018.0908679668E+01+
*       4.6099110064E+02               0
GRID*              10569               09.6236149530E+018.0129389468E+01+
*       4.6150699496E+02               0
GRID*              10570               09.6650832141E+018.0908641022E+01+
*       4.6202233325E+02               0
GRID*              10571               09.6650883347E+018.0908741509E+01+
*       4.5995990539E+02               0
GRID*              10572               09.6650888412E+018.0908760602E+01+
*       4.5892878732E+02               0
GRID*              10573               09.6236181747E+018.0129467685E+01+
*       4.5944464168E+02               0
GRID*              10574               09.7209965735E+018.1592701091E+01+
*       4.6047525009E+02               0
GRID*              10575               09.7892010707E+018.2154113072E+01+
*       4.6099057846E+02               0
GRID*              10576               09.7892051046E+018.2154140885E+01+
*       4.5995938345E+02               0
GRID*              10577               09.6650873023E+018.0908748759E+01+
*       4.5789757560E+02               0
GRID*              10578               09.6650890966E+018.0908786766E+01+
*       4.5686651736E+02               0
GRID*              10579               09.6236215878E+018.0129550559E+01+
*       4.5738246280E+02               0
GRID*              10580               09.8669200308E+018.2570940732E+01+
*       4.5944344818E+02               0
GRID*              10581               09.7892043099E+018.2154136238E+01+
*       4.5892811495E+02               0
GRID*              10582               09.9513355135E+018.2828245362E+01+
*       4.5995893426E+02               0
GRID*              10583               09.9513333821E+018.2828241326E+01+
*       4.5892766609E+02               0
GRID*              10584               09.7209960405E+018.1592695744E+01+
*       4.5841284296E+02               0
GRID*              10585               09.7892010444E+018.2154114937E+01+
*       4.5789690338E+02               0
GRID*              10586               09.6650947175E+018.0908882025E+01+
*       4.5583549662E+02               0
GRID*              10587               09.6650999248E+018.0908970831E+01+
*       4.5480449060E+02               0
GRID*              10588               09.6236283378E+018.0129714453E+01+
*       4.5532039602E+02               0
GRID*              10589               09.7209986749E+018.1592722173E+01+
*       4.5635061022E+02               0
GRID*              10590               09.7892055949E+018.2154145932E+01+
*       4.5686579043E+02               0
GRID*              10591               09.7892129837E+018.2154195865E+01+
*       4.5583476980E+02               0
GRID*              10592               09.6650994257E+018.0908973673E+01+
*       4.5377339034E+02               0
GRID*              10593               09.6651034944E+018.0909044875E+01+
*       4.5274237984E+02               0
GRID*              10594               09.6236366955E+018.0129917362E+01+
*       4.5325837704E+02               0
GRID*              10595               09.8669271244E+018.2570970296E+01+
*       4.5531883098E+02               0
GRID*              10596               09.7892132956E+018.2154198286E+01+
*       4.5480364614E+02               0
GRID*              10597               09.9513356717E+018.2828246578E+01+
*       4.5583413635E+02               0
GRID*              10598               09.9513353014E+018.2828246054E+01+
*       4.5480301297E+02               0
GRID*              10599               09.7210027699E+018.1592763256E+01+
*       4.5428848885E+02               0
GRID*              10600               09.7892114049E+018.2154185867E+01+
*       4.5377254592E+02               0
GRID*              10601               01.0211652421E+028.2574484903E+01+
*       4.5738058577E+02               0
GRID*              10602               01.0127196153E+028.2830042274E+01+
*       4.5686505484E+02               0
GRID*              10603               01.0127201933E+028.2830030355E+01+
*       4.5789635262E+02               0
GRID*              10604               01.0289501607E+028.2158947666E+01+
*       4.5789626222E+02               0
GRID*              10605               01.0289495834E+028.2158986458E+01+
*       4.5686496377E+02               0
GRID*              10606               01.0039243857E+028.2915913949E+01+
*       4.5634957421E+02               0
GRID*              10607               09.9513413551E+018.2828257732E+01+
*       4.5686538840E+02               0
GRID*              10608               01.0127191342E+028.2830052197E+01+
*       4.5583380250E+02               0
GRID*              10609               01.0039245412E+028.2915913966E+01+
*       4.5841199148E+02               0
GRID*              10610               09.9513369274E+018.2828248647E+01+
*       4.5789650105E+02               0
GRID*              10611               01.0127197291E+028.2830039002E+01+
*       4.5892751798E+02               0
GRID*              10612               09.8669227585E+018.2570952109E+01+
*       4.5738106719E+02               0
GRID*              10613               09.6650857320E+018.0908654588E+01+
*       4.6408526972E+02               0
GRID*              10614               09.6650865709E+018.0908679400E+01+
*       4.6305384503E+02               0
GRID*              10615               09.6236117757E+018.0129312339E+01+
*       4.6356965487E+02               0
GRID*              10616               09.6650843878E+018.0908622038E+01+
*       4.6511683032E+02               0
GRID*              10617               09.6236077964E+018.0129215750E+01+
*       4.6563267109E+02               0
GRID*              10618               09.6650808916E+018.0908557032E+01+
*       4.6614841924E+02               0
GRID*              10619               09.7210062537E+018.1592798206E+01+
*       4.6460102939E+02               0
GRID*              10620               09.7892174677E+018.2154218766E+01+
*       4.6511676139E+02               0
GRID*              10621               09.7892182575E+018.2154225276E+01+
*       4.6408520122E+02               0
GRID*              10622               09.7209998434E+018.1592733896E+01+
*       4.6253795715E+02               0
GRID*              10623               09.7892172407E+018.2154219563E+01+
*       4.6305364868E+02               0
GRID*              10624               09.7892111726E+018.2154179890E+01+
*       4.6202213722E+02               0
GRID*              10625               09.8669487946E+018.2571060257E+01+
*       4.6356938565E+02               0
GRID*              10626               09.9513708891E+018.2828315200E+01+
*       4.6408514015E+02               0
GRID*              10627               09.9513679556E+018.2828309571E+01+
*       4.6305358802E+02               0
GRID*              10628               01.0455529037E+028.0136257127E+01+
*       4.5944403050E+02               0
GRID*              10629               01.0413905706E+028.0915290442E+01+
*       4.5892806434E+02               0
GRID*              10630               01.0413915275E+028.0915137674E+01+
*       4.5995957398E+02               0
GRID*              10631               01.0481116885E+027.9291037303E+01+
*       4.5996011869E+02               0
GRID*              10632               01.0481112937E+027.9291241526E+01+
*       4.5892860672E+02               0
GRID*              10633               01.0357836837E+028.1598648662E+01+
*       4.5841212586E+02               0
GRID*              10634               01.0289511598E+028.2158880704E+01+
*       4.5892774287E+02               0
GRID*              10635               01.0413897985E+028.0915415366E+01+
*       4.5789658282E+02               0
GRID*              10636               01.0357856092E+028.1598456190E+01+
*       4.6047504111E+02               0
GRID*              10637               01.0289521600E+028.2158813662E+01+
*       4.5995922215E+02               0
GRID*              10638               01.0289534781E+028.2158725394E+01+
*       4.6099065552E+02               0
GRID*              10639               01.0413925222E+028.0914979070E+01+
*       4.6099100834E+02               0
GRID*              10640               01.0211668959E+028.2574416346E+01+
*       4.5944336268E+02               0
GRID*              10641               01.0127207790E+028.2830017560E+01+
*       4.5995899655E+02               0
GRID*              10642               01.0039275971E+028.2915914280E+01+
*       4.6253783184E+02               0
GRID*              10643               09.9513646738E+018.2828303243E+01+
*       4.6202207220E+02               0
GRID*              10644               01.0127230572E+028.2829969936E+01+
*       4.6305358735E+02               0
GRID*              10645               01.0127228950E+028.2829974069E+01+
*       4.6202207114E+02               0
GRID*              10646               01.0211687002E+028.2574341577E+01+
*       4.6150633651E+02               0
GRID*              10647               01.0289541885E+028.2158677691E+01+
*       4.6202215095E+02               0
GRID*              10648               01.0127222144E+028.2829988383E+01+
*       4.6099057647E+02               0
GRID*              10649               09.8669340432E+018.2570998961E+01+
*       4.6150627493E+02               0
GRID*              10650               09.9513512686E+018.2828276657E+01+
*       4.6099051381E+02               0
GRID*              10651               01.0039257218E+028.2915914090E+01+
*       4.6047473626E+02               0
GRID*              10652               01.0455279591E+027.6689891296E+01+
*       4.6357173129E+02               0
GRID*              10653               01.0481010170E+027.7535186860E+01+
*       4.6305563622E+02               0
GRID*              10654               01.0481002769E+027.7534815991E+01+
*       4.6408714457E+02               0
GRID*              10655               01.0413672983E+027.5912900082E+01+
*       4.6305638605E+02               0
GRID*              10656               01.0357612201E+027.5230948139E+01+
*       4.6254120928E+02               0
GRID*              10657               01.0289502537E+027.4672857631E+01+
*       4.6202619303E+02               0
GRID*              10658               01.0413685077E+027.5913080290E+01+
*       4.6202503242E+02               0
GRID*              10659               01.0489699428E+027.8412485473E+01+
*       4.6047628112E+02               0
GRID*              10660               01.0481016973E+027.7535528049E+01+
*       4.6099253743E+02               0
GRID*              10661               01.0481018203E+027.7535589864E+01+
*       4.5996090745E+02               0
GRID*              10662               01.0481118629E+027.9290944191E+01+
*       4.6099174554E+02               0
GRID*              10663               01.0455545785E+028.0135852597E+01+
*       4.6150716197E+02               0
GRID*              10664               01.0413937799E+028.0914780930E+01+
*       4.6202262726E+02               0
GRID*              10665               01.0481123587E+027.9290688709E+01+
*       4.6202336691E+02               0
GRID*              10666               01.0455296428E+027.6690277781E+01+
*       4.6150867963E+02               0
GRID*              10667               01.0413686498E+027.5913101109E+01+
*       4.6099348858E+02               0
GRID*              10668               01.0481016221E+027.7535490263E+01+
*       4.6202407781E+02               0
GRID*              10669               01.0489698027E+027.8412165795E+01+
*       4.6253946437E+02               0
GRID*              10670               01.0481130136E+027.9290352719E+01+
*       4.6305492199E+02               0
GRID*              10671               01.0357878391E+028.1598233264E+01+
*       4.6253828024E+02               0
GRID*              10672               01.0413948165E+028.0914615712E+01+
*       4.6305443282E+02               0
GRID*              10673               01.0289555471E+028.2158586697E+01+
*       4.6305395537E+02               0
GRID*              10674               01.0211708689E+028.2574251755E+01+
*       4.6356964403E+02               0
GRID*              10675               01.0127244318E+028.2829941654E+01+
*       4.6408539960E+02               0
GRID*              10676               01.0289568736E+028.2158497835E+01+
*       4.6408576843E+02               0
GRID*              10677               01.0455576710E+028.0135105453E+01+
*       4.6563420635E+02               0
GRID*              10678               01.0413964805E+028.0914346135E+01+
*       4.6511805155E+02               0
GRID*              10679               01.0413979176E+028.0914120538E+01+
*       4.6614984970E+02               0
GRID*              10680               01.0481139375E+027.9289875214E+01+
*       4.6511845757E+02               0
GRID*              10681               01.0489696631E+027.8411677008E+01+
*       4.6460274382E+02               0
GRID*              10682               01.0481133190E+027.9290193133E+01+
*       4.6408673520E+02               0
GRID*              10683               01.0357899422E+028.1598022992E+01+
*       4.6460189289E+02               0
GRID*              10684               01.0289580436E+028.2158419419E+01+
*       4.6511757523E+02               0
GRID*              10685               01.0413955487E+028.0914495936E+01+
*       4.6408624346E+02               0
GRID*              10686               01.0455560775E+028.0135490492E+01+
*       4.6357059451E+02               0
GRID*              10687               09.6650825092E+018.0908556066E+01+
*       4.6821195654E+02               0
GRID*              10688               09.6650837569E+018.0908587488E+01+
*       4.6718020826E+02               0
GRID*              10689               09.6236040365E+018.0129124500E+01+
*       4.6769601087E+02               0
GRID*              10690               09.6650863332E+018.0908600775E+01+
*       4.6924374443E+02               0
GRID*              10691               09.6236070748E+018.0129198372E+01+
*       4.6975951784E+02               0
GRID*              10692               09.6650917714E+018.0908669695E+01+
*       4.7027550057E+02               0
GRID*              10693               09.7210271236E+018.1593007561E+01+
*       4.6872795497E+02               0
GRID*              10694               09.7892466714E+018.2154408745E+01+
*       4.6924397529E+02               0
GRID*              10695               09.7892386349E+018.2154356299E+01+
*       4.6821218814E+02               0
GRID*              10696               09.8670022625E+018.2571282392E+01+
*       4.6976004309E+02               0
GRID*              10697               09.9514324784E+018.2828437130E+01+
*       4.6924433617E+02               0
GRID*              10698               09.7892543493E+018.2154458868E+01+
*       4.7027580573E+02               0
GRID*              10699               09.6650902302E+018.0908633753E+01+
*       4.7130726763E+02               0
GRID*              10700               09.6236119429E+018.0129316696E+01+
*       4.7182295875E+02               0
GRID*              10701               09.7210371391E+018.1593108021E+01+
*       4.7079150901E+02               0
GRID*              10702               01.0039296289E+028.2915914477E+01+
*       4.6460120604E+02               0
GRID*              10703               01.0127259608E+028.2829910195E+01+
*       4.6511725822E+02               0
GRID*              10704               09.9513881942E+018.2828349572E+01+
*       4.6511699832E+02               0
GRID*              10705               09.7210128626E+018.1592864506E+01+
*       4.6666437866E+02               0
GRID*              10706               09.7892338401E+018.2154325653E+01+
*       4.6718038235E+02               0
GRID*              10707               09.7892280347E+018.2154288226E+01+
*       4.6614859389E+02               0
GRID*              10708               09.8669646051E+018.2571125947E+01+
*       4.6563277004E+02               0
GRID*              10709               09.9514027419E+018.2828378421E+01+
*       4.6614883036E+02               0
GRID*              10710               01.0357917016E+028.1597847051E+01+
*       4.6666560450E+02               0
GRID*              10711               01.0289593412E+028.2158332471E+01+
*       4.6614947420E+02               0
GRID*              10712               01.0289602982E+028.2158268262E+01+
*       4.6718137746E+02               0
GRID*              10713               01.0211736907E+028.2574134919E+01+
*       4.6563335502E+02               0
GRID*              10714               01.0127272680E+028.2829883018E+01+
*       4.6614915633E+02               0
GRID*              10715               01.0039349351E+028.2915914946E+01+
*       4.6872861684E+02               0
GRID*              10716               09.9514248696E+018.2828422169E+01+
*       4.6821248730E+02               0
GRID*              10717               01.0127291656E+028.2829842778E+01+
*       4.6821290089E+02               0
GRID*              10718               01.0211759151E+028.2574042795E+01+
*       4.6769714624E+02               0
GRID*              10719               01.0127284629E+028.2829857983E+01+
*       4.6718100845E+02               0
GRID*              10720               09.8669850573E+018.2571210923E+01+
*       4.6769640761E+02               0
GRID*              10721               09.9514169825E+018.2828406649E+01+
*       4.6718068200E+02               0
GRID*              10722               01.0039327766E+028.2915914763E+01+
*       4.6666491609E+02               0
GRID*              10723               09.6242292024E+017.6687679226E+01+
*       4.5119891015E+02               0
GRID*              10724               09.6658835763E+017.5910943277E+01+
*       4.5068417828E+02               0
GRID*              10725               09.6658820688E+017.5910965838E+01+
*       4.5171520701E+02               0
GRID*              10726               09.5984935812E+017.7531381240E+01+
*       4.5171375013E+02               0
GRID*              10727               09.5984938779E+017.7531365998E+01+
*       4.5068272335E+02               0
GRID*              10728               09.7219421137E+017.5229681290E+01+
*       4.5016944181E+02               0
GRID*              10729               09.7900371901E+017.4672107513E+01+
*       4.4965476888E+02               0
GRID*              10730               09.7900277227E+017.4672170645E+01+
*       4.5068580603E+02               0
GRID*              10731               09.6658899040E+017.5910848899E+01+
*       4.4965314313E+02               0
GRID*              10732               09.9520754036E+017.4002089792E+01+
*       4.4862557616E+02               0
GRID*              10733               09.9520753590E+017.4002089854E+01+
*       4.4759464952E+02               0
GRID*              10734               09.8677581325E+017.4257480604E+01+
*       4.4914015721E+02               0
GRID*              10735               09.7900385891E+017.4672098190E+01+
*       4.4862379315E+02               0
GRID*              10736               09.9520737998E+017.4002092998E+01+
*       4.4965655415E+02               0
GRID*              10737               09.9520703450E+017.4002099908E+01+
*       4.5274938876E+02               0
GRID*              10738               09.9520703099E+017.4002099963E+01+
*       4.5171846230E+02               0
GRID*              10739               09.9520901631E+017.4002060591E+01+
*       4.5378033823E+02               0
GRID*              10740               09.9520901953E+017.4002060538E+01+
*       4.5481126459E+02               0
GRID*              10741               09.8677659119E+017.4257448489E+01+
*       4.5326404269E+02               0
GRID*              10742               09.7900602861E+017.4671953471E+01+
*       4.5377869803E+02               0
GRID*              10743               09.7900435320E+017.4672065200E+01+
*       4.5274775116E+02               0
GRID*              10744               09.7219501591E+017.5229601054E+01+
*       4.5223144274E+02               0
GRID*              10745               09.7900247027E+017.4672190780E+01+
*       4.5171678521E+02               0
GRID*              10746               09.6658948078E+017.5910775952E+01+
*       4.5274617081E+02               0
GRID*              10747               09.9520738390E+017.4002092941E+01+
*       4.5068748070E+02               0
GRID*              10748               09.8677519194E+017.4257506319E+01+
*       4.5120211430E+02               0
GRID*              10749               09.9520799747E+017.4002080798E+01+
*       4.7233789892E+02               0
GRID*              10750               09.9520800063E+017.4002080726E+01+
*       4.7336882384E+02               0
GRID*              10751               09.9520966547E+017.4002047709E+01+
*       4.7130677507E+02               0
GRID*              10752               09.9520966249E+017.4002047776E+01+
*       4.7027584993E+02               0
GRID*              10753               09.8677700871E+017.4257431435E+01+
*       4.7182229018E+02               0
GRID*              10754               09.7900701993E+017.4671887327E+01+
*       4.7233787201E+02               0
GRID*              10755               09.7900842485E+017.4671793652E+01+
*       4.7130675326E+02               0
GRID*              10756               09.7219800732E+017.5229302758E+01+
*       4.7285358990E+02               0
GRID*              10757               09.6659271394E+017.5910321565E+01+
*       4.7336938938E+02               0
GRID*              10758               09.6659404838E+017.5910120802E+01+
*       4.7233813952E+02               0
GRID*              10759               09.7900489304E+017.4672029152E+01+
*       4.7336912636E+02               0
GRID*              10760               09.9520840580E+017.4002072676E+01+
*       4.7439990757E+02               0
GRID*              10761               09.9520840918E+017.4002072598E+01+
*       4.7543083225E+02               0
GRID*              10762               09.8677573912E+017.4257483939E+01+
*       4.7388449222E+02               0
GRID*              10763               09.7900524428E+017.4672005734E+01+
*       4.7440020457E+02               0
GRID*              10764               09.6242648617E+017.6686807428E+01+
*       4.7388529347E+02               0
GRID*              10765               09.5985100861E+017.7530569495E+01+
*       4.7336989964E+02               0
GRID*              10766               09.6659239847E+017.5910370221E+01+
*       4.7440074726E+02               0
GRID*              10767               09.7219658535E+017.5229444544E+01+
*       4.7491600768E+02               0
GRID*              10768               09.7900570274E+017.4671975167E+01+
*       4.7543137294E+02               0
GRID*              10769               09.9520806361E+017.4002079444E+01+
*       4.7646183904E+02               0
GRID*              10770               09.8677572793E+017.4257484417E+01+
*       4.7594657677E+02               0
GRID*              10771               09.5982133495E+017.9286056082E+01+
*       4.5583653690E+02               0
GRID*              10772               09.5982157481E+017.9286197822E+01+
*       4.5480552945E+02               0
GRID*              10773               09.5982107985E+017.9285904788E+01+
*       4.5686753932E+02               0
GRID*              10774               09.5982099838E+017.9285839442E+01+
*       4.5789859893E+02               0
GRID*              10775               09.5897151617E+017.8407484597E+01+
*       4.5635267585E+02               0
GRID*              10776               09.5984986094E+017.7531132307E+01+
*       4.5583780355E+02               0
GRID*              10777               09.5985009288E+017.7531017133E+01+
*       4.5686880879E+02               0
GRID*              10778               09.5982220876E+017.9286480169E+01+
*       4.5274352115E+02               0
GRID*              10779               09.5982189723E+017.9286370028E+01+
*       4.5377453304E+02               0
GRID*              10780               09.5897148285E+017.8407763341E+01+
*       4.5222861890E+02               0
GRID*              10781               09.5984921899E+017.7531451103E+01+
*       4.5274480810E+02               0
GRID*              10782               09.5982220121E+017.9286421795E+01+
*       4.5171246605E+02               0
GRID*              10783               09.7219659365E+017.5229443721E+01+
*       4.5429341453E+02               0
GRID*              10784               09.6658905349E+017.5910840356E+01+
*       4.5480821599E+02               0
GRID*              10785               09.6658905614E+017.5910839575E+01+
*       4.5377721011E+02               0
GRID*              10786               09.7900599004E+017.4671956037E+01+
*       4.5480970620E+02               0
GRID*              10787               09.6242344984E+017.6687549421E+01+
*       4.5532297415E+02               0
GRID*              10788               09.5984932958E+017.7531396866E+01+
*       4.5480684437E+02               0
GRID*              10789               09.6659051503E+017.5910622813E+01+
*       4.5583917743E+02               0
GRID*              10790               09.6242263641E+017.6687746250E+01+
*       4.5326097588E+02               0
GRID*              10791               09.5984908899E+017.7531516430E+01+
*       4.5377584530E+02               0
GRID*              10792               09.5897149718E+017.8407718220E+01+
*       4.5429067380E+02               0
GRID*              10793               09.5982101415E+017.9285437235E+01+
*       4.6924363041E+02               0
GRID*              10794               09.5982131554E+017.9285544109E+01+
*       4.7027538816E+02               0
GRID*              10795               09.5982065184E+017.9285299538E+01+
*       4.6821194454E+02               0
GRID*              10796               09.5982058438E+017.9285310430E+01+
*       4.6718019478E+02               0
GRID*              10797               09.5897165265E+017.8406898822E+01+
*       4.6872784090E+02               0
GRID*              10798               09.5985149346E+017.7530324944E+01+
*       4.6821206173E+02               0
GRID*              10799               09.5985119790E+017.7530472795E+01+
*       4.6924375162E+02               0
GRID*              10800               09.5982167507E+017.9285639250E+01+
*       4.7233866454E+02               0
GRID*              10801               09.5982158381E+017.9285635280E+01+
*       4.7130698040E+02               0
GRID*              10802               09.5897170566E+017.8407188914E+01+
*       4.7285428683E+02               0
GRID*              10803               09.5985076036E+017.7530692628E+01+
*       4.7233832905E+02               0
GRID*              10804               09.6242632907E+017.6686847975E+01+
*       4.6975949804E+02               0
GRID*              10805               09.5985059832E+017.7530772216E+01+
*       4.7027527918E+02               0
GRID*              10806               09.6659403859E+017.5910116536E+01+
*       4.6924384404E+02               0
GRID*              10807               09.6659237782E+017.5910366322E+01+
*       4.7027537531E+02               0
GRID*              10808               09.7219927320E+017.5229176546E+01+
*       4.7079102931E+02               0
GRID*              10809               09.7900778445E+017.4671836348E+01+
*       4.7027544244E+02               0
GRID*              10810               09.6659290720E+017.5910289245E+01+
*       4.7130668199E+02               0
GRID*              10811               09.5897167576E+017.8407181835E+01+
*       4.7079112363E+02               0
GRID*              10812               09.5985036491E+017.7530889169E+01+
*       4.7130687550E+02               0
GRID*              10813               09.6242593636E+017.6686940958E+01+
*       4.7182248258E+02               0
GRID*              10814               09.9520800579E+017.4002080664E+01+
*       4.5584222906E+02               0
GRID*              10815               09.9520800877E+017.4002080613E+01+
*       4.5687315531E+02               0
GRID*              10816               09.8677736884E+017.4257416364E+01+
*       4.5532595376E+02               0
GRID*              10817               09.7900513032E+017.4672013359E+01+
*       4.5584066789E+02               0
GRID*              10818               09.6242427947E+017.6687348694E+01+
*       4.5738494903E+02               0
GRID*              10819               09.6658979728E+017.5910730514E+01+
*       4.5687015588E+02               0
GRID*              10820               09.6658942318E+017.5910787082E+01+
*       4.5790117196E+02               0
GRID*              10821               09.5984997172E+017.7531078053E+01+
*       4.5789982245E+02               0
GRID*              10822               09.7219560971E+017.5229541838E+01+
*       4.5635540111E+02               0
GRID*              10823               09.7900400586E+017.4672088340E+01+
*       4.5687164879E+02               0
GRID*              10824               09.9520741587E+017.4002092385E+01+
*       4.5790410583E+02               0
GRID*              10825               09.9520741868E+017.4002092333E+01+
*       4.5893503196E+02               0
GRID*              10826               09.8677572102E+017.4257484518E+01+
*       4.5738786570E+02               0
GRID*              10827               09.7900350334E+017.4672121847E+01+
*       4.5790259632E+02               0
GRID*              10828               09.7219607189E+017.5229495749E+01+
*       4.5841732530E+02               0
GRID*              10829               09.6659058426E+017.5910614747E+01+
*       4.5893211529E+02               0
GRID*              10830               09.7900516328E+017.4672011146E+01+
*       4.5893354228E+02               0
GRID*              10831               09.9520917652E+017.4002057452E+01+
*       4.5996595504E+02               0
GRID*              10832               09.9520917925E+017.4002057400E+01+
*       4.6099688104E+02               0
GRID*              10833               09.8677668971E+017.4257444492E+01+
*       4.5944973601E+02               0
GRID*              10834               09.7900665165E+017.4671911896E+01+
*       4.5996446214E+02               0
GRID*              10835               09.5982101224E+017.9285727108E+01+
*       4.6202312861E+02               0
GRID*              10836               09.5982102944E+017.9285769244E+01+
*       4.6099189464E+02               0
GRID*              10837               09.5982088284E+017.9285625782E+01+
*       4.6305431635E+02               0
GRID*              10838               09.5982092639E+017.9285609769E+01+
*       4.6408574240E+02               0
GRID*              10839               09.5897157446E+017.8407292016E+01+
*       4.6253922989E+02               0
GRID*              10840               09.5985031764E+017.7530907644E+01+
*       4.6202403991E+02               0
GRID*              10841               09.5985050535E+017.7530814604E+01+
*       4.6305523112E+02               0
GRID*              10842               09.5982117063E+017.9285900442E+01+
*       4.5892967694E+02               0
GRID*              10843               09.5982116753E+017.9285870229E+01+
*       4.5996079636E+02               0
GRID*              10844               09.5897153322E+017.8407460501E+01+
*       4.5841475978E+02               0
GRID*              10845               09.5984980261E+017.7531162898E+01+
*       4.5893090353E+02               0
GRID*              10846               09.7219743594E+017.5229359732E+01+
*       4.6047924188E+02               0
GRID*              10847               09.6659010850E+017.5910687940E+01+
*       4.6099414174E+02               0
GRID*              10848               09.6659008750E+017.5910689892E+01+
*       4.5996317105E+02               0
GRID*              10849               09.7900658674E+017.4671916220E+01+
*       4.6099543564E+02               0
GRID*              10850               09.6242442561E+017.6687310936E+01+
*       4.6150905525E+02               0
GRID*              10851               09.5984980689E+017.7531161805E+01+
*       4.6099305824E+02               0
GRID*              10852               09.6659155323E+017.5910473725E+01+
*       4.6202512620E+02               0
GRID*              10853               09.6242373519E+017.6687478236E+01+
*       4.5944701804E+02               0
GRID*              10854               09.5984963303E+017.7531247992E+01+
*       4.5996195671E+02               0
GRID*              10855               09.5897155144E+017.8407466763E+01+
*       4.6047693985E+02               0
GRID*              10856               09.9520884605E+017.4002063983E+01+
*       4.6924473772E+02               0
GRID*              10857               09.9520884322E+017.4002064046E+01+
*       4.6821381238E+02               0
GRID*              10858               09.8677790121E+017.4257394521E+01+
*       4.6976005924E+02               0
GRID*              10859               09.7900708773E+017.4671882801E+01+
*       4.6924433495E+02               0
GRID*              10860               09.7219774147E+017.5229329266E+01+
*       4.6872845670E+02               0
GRID*              10861               09.7900593167E+017.4671959885E+01+
*       4.6821306893E+02               0
GRID*              10862               09.6659315158E+017.5910246725E+01+
*       4.6821258183E+02               0
GRID*              10863               09.6242697050E+017.6686695220E+01+
*       4.6769653366E+02               0
GRID*              10864               09.5985122701E+017.7530457139E+01+
*       4.6718062809E+02               0
GRID*              10865               09.6659235138E+017.5910363851E+01+
*       4.6718114472E+02               0
GRID*              10866               09.9520783752E+017.4002084010E+01+
*       4.6718274382E+02               0
GRID*              10867               09.9520783479E+017.4002084069E+01+
*       4.6615181829E+02               0
GRID*              10868               09.8677628233E+017.4257461426E+01+
*       4.6769788322E+02               0
GRID*              10869               09.7900507593E+017.4672016948E+01+
*       4.6718200474E+02               0
GRID*              10870               09.7219759638E+017.5229343734E+01+
*       4.6666590088E+02               0
GRID*              10871               09.7900606457E+017.4671951024E+01+
*       4.6615071103E+02               0
GRID*              10872               09.6659289536E+017.5910280487E+01+
*       4.6614985452E+02               0
GRID*              10873               09.9520868799E+017.4002067142E+01+
*       4.6512072182E+02               0
GRID*              10874               09.9520868531E+017.4002067198E+01+
*       4.6408979612E+02               0
GRID*              10875               09.8677624577E+017.4257462917E+01+
*       4.6563572259E+02               0
GRID*              10876               09.7900678346E+017.4671903092E+01+
*       4.6511961859E+02               0
GRID*              10877               09.7219680576E+017.5229422568E+01+
*       4.6254130771E+02               0
GRID*              10878               09.6659117820E+017.5910531172E+01+
*       4.6305621860E+02               0
GRID*              10879               09.9520771452E+017.4002086465E+01+
*       4.6305881251E+02               0
GRID*              10880               09.9520771185E+017.4002086519E+01+
*       4.6202788666E+02               0
GRID*              10881               09.8677624928E+017.4257462749E+01+
*       4.6357364660E+02               0
GRID*              10882               09.7900548907E+017.4671989403E+01+
*       4.6408851309E+02               0
GRID*              10883               09.7900466505E+017.4672044355E+01+
*       4.6305753322E+02               0
GRID*              10884               09.7900534583E+017.4671998961E+01+
*       4.6202643779E+02               0
GRID*              10885               09.8677683801E+017.4257438385E+01+
*       4.6151166117E+02               0
GRID*              10886               09.6242499105E+017.6687173675E+01+
*       4.6357132034E+02               0
GRID*              10887               09.5985027307E+017.7530930953E+01+
*       4.6408651200E+02               0
GRID*              10888               09.6659053755E+017.5910628425E+01+
*       4.6408750248E+02               0
GRID*              10889               09.7219733259E+017.5229370036E+01+
*       4.6460350529E+02               0
GRID*              10890               09.6659150190E+017.5910486376E+01+
*       4.6511860472E+02               0
GRID*              10891               09.6242549446E+017.6687051316E+01+
*       4.6563385051E+02               0
GRID*              10892               09.5982109919E+017.9285614874E+01+
*       4.6614878083E+02               0
GRID*              10893               09.5982112544E+017.9285670330E+01+
*       4.6511719050E+02               0
GRID*              10894               09.5897162440E+017.8407042674E+01+
*       4.6666473650E+02               0
GRID*              10895               09.5985062489E+017.7530756671E+01+
*       4.6614921034E+02               0
GRID*              10896               09.5985014428E+017.7530995726E+01+
*       4.6511796378E+02               0
GRID*              10897               09.5897159670E+017.8407272421E+01+
*       4.6460187001E+02               0
GRID*              10898               01.0413997763E+028.0914054160E+01+
*       4.3934223107E+02               0
GRID*              10899               01.0455568292E+028.0135306087E+01+
*       4.3882700390E+02               0
GRID*              10900               01.0414002916E+028.0913982177E+01+
*       4.3831138739E+02               0
GRID*              10901               01.0413990492E+028.0914157645E+01+
*       4.4037300519E+02               0
GRID*              10902               01.0413987584E+028.0914195530E+01+
*       4.4140370630E+02               0
GRID*              10903               01.0455563904E+028.0135412350E+01+
*       4.4088855078E+02               0
GRID*              10904               01.0357993631E+028.1597080691E+01+
*       4.3985736478E+02               0
GRID*              10905               01.0289702505E+028.2157609734E+01+
*       4.3934187490E+02               0
GRID*              10906               01.0289689371E+028.2157697334E+01+
*       4.4037264872E+02               0
GRID*              10907               01.0413980408E+028.0914297092E+01+
*       4.4243435719E+02               0
GRID*              10908               01.0413972284E+028.0914412627E+01+
*       4.4346498172E+02               0
GRID*              10909               01.0455557608E+028.0135564729E+01+
*       4.4294987860E+02               0
GRID*              10910               01.0211870638E+028.2573583652E+01+
*       4.4088785273E+02               0
GRID*              10911               01.0289676068E+028.2157786045E+01+
*       4.4140334089E+02               0
GRID*              10912               01.0127433963E+028.2829570088E+01+
*       4.4037248440E+02               0
GRID*              10913               01.0127418545E+028.2829601046E+01+
*       4.4140317613E+02               0
GRID*              10914               01.0357971320E+028.1597303905E+01+
*       4.4191878984E+02               0
GRID*              10915               01.0289663249E+028.2157871517E+01+
*       4.4243399145E+02               0
GRID*              10916               01.0039463034E+028.2915915733E+01+
*       4.4191848401E+02               0
GRID*              10917               01.0127402420E+028.2829633373E+01+
*       4.4243384956E+02               0
GRID*              10918               09.9515542825E+018.2828686212E+01+
*       4.4140318184E+02               0
GRID*              10919               09.9515379168E+018.2828653376E+01+
*       4.4243385513E+02               0
GRID*              10920               09.8671045696E+018.2571707868E+01+
*       4.4294923287E+02               0
GRID*              10921               09.7893690448E+018.2155240887E+01+
*       4.4243399897E+02               0
GRID*              10922               09.7893534115E+018.2155136519E+01+
*       4.4346467698E+02               0
GRID*              10923               09.9515193015E+018.2828616037E+01+
*       4.4346453300E+02               0
GRID*              10924               01.0211839081E+028.2573714232E+01+
*       4.4294919161E+02               0
GRID*              10925               01.0289648598E+028.2157969211E+01+
*       4.4346463862E+02               0
GRID*              10926               01.0127385321E+028.2829667601E+01+
*       4.4346449626E+02               0
GRID*              10927               01.0039423033E+028.2915915488E+01+
*       4.4397977024E+02               0
GRID*              10928               09.9514969041E+018.2828571130E+01+
*       4.4449514582E+02               0
GRID*              10929               01.0127363067E+028.2829712018E+01+
*       4.4449510924E+02               0
GRID*              10930               01.0413963186E+028.0914542495E+01+
*       4.4449561811E+02               0
GRID*              10931               01.0413953891E+028.0914675068E+01+
*       4.4552618285E+02               0
GRID*              10932               01.0455547048E+028.0135820192E+01+
*       4.4501107015E+02               0
GRID*              10933               01.0357946951E+028.1597547661E+01+
*       4.4398007714E+02               0
GRID*              10934               01.0289633060E+028.2158072823E+01+
*       4.4449527464E+02               0
GRID*              10935               01.0413943729E+028.0914820374E+01+
*       4.4655673833E+02               0
GRID*              10936               01.0413935682E+028.0914933790E+01+
*       4.4758734035E+02               0
GRID*              10937               01.0455536658E+028.0136071532E+01+
*       4.4707223926E+02               0
GRID*              10938               01.0211800888E+028.2573872196E+01+
*       4.4501040123E+02               0
GRID*              10939               01.0289613878E+028.2158200761E+01+
*       4.4552583758E+02               0
GRID*              10940               01.0127340516E+028.2829756977E+01+
*       4.4552567170E+02               0
GRID*              10941               01.0357919033E+028.1597826878E+01+
*       4.4604126901E+02               0
GRID*              10942               01.0289596892E+028.2158314010E+01+
*       4.4655639266E+02               0
GRID*              10943               09.8670706538E+018.2571566969E+01+
*       4.4501059991E+02               0
GRID*              10944               09.7893445390E+018.2155077392E+01+
*       4.4449544274E+02               0
GRID*              10945               09.7893301780E+018.2154981459E+01+
*       4.4552613196E+02               0
GRID*              10946               09.9514798935E+018.2828536969E+01+
*       4.4552583489E+02               0
GRID*              10947               09.7211131904E+018.1593870643E+01+
*       4.4398021218E+02               0
GRID*              10948               09.6651941809E+018.0910485251E+01+
*       4.4346504434E+02               0
GRID*              10949               09.6651868204E+018.0910367133E+01+
*       4.4449581002E+02               0
GRID*              10950               09.7210897827E+018.1593635957E+01+
*       4.4604166490E+02               0
GRID*              10951               09.6651806064E+018.0910265938E+01+
*       4.4552661422E+02               0
GRID*              10952               09.6651671845E+018.0910056249E+01+
*       4.4655730070E+02               0
GRID*              10953               09.7893119949E+018.2154859871E+01+
*       4.4655681849E+02               0
GRID*              10954               09.6236950962E+018.0131334426E+01+
*       4.4501143012E+02               0
GRID*              10955               09.5982450738E+017.9287719262E+01+
*       4.4449640999E+02               0
GRID*              10956               09.5982428664E+017.9287587203E+01+
*       4.4552721635E+02               0
GRID*              10957               01.0413927041E+028.0915055848E+01+
*       4.4861805990E+02               0
GRID*              10958               01.0413918176E+028.0915181029E+01+
*       4.4964877408E+02               0
GRID*              10959               01.0455526663E+028.0136313299E+01+
*       4.4913355790E+02               0
GRID*              10960               01.0357891854E+028.1598098660E+01+
*       4.4810254400E+02               0
GRID*              10961               01.0289581077E+028.2158419425E+01+
*       4.4758706808E+02               0
GRID*              10962               01.0289566493E+028.2158516603E+01+
*       4.4861778717E+02               0
GRID*              10963               01.0413909147E+028.0915308428E+01+
*       4.5067945491E+02               0
GRID*              10964               01.0413904260E+028.0915373601E+01+
*       4.5171026169E+02               0
GRID*              10965               01.0455518917E+028.0136500677E+01+
*       4.5119508139E+02               0
GRID*              10966               01.0211721375E+028.2574200763E+01+
*       4.4913294073E+02               0
GRID*              10967               01.0289547173E+028.2158645391E+01+
*       4.4964841399E+02               0
GRID*              10968               01.0127278956E+028.2829879471E+01+
*       4.4861763570E+02               0
GRID*              10969               01.0127255974E+028.2829925070E+01+
*       4.4964826197E+02               0
GRID*              10970               01.0357866270E+028.1598354450E+01+
*       4.5016394428E+02               0
GRID*              10971               01.0289532105E+028.2158745773E+01+
*       4.5067909431E+02               0
GRID*              10972               09.8670324697E+018.2571408301E+01+
*       4.4707194181E+02               0
GRID*              10973               09.9514402315E+018.2828457340E+01+
*       4.4758717956E+02               0
GRID*              10974               09.9514633652E+018.2828503762E+01+
*       4.4655652685E+02               0
GRID*              10975               09.7892923504E+018.2154728435E+01+
*       4.4758747138E+02               0
GRID*              10976               01.0039338702E+028.2915914854E+01+
*       4.4810236401E+02               0
GRID*              10977               01.0127305305E+028.2829827133E+01+
*       4.4758703874E+02               0
GRID*              10978               09.9514139860E+018.2828404680E+01+
*       4.4861777634E+02               0
GRID*              10979               01.0039382841E+028.2915915206E+01+
*       4.4604107515E+02               0
GRID*              10980               01.0127324013E+028.2829789893E+01+
*       4.4655636383E+02               0
GRID*              10981               01.0211761276E+028.2574035934E+01+
*       4.4707163906E+02               0
GRID*              10982               09.7219378583E+017.5229723730E+01+
*       4.4810749443E+02               0
GRID*              10983               09.7900242124E+017.4672194078E+01+
*       4.4759288090E+02               0
GRID*              10984               09.6658752186E+017.5911068107E+01+
*       4.4862224376E+02               0
GRID*              10985               09.6658656489E+017.5911211086E+01+
*       4.4759133340E+02               0
GRID*              10986               09.5897143723E+017.8408570496E+01+
*       4.4604312287E+02               0
GRID*              10987               09.5982432123E+017.9287582217E+01+
*       4.4655815206E+02               0
GRID*              10988               09.5984804841E+017.7532032366E+01+
*       4.4552816861E+02               0
GRID*              10989               09.5984800433E+017.7532054760E+01+
*       4.4655910546E+02               0
GRID*              10990               09.6242090569E+017.6688166015E+01+
*       4.4707511825E+02               0
GRID*              10991               09.6658682111E+017.5911173124E+01+
*       4.4656036479E+02               0
GRID*              10992               09.5984794374E+017.7532085413E+01+
*       4.4759007235E+02               0
GRID*              10993               01.0413900616E+028.0915419963E+01+
*       4.5274119068E+02               0
GRID*              10994               01.0413899220E+028.0915432469E+01+
*       4.5377214855E+02               0
GRID*              10995               01.0455516356E+028.0136562799E+01+
*       4.5325684865E+02               0
GRID*              10996               01.0211689069E+028.2574334084E+01+
*       4.5119445579E+02               0
GRID*              10997               01.0289523255E+028.2158804625E+01+
*       4.5170998315E+02               0
GRID*              10998               01.0127241082E+028.2829954578E+01+
*       4.5067906409E+02               0
GRID*              10999               01.0127230272E+028.2829975937E+01+
*       4.5170995237E+02               0
GRID*              11000               01.0357847167E+028.1598545407E+01+
*       4.5222555394E+02               0
GRID*              11001               01.0289516313E+028.2158850735E+01+
*       4.5274091155E+02               0
GRID*              11002               01.0413898444E+028.0915435479E+01+
*       4.5480322413E+02               0
GRID*              11003               01.0413897680E+028.0915438113E+01+
*       4.5583435874E+02               0
GRID*              11004               01.0455516641E+028.0136556159E+01+
*       4.5531894382E+02               0
GRID*              11005               01.0357838630E+028.1598630745E+01+
*       4.5428755826E+02               0
GRID*              11006               01.0289510969E+028.2158886170E+01+
*       4.5377190437E+02               0
GRID*              11007               01.0289508345E+028.2158903445E+01+
*       4.5480297929E+02               0
GRID*              11008               01.0413895844E+028.0915456596E+01+
*       4.5686536441E+02               0
GRID*              11009               01.0455519326E+028.0136491525E+01+
*       4.5738129961E+02               0
GRID*              11010               01.0211656170E+028.2574469613E+01+
*       4.5531830851E+02               0
GRID*              11011               01.0289500074E+028.2158958411E+01+
*       4.5583395886E+02               0
GRID*              11012               01.0127201863E+028.2830031672E+01+
*       4.5480282356E+02               0
GRID*              11013               01.0357832377E+028.1598693238E+01+
*       4.5634963915E+02               0
GRID*              11014               09.8669404913E+018.2571025908E+01+
*       4.5325680875E+02               0
GRID*              11015               09.9513501666E+018.2828276014E+01+
*       4.5377213110E+02               0
GRID*              11016               09.9513641915E+018.2828304286E+01+
*       4.5274123241E+02               0
GRID*              11017               09.7892237285E+018.2154268644E+01+
*       4.5274164698E+02               0
GRID*              11018               01.0039253826E+028.2915914054E+01+
*       4.5428744013E+02               0
GRID*              11019               01.0127217357E+028.2830001224E+01+
*       4.5377194144E+02               0
GRID*              11020               01.0039275282E+028.2915914271E+01+
*       4.5222556151E+02               0
GRID*              11021               01.0127224225E+028.2829987798E+01+
*       4.5274094921E+02               0
GRID*              11022               09.9513697932E+018.2828315699E+01+
*       4.5171023581E+02               0
GRID*              11023               01.0211672275E+028.2574403257E+01+
*       4.5325633681E+02               0
GRID*              11024               09.7210635103E+018.1593372506E+01+
*       4.4810315845E+02               0
GRID*              11025               09.6651624106E+018.0909976100E+01+
*       4.4758817395E+02               0
GRID*              11026               09.6651529773E+018.0909825714E+01+
*       4.4861898047E+02               0
GRID*              11027               09.7892799201E+018.2154645274E+01+
*       4.4861827794E+02               0
GRID*              11028               09.6236858054E+018.0131109052E+01+
*       4.4707310978E+02               0
GRID*              11029               09.5982413248E+017.9287461783E+01+
*       4.4758902765E+02               0
GRID*              11030               09.6242188266E+017.6687929908E+01+
*       4.4913698420E+02               0
GRID*              11031               09.5984864497E+017.7531736206E+01+
*       4.4965189660E+02               0
GRID*              11032               09.5984810059E+017.7532007518E+01+
*       4.4862099907E+02               0
GRID*              11033               09.5897146572E+017.8408065062E+01+
*       4.5016673619E+02               0
GRID*              11034               09.5982271714E+017.9286664481E+01+
*       4.5068158141E+02               0
GRID*              11035               09.5982343687E+017.9287048578E+01+
*       4.4965075818E+02               0
GRID*              11036               09.5897144770E+017.8408518160E+01+
*       4.4810498462E+02               0
GRID*              11037               09.5982395271E+017.9287343338E+01+
*       4.4861995327E+02               0
GRID*              11038               09.6236711678E+018.0130753947E+01+
*       4.4913478936E+02               0
GRID*              11039               09.6651391375E+018.0909608876E+01+
*       4.4964978454E+02               0
GRID*              11040               01.0039296479E+028.2915914476E+01+
*       4.5016376284E+02               0
GRID*              11041               09.9514016492E+018.2828379816E+01+
*       4.4964860931E+02               0
GRID*              11042               09.9513870207E+018.2828350361E+01+
*       4.5067941122E+02               0
GRID*              11043               09.8669986578E+018.2571267762E+01+
*       4.4913342763E+02               0
GRID*              11044               09.7892693001E+018.2154574185E+01+
*       4.4964911111E+02               0
GRID*              11045               09.6236505992E+018.0130254845E+01+
*       4.5119647995E+02               0
GRID*              11046               09.6651180166E+018.0909272825E+01+
*       4.5171156539E+02               0
GRID*              11047               09.6651313085E+018.0909482010E+01+
*       4.5068068118E+02               0
GRID*              11048               09.7210182014E+018.1592918062E+01+
*       4.5222657370E+02               0
GRID*              11049               09.7892441740E+018.2154405778E+01+
*       4.5171083256E+02               0
GRID*              11050               09.7210441543E+018.1593178383E+01+
*       4.5016486214E+02               0
GRID*              11051               09.7892590634E+018.2154505603E+01+
*       4.5068000776E+02               0
GRID*              11052               09.8669703770E+018.2571150183E+01+
*       4.5119508533E+02               0
GRID*              11053               01.0127411978E+027.4002207233E+01+
*       4.3831647260E+02               0
GRID*              11054               01.0127411986E+027.4002207242E+01+
*       4.3728554477E+02               0
GRID*              11055               01.0127405501E+027.4002194375E+01+
*       4.3934736494E+02               0
GRID*              11056               01.0127405492E+027.4002194365E+01+
*       4.4037829278E+02               0
GRID*              11057               01.0211750690E+027.4257817288E+01+
*       4.3883114178E+02               0
GRID*              11058               01.0289521667E+027.4672985176E+01+
*       4.3831495400E+02               0
GRID*              11059               01.0289516158E+027.4672948414E+01+
*       4.3934584545E+02               0
GRID*              11060               01.0357626637E+027.5231092228E+01+
*       4.3779874843E+02               0
GRID*              11061               01.0413673556E+027.5912899953E+01+
*       4.3728267869E+02               0
GRID*              11062               01.0413669319E+027.5912836929E+01+
*       4.3831358765E+02               0
GRID*              11063               01.0289527802E+027.4673026114E+01+
*       4.3728404345E+02               0
GRID*              11064               01.0127399578E+027.4002182587E+01+
*       4.3625458020E+02               0
GRID*              11065               01.0127399585E+027.4002182595E+01+
*       4.3522365236E+02               0
GRID*              11066               01.0211746216E+027.4257798793E+01+
*       4.3676928495E+02               0
GRID*              11067               01.0289517316E+027.4672956128E+01+
*       4.3625307972E+02               0
GRID*              11068               01.0455304167E+027.6690293994E+01+
*       4.3676654536E+02               0
GRID*              11069               01.0481001780E+027.7534771106E+01+
*       4.3625062985E+02               0
GRID*              11070               01.0481004071E+027.7534885712E+01+
*       4.3728162692E+02               0
GRID*              11071               01.0413666173E+027.5912789449E+01+
*       4.3625167983E+02               0
GRID*              11072               01.0357614285E+027.5230968937E+01+
*       4.3573680105E+02               0
GRID*              11073               01.0413652464E+027.5912584496E+01+
*       4.3522064292E+02               0
GRID*              11074               01.0289496705E+027.4672818578E+01+
*       4.3522204132E+02               0
GRID*              11075               01.0127387302E+027.4002158194E+01+
*       4.3419264684E+02               0
GRID*              11076               01.0127387309E+027.4002158201E+01+
*       4.3316171901E+02               0
GRID*              11077               01.0211723980E+027.4257706819E+01+
*       4.3470731494E+02               0
GRID*              11078               01.0289486323E+027.4672749296E+01+
*       4.3419103659E+02               0
GRID*              11079               01.0481123787E+027.9290764749E+01+
*       4.4140425556E+02               0
GRID*              11080               01.0481124347E+027.9290739750E+01+
*       4.4037355291E+02               0
GRID*              11081               01.0481124210E+027.9290739951E+01+
*       4.4243492150E+02               0
GRID*              11082               01.0481121865E+027.9290854892E+01+
*       4.4346554766E+02               0
GRID*              11083               01.0489709124E+027.8412117220E+01+
*       4.4191989562E+02               0
GRID*              11084               01.0481011398E+027.7535251826E+01+
*       4.4243569259E+02               0
GRID*              11085               01.0481011355E+027.7535249850E+01+
*       4.4140502468E+02               0
GRID*              11086               01.0455317917E+027.6690646011E+01+
*       4.4089008912E+02               0
GRID*              11087               01.0481013498E+027.7535357476E+01+
*       4.4037428855E+02               0
GRID*              11088               01.0413685305E+027.5913076505E+01+
*       4.4140609132E+02               0
GRID*              11089               01.0413690568E+027.5913154845E+01+
*       4.4037535323E+02               0
GRID*              11090               01.0357631600E+027.5231141771E+01+
*       4.3986051836E+02               0
GRID*              11091               01.0289528089E+027.4673028044E+01+
*       4.4037670650E+02               0
GRID*              11092               01.0413682701E+027.5913037060E+01+
*       4.3934449386E+02               0
GRID*              11093               01.0455315437E+027.6690575456E+01+
*       4.3882844768E+02               0
GRID*              11094               01.0481125115E+027.9290707215E+01+
*       4.3831192101E+02               0
GRID*              11095               01.0481123727E+027.9290774251E+01+
*       4.3934276618E+02               0
GRID*              11096               01.0489710407E+027.8411906083E+01+
*       4.3779669060E+02               0
GRID*              11097               01.0481009257E+027.7535145331E+01+
*       4.3831259558E+02               0
GRID*              11098               01.0481129811E+027.9290472937E+01+
*       4.3728095416E+02               0
GRID*              11099               01.0481013656E+027.7535365604E+01+
*       4.3934349993E+02               0
GRID*              11100               01.0489709816E+027.8412145128E+01+
*       4.3985844356E+02               0
GRID*              11101               01.0211714516E+027.4257667395E+01+
*       4.6151146059E+02               0
GRID*              11102               01.0289521285E+027.4672982749E+01+
*       4.6099512003E+02               0
GRID*              11103               01.0127408004E+027.4002199572E+01+
*       4.6099674735E+02               0
GRID*              11104               01.0127408019E+027.4002199588E+01+
*       4.5996581952E+02               0
GRID*              11105               01.0455308225E+027.6690543717E+01+
*       4.5944589310E+02               0
GRID*              11106               01.0413703793E+027.5913359043E+01+
*       4.5996234238E+02               0
GRID*              11107               01.0413716343E+027.5913546137E+01+
*       4.5893109561E+02               0
GRID*              11108               01.0481022864E+027.7535823710E+01+
*       4.5892966392E+02               0
GRID*              11109               01.0357648928E+027.5231314758E+01+
*       4.6047870604E+02               0
GRID*              11110               01.0289546754E+027.4673152730E+01+
*       4.5996397046E+02               0
GRID*              11111               01.0211749178E+027.4257810828E+01+
*       4.5944935249E+02               0
GRID*              11112               01.0289558074E+027.4673228294E+01+
*       4.5893293896E+02               0
GRID*              11113               01.0127421340E+027.4002226037E+01+
*       4.5893478624E+02               0
GRID*              11114               01.0127421354E+027.4002226053E+01+
*       4.5790385841E+02               0
GRID*              11115               01.0357662849E+027.5231453745E+01+
*       4.5841628592E+02               0
GRID*              11116               01.0413710458E+027.5913457809E+01+
*       4.5789982485E+02               0
GRID*              11117               01.0289548992E+027.4673167657E+01+
*       4.5790166508E+02               0
GRID*              11118               01.0127405998E+027.4002195536E+01+
*       4.5687272432E+02               0
GRID*              11119               01.0127406012E+027.4002195551E+01+
*       4.5584179648E+02               0
GRID*              11120               01.0211748554E+027.4257808269E+01+
*       4.5738718520E+02               0
GRID*              11121               01.0289536027E+027.4673081117E+01+
*       4.5687053264E+02               0
GRID*              11122               01.0481106257E+027.9291602240E+01+
*       4.5377282859E+02               0
GRID*              11123               01.0481106114E+027.9291613882E+01+
*       4.5274186867E+02               0
GRID*              11124               01.0481105994E+027.9291610959E+01+
*       4.5480389552E+02               0
GRID*              11125               01.0481106359E+027.9291587888E+01+
*       4.5583503227E+02               0
GRID*              11126               01.0489703374E+027.8412955135E+01+
*       4.5428887840E+02               0
GRID*              11127               01.0481027847E+027.7536074255E+01+
*       4.5480499163E+02               0
GRID*              11128               01.0481027082E+027.7536036060E+01+
*       4.5377392207E+02               0
GRID*              11129               01.0357660369E+027.5231428978E+01+
*       4.5635395117E+02               0
GRID*              11130               01.0413723438E+027.5913650958E+01+
*       4.5583764757E+02               0
GRID*              11131               01.0413719080E+027.5913586241E+01+
*       4.5686870863E+02               0
GRID*              11132               01.0289542230E+027.4673122509E+01+
*       4.5583946867E+02               0
GRID*              11133               01.0455328454E+027.6690996827E+01+
*       4.5532121918E+02               0
GRID*              11134               01.0481030353E+027.7536199837E+01+
*       4.5583619122E+02               0
GRID*              11135               01.0413715523E+027.5913532319E+01+
*       4.5480644512E+02               0
GRID*              11136               01.0455325270E+027.6690936880E+01+
*       4.5738353405E+02               0
GRID*              11137               01.0481106220E+027.9291590191E+01+
*       4.5686625929E+02               0
GRID*              11138               01.0481107592E+027.9291516170E+01+
*       4.5789747995E+02               0
GRID*              11139               01.0489702134E+027.8413004408E+01+
*       4.5635117251E+02               0
GRID*              11140               01.0481031000E+027.7536232126E+01+
*       4.5686742102E+02               0
GRID*              11141               01.0481027713E+027.7536067054E+01+
*       4.5789853420E+02               0
GRID*              11142               01.0489700807E+027.8412781029E+01+
*       4.5841352670E+02               0
GRID*              11143               01.0211748189E+027.4257806777E+01+
*       4.5532513858E+02               0
GRID*              11144               01.0289553756E+027.4673199442E+01+
*       4.5480855758E+02               0
GRID*              11145               01.0127419579E+027.4002222490E+01+
*       4.5481088387E+02               0
GRID*              11146               01.0127419592E+027.4002222504E+01+
*       4.5377995604E+02               0
GRID*              11147               01.0455328872E+027.6690990846E+01+
*       4.5325915033E+02               0
GRID*              11148               01.0413725259E+027.5913677407E+01+
*       4.5377557856E+02               0
GRID*              11149               01.0413729604E+027.5913741950E+01+
*       4.5274470850E+02               0
GRID*              11150               01.0481028880E+027.7536126400E+01+
*       4.5274305471E+02               0
GRID*              11151               01.0357677734E+027.5231602370E+01+
*       4.5429202081E+02               0
GRID*              11152               01.0289567989E+027.4673294449E+01+
*       4.5377768832E+02               0
GRID*              11153               01.0211769062E+027.4257893175E+01+
*       4.5326332955E+02               0
GRID*              11154               01.0289574075E+027.4673335072E+01+
*       4.5274679324E+02               0
GRID*              11155               01.0127426737E+027.4002236688E+01+
*       4.5274905954E+02               0
GRID*              11156               01.0127426750E+027.4002236701E+01+
*       4.5171813170E+02               0
GRID*              11157               01.0357675647E+027.5231581531E+01+
*       4.5223011626E+02               0
GRID*              11158               01.0413718624E+027.5913577533E+01+
*       4.5171367306E+02               0
GRID*              11159               01.0289557426E+027.4673223925E+01+
*       4.5171575528E+02               0
GRID*              11160               01.0127407650E+027.4002198748E+01+
*       4.5068711603E+02               0
GRID*              11161               01.0127407662E+027.4002198761E+01+
*       4.4965618819E+02               0
GRID*              11162               01.0211759128E+027.4257852085E+01+
*       4.5120141746E+02               0
GRID*              11163               01.0289541287E+027.4673116190E+01+
*       4.5068474094E+02               0
GRID*              11164               01.0481112402E+027.9291317580E+01+
*       4.4758797929E+02               0
GRID*              11165               01.0481114650E+027.9291208032E+01+
*       4.4655737549E+02               0
GRID*              11166               01.0481109949E+027.9291437363E+01+
*       4.4861870243E+02               0
GRID*              11167               01.0481107442E+027.9291559731E+01+
*       4.4964941848E+02               0
GRID*              11168               01.0489706635E+027.8412740352E+01+
*       4.4810380603E+02               0
GRID*              11169               01.0481024387E+027.7535901825E+01+
*       4.4861970976E+02               0
GRID*              11170               01.0481021442E+027.7535754293E+01+
*       4.4758898436E+02               0
GRID*              11171               01.0357661581E+027.5231441080E+01+
*       4.5016824487E+02               0
GRID*              11172               01.0413721084E+027.5913613576E+01+
*       4.4965203338E+02               0
GRID*              11173               01.0413720800E+027.5913609683E+01+
*       4.5068286696E+02               0
GRID*              11174               01.0289541448E+027.4673117260E+01+
*       4.4965390501E+02               0
GRID*              11175               01.0455331961E+027.6691035337E+01+
*       4.4913577755E+02               0
GRID*              11176               01.0481028700E+027.7536117961E+01+
*       4.4965060483E+02               0
GRID*              11177               01.0413707985E+027.5913417520E+01+
*       4.4862113591E+02               0
GRID*              11178               01.0455336378E+027.6691156398E+01+
*       4.5119747772E+02               0
GRID*              11179               01.0481104812E+027.9291688247E+01+
*       4.5068028950E+02               0
GRID*              11180               01.0481103719E+027.9291739072E+01+
*       4.5171109823E+02               0
GRID*              11181               01.0489705646E+027.8413016374E+01+
*       4.5016539988E+02               0
GRID*              11182               01.0481031827E+027.7536274668E+01+
*       4.5068147821E+02               0
GRID*              11183               01.0481030786E+027.7536222255E+01+
*       4.5171228177E+02               0
GRID*              11184               01.0489704554E+027.8413044451E+01+
*       4.5222704111E+02               0
GRID*              11185               01.0211752535E+027.4257824825E+01+
*       4.4913960450E+02               0
GRID*              11186               01.0289550535E+027.4673177905E+01+
*       4.4862310887E+02               0
GRID*              11187               01.0127418354E+027.4002219989E+01+
*       4.4862539082E+02               0
GRID*              11188               01.0127418365E+027.4002220001E+01+
*       4.4759446299E+02               0
GRID*              11189               01.0455326599E+027.6690892268E+01+
*       4.4707425861E+02               0
GRID*              11190               01.0413715086E+027.5913523270E+01+
*       4.4759045923E+02               0
GRID*              11191               01.0413715807E+027.5913533709E+01+
*       4.4655983448E+02               0
GRID*              11192               01.0481021980E+027.7535781509E+01+
*       4.4655836189E+02               0
GRID*              11193               01.0357670487E+027.5231530008E+01+
*       4.4810673240E+02               0
GRID*              11194               01.0289560873E+027.4673246914E+01+
*       4.4759243001E+02               0
GRID*              11195               01.0211769398E+027.4257894626E+01+
*       4.4707800399E+02               0
GRID*              11196               01.0289565801E+027.4673279802E+01+
*       4.4656162794E+02               0
GRID*              11197               01.0127424147E+027.4002231479E+01+
*       4.4656365977E+02               0
GRID*              11198               01.0127424158E+027.4002231490E+01+
*       4.4553273193E+02               0
GRID*              11199               01.0357664581E+027.5231471031E+01+
*       4.4604522342E+02               0
GRID*              11200               01.0413704407E+027.5913363065E+01+
*       4.4552900425E+02               0
GRID*              11201               01.0289548560E+027.4673164710E+01+
*       4.4553079566E+02               0
GRID*              11202               01.0127407457E+027.4002198304E+01+
*       4.4450183586E+02               0
GRID*              11203               01.0127407467E+027.4002198315E+01+
*       4.4347090803E+02               0
GRID*              11204               01.0211760401E+027.4257857413E+01+
*       4.4501630478E+02               0
GRID*              11205               01.0289534447E+027.4673070502E+01+
*       4.4449990067E+02               0
GRID*              11206               01.0357649788E+027.5231323344E+01+
*       4.4192217851E+02               0
GRID*              11207               01.0413691465E+027.5913168815E+01+
*       4.4243689040E+02               0
GRID*              11208               01.0211756423E+027.4257840974E+01+
*       4.4295461084E+02               0
GRID*              11209               01.0289548575E+027.4673164790E+01+
*       4.4243839590E+02               0
GRID*              11210               01.0289539115E+027.4673101655E+01+
*       4.4346919284E+02               0
GRID*              11211               01.0127418605E+027.4002220431E+01+
*       4.4244011008E+02               0
GRID*              11212               01.0127418615E+027.4002220442E+01+
*       4.4140918225E+02               0
GRID*              11213               01.0289539176E+027.4673102048E+01+
*       4.4140759502E+02               0
GRID*              11214               01.0211755780E+027.4257838330E+01+
*       4.4089292351E+02               0
GRID*              11215               01.0357653846E+027.5231363859E+01+
*       4.4398368533E+02               0
GRID*              11216               01.0413707106E+027.5913402775E+01+
*       4.4346764824E+02               0
GRID*              11217               01.0413703825E+027.5913354066E+01+
*       4.4449835416E+02               0
GRID*              11218               01.0455321904E+027.6690753663E+01+
*       4.4295158210E+02               0
GRID*              11219               01.0481016596E+027.7535512154E+01+
*       4.4346644838E+02               0
GRID*              11220               01.0455329891E+027.6690958481E+01+
*       4.4501298696E+02               0
GRID*              11221               01.0481116658E+027.9291114162E+01+
*       4.4449625701E+02               0
GRID*              11222               01.0481113940E+027.9291247665E+01+
*       4.4552682346E+02               0
GRID*              11223               01.0489708381E+027.8412384949E+01+
*       4.4398127038E+02               0
GRID*              11224               01.0481022300E+027.7535797936E+01+
*       4.4449715978E+02               0
GRID*              11225               01.0481022214E+027.7535793452E+01+
*       4.4552780771E+02               0
GRID*              11226               01.0489707556E+027.8412634691E+01+
*       4.4604253128E+02               0
GRID*              11227               09.9520631817E+017.4002113995E+01+
*       4.4656374470E+02               0
GRID*              11228               09.9520631306E+017.4002114064E+01+
*       4.4553281798E+02               0
GRID*              11229               09.8677495341E+017.4257516133E+01+
*       4.4707827674E+02               0
GRID*              11230               09.7900139529E+017.4672262512E+01+
*       4.4656197819E+02               0
GRID*              11231               09.7219123954E+017.5229977701E+01+
*       4.4604571678E+02               0
GRID*              11232               09.7899985183E+017.4672365470E+01+
*       4.4553111091E+02               0
GRID*              11233               09.6658580069E+017.5911325723E+01+
*       4.4552949927E+02               0
GRID*              11234               09.6242033921E+017.6688303376E+01+
*       4.4501329962E+02               0
GRID*              11235               09.5984771358E+017.7532199168E+01+
*       4.4449731830E+02               0
GRID*              11236               09.6658494148E+017.5911454341E+01+
*       4.4449864735E+02               0
GRID*              11237               09.9520522021E+017.4002135722E+01+
*       4.4450192923E+02               0
GRID*              11238               09.9520521426E+017.4002135798E+01+
*       4.4347100244E+02               0
GRID*              11239               09.8677291107E+017.4257600568E+01+
*       4.4501648536E+02               0
GRID*              11240               09.7899893256E+017.4672426799E+01+
*       4.4450022413E+02               0
GRID*              11241               09.7219036797E+017.5230064642E+01+
*       4.4398389364E+02               0
GRID*              11242               09.7899946148E+017.4672391524E+01+
*       4.4346926651E+02               0
GRID*              11243               09.6658531705E+017.5911398755E+01+
*       4.4346769138E+02               0
GRID*              11244               09.9520574537E+017.4002125206E+01+
*       4.4244004881E+02               0
GRID*              11245               09.9520573830E+017.4002125294E+01+
*       4.4140912195E+02               0
GRID*              11246               09.8677251653E+017.4257616863E+01+
*       4.4295464503E+02               0
GRID*              11247               09.7899991827E+017.4672361061E+01+
*       4.4243831472E+02               0
GRID*              11248               09.5897142416E+017.8408872249E+01+
*       4.4398145927E+02               0
GRID*              11249               09.5984706863E+017.7532520918E+01+
*       4.4346658981E+02               0
GRID*              11250               09.5982513883E+017.9288057212E+01+
*       4.4346568267E+02               0
GRID*              11251               09.6237083898E+018.0131656818E+01+
*       4.4294986658E+02               0
GRID*              11252               09.6652049660E+018.0910654476E+01+
*       4.4243428711E+02               0
GRID*              11253               09.5982550364E+017.9288258269E+01+
*       4.4243492345E+02               0
GRID*              11254               09.6241884877E+017.6688662980E+01+
*       4.4295162897E+02               0
GRID*              11255               09.6658424590E+017.5911559119E+01+
*       4.4243687086E+02               0
GRID*              11256               09.5984665734E+017.7532726044E+01+
*       4.4243577082E+02               0
GRID*              11257               09.5897141227E+017.8409176654E+01+
*       4.4191982290E+02               0
GRID*              11258               09.5982544951E+017.9288245522E+01+
*       4.4140401509E+02               0
GRID*              11259               09.5984669669E+017.7532706040E+01+
*       4.4140486127E+02               0
GRID*              11260               09.7218946595E+017.5230154626E+01+
*       4.4192210048E+02               0
GRID*              11261               09.7899833901E+017.4672466417E+01+
*       4.4140747754E+02               0
GRID*              11262               09.6658321311E+017.5911713818E+01+
*       4.4140603524E+02               0
GRID*              11263               09.6241820989E+017.6688817712E+01+
*       4.4088986609E+02               0
GRID*              11264               09.5984679604E+017.7532656074E+01+
*       4.4037391866E+02               0
GRID*              11265               09.6658359713E+017.5911657107E+01+
*       4.4037509119E+02               0
GRID*              11266               09.9520474421E+017.4002144972E+01+
*       4.4037824017E+02               0
GRID*              11267               09.9520473574E+017.4002145073E+01+
*       4.3934731326E+02               0
GRID*              11268               09.8677221326E+017.4257629385E+01+
*       4.4089281156E+02               0
GRID*              11269               09.7899750565E+017.4672522019E+01+
*       4.4037659750E+02               0
GRID*              11270               09.7218897679E+017.5230203426E+01+
*       4.3986028256E+02               0
GRID*              11271               09.7899851924E+017.4672454409E+01+
*       4.3934561521E+02               0
GRID*              11272               09.6658430732E+017.5911551759E+01+
*       4.3934411038E+02               0
GRID*              11273               09.9520550209E+017.4002129782E+01+
*       4.3831635017E+02               0
GRID*              11274               09.9520549169E+017.4002129903E+01+
*       4.3728542321E+02               0
GRID*              11275               09.8677212991E+017.4257632812E+01+
*       4.3883096852E+02               0
GRID*              11276               09.7899917814E+017.4672410462E+01+
*       4.3831465376E+02               0
GRID*              11277               09.7218854258E+017.5230246745E+01+
*       4.3779846507E+02               0
GRID*              11278               09.7899766320E+017.4672511531E+01+
*       4.3728381710E+02               0
GRID*              11279               09.6658332237E+017.5911699427E+01+
*       4.3831327075E+02               0
GRID*              11280               09.6658233990E+017.5911846763E+01+
*       4.3728243549E+02               0
GRID*              11281               09.9520447290E+017.4002150038E+01+
*       4.3625454595E+02               0
GRID*              11282               09.9520445999E+017.4002150186E+01+
*       4.3522361894E+02               0
GRID*              11283               09.8677202107E+017.4257637294E+01+
*       4.3676912991E+02               0
GRID*              11284               09.7899681229E+017.4672568306E+01+
*       4.3625294140E+02               0
GRID*              11285               09.9520162971E+017.4002206281E+01+
*       4.3419281211E+02               0
GRID*              11286               09.9520161351E+017.4002206464E+01+
*       4.3316188505E+02               0
GRID*              11287               09.8676851812E+017.4257782179E+01+
*       4.3470744747E+02               0
GRID*              11288               09.7899433027E+017.4672733915E+01+
*       4.3522214887E+02               0
GRID*              11289               09.7899194755E+017.4672892922E+01+
*       4.3419134352E+02               0
GRID*              11290               09.7218151011E+017.5230948505E+01+
*       4.3367522374E+02               0
GRID*              11291               09.7899018343E+017.4673010664E+01+
*       4.3316052121E+02               0
GRID*              11292               09.6657756460E+017.5912561869E+01+
*       4.3419002828E+02               0
GRID*              11293               09.6657641796E+017.5912733845E+01+
*       4.3315920725E+02               0
GRID*              11294               09.9519965870E+017.4002245147E+01+
*       4.3213099559E+02               0
GRID*              11295               09.9519963771E+017.4002245382E+01+
*       4.3110006849E+02               0
GRID*              11296               09.8676413126E+017.4257963679E+01+
*       4.3264575274E+02               0
GRID*              11297               09.7898854538E+017.4673120001E+01+
*       4.3212963315E+02               0
GRID*              11298               09.6241514272E+017.6689557758E+01+
*       4.3676651675E+02               0
GRID*              11299               09.6657997199E+017.5912200954E+01+
*       4.3625170631E+02               0
GRID*              11300               09.5984551272E+017.7533296571E+01+
*       4.3728144969E+02               0
GRID*              11301               09.5984464203E+017.7533731747E+01+
*       4.3625072182E+02               0
GRID*              11302               09.5897138112E+017.8410252477E+01+
*       4.3573480313E+02               0
GRID*              11303               09.5982744483E+017.9289306822E+01+
*       4.3624991222E+02               0
GRID*              11304               09.5982777970E+017.9289482985E+01+
*       4.3521906002E+02               0
GRID*              11305               09.5984427020E+017.7533917512E+01+
*       4.3521986842E+02               0
GRID*              11306               09.7218513214E+017.5230587029E+01+
*       4.3573683726E+02               0
GRID*              11307               09.6657834307E+017.5912444887E+01+
*       4.3522091512E+02               0
GRID*              11308               09.6241280189E+017.6690122211E+01+
*       4.3470490221E+02               0
GRID*              11309               09.5984395817E+017.7534073404E+01+
*       4.3418898284E+02               0
GRID*              11310               01.0039499490E+028.2915915925E+01+
*       4.3985704184E+02               0
GRID*              11311               09.9515931997E+018.2828764193E+01+
*       4.3934167030E+02               0
GRID*              11312               09.9515742525E+018.2828726230E+01+
*       4.4037243907E+02               0
GRID*              11313               01.0127452587E+028.2829532737E+01+
*       4.3934171550E+02               0
GRID*              11314               09.8671758269E+018.2572003785E+01+
*       4.3882625388E+02               0
GRID*              11315               09.7894281747E+018.2155635203E+01+
*       4.3831090523E+02               0
GRID*              11316               09.7894145343E+018.2155544319E+01+
*       4.3934172071E+02               0
GRID*              11317               09.9516096156E+018.2828797092E+01+
*       4.3831085493E+02               0
GRID*              11318               09.7211376255E+018.1594115595E+01+
*       4.4191872969E+02               0
GRID*              11319               09.6652194063E+018.0910878254E+01+
*       4.4140357090E+02               0
GRID*              11320               09.7893882919E+018.2155369415E+01+
*       4.4140328268E+02               0
GRID*              11321               09.8671412441E+018.2571860188E+01+
*       4.4088781212E+02               0
GRID*              11322               09.7894050011E+018.2155480907E+01+
*       4.4037253978E+02               0
GRID*              11323               09.6237257800E+018.0132078430E+01+
*       4.4088832945E+02               0
GRID*              11324               09.5982585669E+017.9288464667E+01+
*       4.4037323536E+02               0
GRID*              11325               09.6652317856E+018.0911070798E+01+
*       4.4037279303E+02               0
GRID*              11326               09.7211627234E+018.1594367152E+01+
*       4.3985719391E+02               0
GRID*              11327               09.6652398955E+018.0911198983E+01+
*       4.3934197405E+02               0
GRID*              11328               09.7211824638E+018.1594564982E+01+
*       4.3779551348E+02               0
GRID*              11329               09.6652645314E+018.0911580727E+01+
*       4.3728030521E+02               0
GRID*              11330               09.6652540683E+018.0911417833E+01+
*       4.3831116608E+02               0
GRID*              11331               09.7894410131E+018.2155720696E+01+
*       4.3728004428E+02               0
GRID*              11332               09.6237629069E+018.0132978138E+01+
*       4.3676504831E+02               0
GRID*              11333               09.5982715225E+017.9289150992E+01+
*       4.3728079732E+02               0
GRID*              11334               09.6652742040E+018.0911731467E+01+
*       4.3624942177E+02               0
GRID*              11335               09.5897140119E+017.8409504337E+01+
*       4.3985816864E+02               0
GRID*              11336               09.5984610623E+017.7533000470E+01+
*       4.3934317235E+02               0
GRID*              11337               09.5982651504E+017.9288809412E+01+
*       4.3934249026E+02               0
GRID*              11338               09.6237453502E+018.0132552746E+01+
*       4.3882674164E+02               0
GRID*              11339               09.5982697402E+017.9289051849E+01+
*       4.3831168053E+02               0
GRID*              11340               09.6241762624E+017.6688959117E+01+
*       4.3882808402E+02               0
GRID*              11341               09.5984572260E+017.7533191930E+01+
*       4.3831233410E+02               0
GRID*              11342               09.5897138959E+017.8409959424E+01+
*       4.3779653946E+02               0
GRID*              11343               01.0414007716E+028.0913915232E+01+
*       4.3728051003E+02               0
GRID*              11344               01.0358013200E+028.1596884887E+01+
*       4.3779571325E+02               0
GRID*              11345               01.0414007065E+028.0913929724E+01+
*       4.3624957362E+02               0
GRID*              11346               01.0414009973E+028.0913890648E+01+
*       4.3521858111E+02               0
GRID*              11347               01.0358027507E+028.1596741723E+01+
*       4.3573384332E+02               0
GRID*              11348               01.0455570373E+028.0135255661E+01+
*       4.3676522179E+02               0
GRID*              11349               01.0481129211E+027.9290506130E+01+
*       4.3625001634E+02               0
GRID*              11350               01.0414012301E+028.0913860036E+01+
*       4.3418747167E+02               0
GRID*              11351               01.0414003778E+028.0913991752E+01+
*       4.3315628477E+02               0
GRID*              11352               01.0358025166E+028.1596765149E+01+
*       4.3367166386E+02               0
GRID*              11353               01.0489710921E+027.8411643325E+01+
*       4.3573472184E+02               0
GRID*              11354               01.0481128983E+027.9290520356E+01+
*       4.3521901378E+02               0
GRID*              11355               01.0481001550E+027.7534759796E+01+
*       4.3521962553E+02               0
GRID*              11356               01.0455570651E+028.0135248835E+01+
*       4.3470317400E+02               0
GRID*              11357               01.0481129467E+027.9290498479E+01+
*       4.3418790297E+02               0
GRID*              11358               09.9513289682E+017.4003576172E+01+
*       4.2697859521E+02               0
GRID*              11359               09.9513292368E+017.4003575875E+01+
*       4.2800952240E+02               0
GRID*              11360               09.9498245778E+017.4006616239E+01+
*       4.2595253375E+02               0
GRID*              11361               09.9498244264E+017.4006616408E+01+
*       4.2492160652E+02               0
GRID*              11362               09.8649512166E+017.4269198247E+01+
*       4.2646956813E+02               0
GRID*              11363               09.7869576638E+017.4692828831E+01+
*       4.2698709593E+02               0
GRID*              11364               09.7856907256E+017.4701461325E+01+
*       4.2596103567E+02               0
GRID*              11365               09.7158574562E+017.5291551899E+01+
*       4.2545466032E+02               0
GRID*              11366               09.7834201488E+017.4717091232E+01+
*       4.2493713163E+02               0
GRID*              11367               09.6608658191E+017.5987485811E+01+
*       4.2597443296E+02               0
GRID*              11368               09.6593817970E+017.6010787738E+01+
*       4.2495053007E+02               0
GRID*              11369               09.9482679350E+017.4009817879E+01+
*       4.2389439007E+02               0
GRID*              11370               09.9482678842E+017.4009817938E+01+
*       4.2286346280E+02               0
GRID*              11371               09.8620738519E+017.4281441867E+01+
*       4.2441629147E+02               0
GRID*              11372               09.7821173186E+017.4726152474E+01+
*       4.2390991637E+02               0
GRID*              11373               09.7883925005E+017.4683128351E+01+
*       4.2801215527E+02               0
GRID*              11374               09.7189972500E+017.5259326210E+01+
*       4.2750362259E+02               0
GRID*              11375               09.7886697940E+017.4681262910E+01+
*       4.2904216419E+02               0
GRID*              11376               09.7894236045E+017.4676206892E+01+
*       4.3006980577E+02               0
GRID*              11377               09.7208588028E+017.5240522318E+01+
*       4.2955632236E+02               0
GRID*              11378               09.8666770112E+017.4261967376E+01+
*       4.2852563849E+02               0
GRID*              11379               09.9516575202E+017.4002919755E+01+
*       4.2903953260E+02               0
GRID*              11380               09.7897101158E+017.4674290949E+01+
*       4.3109941317E+02               0
GRID*              11381               09.7216507429E+017.5232589828E+01+
*       4.3161418271E+02               0
GRID*              11382               09.9516577576E+017.4002919491E+01+
*       4.3007045975E+02               0
GRID*              11383               09.8673046867E+017.4259358338E+01+
*       4.3058525602E+02               0
GRID*              11384               09.5897751524E+017.8490214171E+01+
*       4.2752779360E+02               0
GRID*              11385               09.5968089211E+017.7620014206E+01+
*       4.2701304580E+02               0
GRID*              11386               09.5973423455E+017.7590880439E+01+
*       4.2803101338E+02               0
GRID*              11387               09.5995922221E+017.9353535302E+01+
*       4.2804582727E+02               0
GRID*              11388               09.6002191923E+017.9382518861E+01+
*       4.2702785970E+02               0
GRID*              11389               09.6206146698E+017.6777281637E+01+
*       4.2649328671E+02               0
GRID*              11390               09.6623829185E+017.5963986518E+01+
*       4.2699741185E+02               0
GRID*              11391               09.5963233161E+017.7647527297E+01+
*       4.2599006852E+02               0
GRID*              11392               09.6646129026E+017.5930015923E+01+
*       4.2904351328E+02               0
GRID*              11393               09.6651160663E+017.5922442106E+01+
*       4.3007115367E+02               0
GRID*              11394               09.6633316034E+017.5949452724E+01+
*       4.2802247003E+02               0
GRID*              11395               09.6225098487E+017.6729618268E+01+
*       4.2853730701E+02               0
GRID*              11396               09.5977746122E+017.7568029440E+01+
*       4.2905205509E+02               0
GRID*              11397               09.5980695913E+017.7552795267E+01+
*       4.3007416382E+02               0
GRID*              11398               09.5897229130E+017.8445004947E+01+
*       4.2956787039E+02               0
GRID*              11399               09.5981734354E+017.7547498305E+01+
*       4.3110299959E+02               0
GRID*              11400               09.5983231344E+017.7539920753E+01+
*       4.3212979504E+02               0
GRID*              11401               09.5897138027E+017.8421727234E+01+
*       4.3161677412E+02               0
GRID*              11402               09.6235943047E+017.6703032698E+01+
*       4.3058718567E+02               0
GRID*              11403               09.6654149770E+017.5917958154E+01+
*       4.3109999070E+02               0
GRID*              11404               09.6655320071E+017.5916205297E+01+
*       4.3213020945E+02               0
GRID*              11405               09.5984048395E+017.7535813645E+01+
*       4.3315879155E+02               0
GRID*              11406               09.5897135747E+017.8412216166E+01+
*       4.3367375982E+02               0
GRID*              11407               09.6239609865E+017.6694150894E+01+
*       4.3264501904E+02               0
GRID*              11408               09.5991667803E+017.9333320360E+01+
*       4.2906234835E+02               0
GRID*              11409               09.5988531057E+017.9318111771E+01+
*       4.3008445651E+02               0
GRID*              11410               09.6261081307E+018.0188720440E+01+
*       4.2856241334E+02               0
GRID*              11411               09.6676702970E+018.0947336474E+01+
*       4.2907469927E+02               0
GRID*              11412               09.6688372169E+018.0964403768E+01+
*       4.2805817880E+02               0
GRID*              11413               09.7235053457E+018.1617672949E+01+
*       4.2958486653E+02               0
GRID*              11414               09.7908996557E+018.2165440931E+01+
*       4.3009059524E+02               0
GRID*              11415               09.7920140637E+018.2172814200E+01+
*       4.2907616690E+02               0
GRID*              11416               09.6669184203E+018.0936248486E+01+
*       4.3008912835E+02               0
GRID*              11417               09.5985758526E+017.9304442169E+01+
*       4.3110364572E+02               0
GRID*              11418               09.5984242150E+017.9296870447E+01+
*       4.3213044028E+02               0
GRID*              11419               09.6247553056E+018.0156821978E+01+
*       4.3059812027E+02               0
GRID*              11420               09.6661378354E+018.0924661553E+01+
*       4.3110831668E+02               0
GRID*              11421               09.6658094232E+018.0919760833E+01+
*       4.3213206264E+02               0
GRID*              11422               09.7221397561E+018.1604129107E+01+
*       4.3162304095E+02               0
GRID*              11423               09.6656109181E+018.0916789965E+01+
*       4.3316092080E+02               0
GRID*              11424               09.6654426457E+018.0914266635E+01+
*       4.3418927063E+02               0
GRID*              11425               09.7215124353E+018.1597868189E+01+
*       4.3367513675E+02               0
GRID*              11426               09.6240794015E+018.0140624402E+01+
*       4.3264616671E+02               0
GRID*              11427               09.5983550826E+017.9293393276E+01+
*       4.3315929981E+02               0
GRID*              11428               09.5983208388E+017.9291662698E+01+
*       4.3418948997E+02               0
GRID*              11429               09.6653181481E+018.0912395849E+01+
*       4.3521883919E+02               0
GRID*              11430               09.7212474201E+018.1595215774E+01+
*       4.3573406950E+02               0
GRID*              11431               09.6238561829E+018.0135235780E+01+
*       4.3470459466E+02               0
GRID*              11432               09.7905851824E+018.2163352008E+01+
*       4.3111140345E+02               0
GRID*              11433               09.7900974941E+018.2160104685E+01+
*       4.3213514914E+02               0
GRID*              11434               09.8683086500E+018.2576688287E+01+
*       4.3060270503E+02               0
GRID*              11435               09.9520718103E+018.2829717509E+01+
*       4.3110793348E+02               0
GRID*              11436               09.9524426179E+018.2830451706E+01+
*       4.3008712533E+02               0
GRID*              11437               01.0039676399E+028.2915916427E+01+
*       4.3161856643E+02               0
GRID*              11438               01.0127512684E+028.2829410416E+01+
*       4.3212833379E+02               0
GRID*              11439               01.0127467431E+028.2829499911E+01+
*       4.3110212196E+02               0
GRID*              11440               09.9521166029E+018.2829806250E+01+
*       4.3213414519E+02               0
GRID*              11441               09.7898880735E+018.2158707700E+01+
*       4.3316039087E+02               0
GRID*              11442               09.7896393115E+018.2157045985E+01+
*       4.3418874060E+02               0
GRID*              11443               09.8677269270E+018.2574287255E+01+
*       4.3264875490E+02               0
GRID*              11444               09.9518692196E+018.2829314850E+01+
*       4.3315938684E+02               0
GRID*              11445               01.0289738805E+028.2157368027E+01+
*       4.3315675745E+02               0
GRID*              11446               01.0289748807E+028.2157301030E+01+
*       4.3418794407E+02               0
GRID*              11447               01.0211885875E+028.2573520460E+01+
*       4.3264246491E+02               0
GRID*              11448               01.0127584132E+028.2829268774E+01+
*       4.3315890764E+02               0
GRID*              11449               01.0289678628E+028.2157770352E+01+
*       4.3212618319E+02               0
GRID*              11450               01.0289752016E+028.2157279431E+01+
*       4.3521839536E+02               0
GRID*              11451               01.0289745065E+028.2157325749E+01+
*       4.3624938760E+02               0
GRID*              11452               01.0039689328E+028.2915916436E+01+
*       4.3367429111E+02               0
GRID*              11453               01.0127552815E+028.2829331495E+01+
*       4.3418842060E+02               0
GRID*              11454               09.9518374407E+018.2829251515E+01+
*       4.3418889969E+02               0
GRID*              11455               01.0211955986E+028.2573230139E+01+
*       4.3470349007E+02               0
GRID*              11456               01.0127557042E+028.2829323518E+01+
*       4.3521887149E+02               0
GRID*              11457               01.0289718743E+028.2157501373E+01+
*       4.3831107841E+02               0
GRID*              11458               01.0289728351E+028.2157437316E+01+
*       4.3728020133E+02               0
GRID*              11459               01.0211903849E+028.2573446156E+01+
*       4.3882636450E+02               0
GRID*              11460               01.0127471395E+028.2829494993E+01+
*       4.3831091944E+02               0
GRID*              11461               09.7895528172E+018.2156467964E+01+
*       4.3521891955E+02               0
GRID*              11462               09.7894900073E+018.2156048165E+01+
*       4.3624950218E+02               0
GRID*              11463               09.8673976847E+018.2572924094E+01+
*       4.3470417549E+02               0
GRID*              11464               09.9517349697E+018.2829047391E+01+
*       4.3521907855E+02               0
GRID*              11465               01.0211940744E+028.2573293324E+01+
*       4.3676475469E+02               0
GRID*              11466               01.0127522872E+028.2829391880E+01+
*       4.3624942199E+02               0
GRID*              11467               01.0127503560E+028.2829430679E+01+
*       4.3728023531E+02               0
GRID*              11468               01.0039621286E+028.2915916347E+01+
*       4.3573435445E+02               0
GRID*              11469               09.9517003660E+018.2828978315E+01+
*       4.3624962893E+02               0
GRID*              11470               01.0039552422E+028.2915916149E+01+
*       4.3779558895E+02               0
GRID*              11471               09.9516421688E+018.2828862163E+01+
*       4.3728017093E+02               0
GRID*              11472               09.8672463178E+018.2572296354E+01+
*       4.3676489643E+02               0
GRID*              11473               01.0481125682E+027.9290692160E+01+
*       4.3315669365E+02               0
GRID*              11474               01.0489711410E+027.8411813181E+01+
*       4.3367251067E+02               0
GRID*              11475               01.0481090034E+027.9292492860E+01+
*       4.3212564688E+02               0
GRID*              11476               01.0489711913E+027.8412980105E+01+
*       4.3160947623E+02               0
GRID*              11477               01.0481070290E+027.9293489456E+01+
*       4.3109382091E+02               0
GRID*              11478               01.0455502071E+028.0136906356E+01+
*       4.3264101720E+02               0
GRID*              11479               01.0413902866E+028.0915506584E+01+
*       4.3212523914E+02               0
GRID*              11480               01.0357739038E+028.1599625878E+01+
*       4.3161090363E+02               0
GRID*              11481               01.0289351476E+028.2159954543E+01+
*       4.3109661018E+02               0
GRID*              11482               01.0413682406E+028.0918806739E+01+
*       4.3109566566E+02               0
GRID*              11483               01.0481021816E+027.9295927906E+01+
*       4.3006171559E+02               0
GRID*              11484               01.0489712328E+027.8414327688E+01+
*       4.2954389580E+02               0
GRID*              11485               01.0481014421E+027.9296300882E+01+
*       4.2902796023E+02               0
GRID*              11486               01.0455337377E+028.0140879412E+01+
*       4.3057786583E+02               0
GRID*              11487               01.0413545009E+028.0920861462E+01+
*       4.3006356137E+02               0
GRID*              11488               01.0481011244E+027.7535246042E+01+
*       4.3212609499E+02               0
GRID*              11489               01.0481030580E+027.7536215786E+01+
*       4.3109426732E+02               0
GRID*              11490               01.0481010211E+027.7535194098E+01+
*       4.3315738702E+02               0
GRID*              11491               01.0481006860E+027.7535025993E+01+
*       4.3418859807E+02               0
GRID*              11492               01.0455325966E+027.6690801542E+01+
*       4.3264219972E+02               0
GRID*              11493               01.0413671760E+027.5912872220E+01+
*       4.3315861093E+02               0
GRID*              11494               01.0413673833E+027.5912902985E+01+
*       4.3212731723E+02               0
GRID*              11495               01.0357602978E+027.5230856082E+01+
*       4.3367475991E+02               0
GRID*              11496               01.0289493684E+027.4672798409E+01+
*       4.3316003238E+02               0
GRID*              11497               01.0413666722E+027.5912797198E+01+
*       4.3418961373E+02               0
GRID*              11498               01.0455311861E+027.6690470125E+01+
*       4.3470451999E+02               0
GRID*              11499               01.0211718325E+027.4257683441E+01+
*       4.3264527476E+02               0
GRID*              11500               01.0289498149E+027.4672828201E+01+
*       4.3212899838E+02               0
GRID*              11501               01.0127392560E+027.4002168624E+01+
*       4.3213068427E+02               0
GRID*              11502               01.0127392566E+027.4002168630E+01+
*       4.3109975644E+02               0
GRID*              11503               01.0357597550E+027.5230801905E+01+
*       4.3161241440E+02               0
GRID*              11504               01.0413664733E+027.5912766884E+01+
*       4.3109597587E+02               0
GRID*              11505               01.0289484441E+027.4672736727E+01+
*       4.3109765569E+02               0
GRID*              11506               01.0127353353E+027.4002090764E+01+
*       4.3006858603E+02               0
GRID*              11507               01.0127353359E+027.4002090770E+01+
*       4.2903765819E+02               0
GRID*              11508               01.0211687187E+027.4257554660E+01+
*       4.3058306968E+02               0
GRID*              11509               01.0289451247E+027.4672515254E+01+
*       4.3006648597E+02               0
GRID*              11510               01.0481024414E+027.7535906656E+01+
*       4.3006170702E+02               0
GRID*              11511               01.0481031345E+027.7536254478E+01+
*       4.2902795002E+02               0
GRID*              11512               01.0455317407E+027.6690587834E+01+
*       4.3057834662E+02               0
GRID*              11513               01.0413646277E+027.5912491105E+01+
*       4.3006341397E+02               0
GRID*              11514               01.0455209825E+027.6687991923E+01+
*       4.2851163497E+02               0
GRID*              11515               01.0413562551E+027.5911241181E+01+
*       4.2903053453E+02               0
GRID*              11516               01.0413421106E+027.5909131760E+01+
*       4.2799638253E+02               0
GRID*              11517               01.0480982037E+027.7533784189E+01+
*       4.2799379952E+02               0
GRID*              11518               01.0357479458E+027.5229623764E+01+
*       4.2954819232E+02               0
GRID*              11519               01.0289326280E+027.4671681859E+01+
*       4.2903360527E+02               0
GRID*              11520               01.0211505695E+027.4256804532E+01+
*       4.2851927081E+02               0
GRID*              11521               01.0289195779E+027.4670812199E+01+
*       4.2800097741E+02               0
GRID*              11522               01.0127199304E+027.4001785222E+01+
*       4.2800502967E+02               0
GRID*              11523               01.0127199309E+027.4001785227E+01+
*       4.2697410184E+02               0
GRID*              11524               01.0357113074E+027.5225974075E+01+
*       4.2748163399E+02               0
GRID*              11525               01.0413216279E+027.5906081732E+01+
*       4.2696270487E+02               0
GRID*              11526               01.0288890575E+027.4668780880E+01+
*       4.2696729855E+02               0
GRID*              11527               01.0126945306E+027.4001282669E+01+
*       4.2594137614E+02               0
GRID*              11528               01.0126945310E+027.4001282673E+01+
*       4.2491044830E+02               0
GRID*              11529               01.0211121433E+027.4255219376E+01+
*       4.2645391665E+02               0
GRID*              11530               01.0288675233E+027.4667349801E+01+
*       4.2593457348E+02               0
GRID*              11531               01.0356401665E+027.5218911426E+01+
*       4.2540611807E+02               0
GRID*              11532               01.0412574589E+027.5896561325E+01+
*       4.2487788052E+02               0
GRID*              11533               01.0412930736E+027.5901838792E+01+
*       4.2591971760E+02               0
GRID*              11534               01.0288145813E+027.4663839071E+01+
*       4.2489273525E+02               0
GRID*              11535               01.0126664290E+027.4000728435E+01+
*       4.2387168556E+02               0
GRID*              11536               01.0126664294E+027.4000728439E+01+
*       4.2284075772E+02               0
GRID*              11537               01.0210617124E+027.4253145285E+01+
*       4.2438242826E+02               0
GRID*              11538               01.0287907275E+027.4662260768E+01+
*       4.2385397314E+02               0
GRID*              11539               01.0210966790E+028.2577314255E+01+
*       4.3059244334E+02               0
GRID*              11540               01.0126560562E+028.2831291409E+01+
*       4.3008267466E+02               0
GRID*              11541               01.0288582270E+028.2165073628E+01+
*       4.3007716247E+02               0
GRID*              11542               01.0356421415E+028.1612732413E+01+
*       4.2955742377E+02               0
GRID*              11543               01.0412725987E+028.0933042620E+01+
*       4.2903965412E+02               0
GRID*              11544               01.0287360421E+028.2173158290E+01+
*       4.2905325621E+02               0
GRID*              11545               01.0454917790E+027.6680980354E+01+
*       4.2643449756E+02               0
GRID*              11546               01.0480933690E+027.7531369133E+01+
*       4.2591035505E+02               0
GRID*              11547               01.0481033425E+027.7536359157E+01+
*       4.2695334093E+02               0
GRID*              11548               01.0454773528E+028.0154401424E+01+
*       4.2851285559E+02               0
GRID*              11549               01.0412043775E+028.0943124456E+01+
*       4.2800674865E+02               0
GRID*              11550               01.0480774437E+027.9308257317E+01+
*       4.2799505476E+02               0
GRID*              11551               01.0489712626E+027.8417309635E+01+
*       4.2746968465E+02               0
GRID*              11552               01.0480721779E+027.9310859828E+01+
*       4.2695459786E+02               0
GRID*              11553               09.8582265135E+017.4298182914E+01+
*       4.2236424547E+02               0
GRID*              11554               09.7776932483E+017.4757435914E+01+
*       4.2288781482E+02               0
GRID*              11555               09.7755845158E+017.4772630923E+01+
*       4.2186298526E+02               0
GRID*              11556               09.9457215304E+017.4015179215E+01+
*       4.2183863200E+02               0
GRID*              11557               09.9457215248E+017.4015179227E+01+
*       4.2080770472E+02               0
GRID*              11558               09.6170941948E+017.6870318004E+01+
*       4.2445774993E+02               0
GRID*              11559               09.6556097559E+017.6071482179E+01+
*       4.2393796992E+02               0
GRID*              11560               09.5951242860E+017.7720245211E+01+
*       4.2498906598E+02               0
GRID*              11561               09.5940769920E+017.7790824002E+01+
*       4.2397650809E+02               0
GRID*              11562               09.7102225841E+017.5351047665E+01+
*       4.2340865581E+02               0
GRID*              11563               09.6528083223E+017.6118001816E+01+
*       4.2291586958E+02               0
GRID*              11564               09.5900662498E+017.8593675623E+01+
*       4.2550882056E+02               0
GRID*              11565               09.6017123610E+017.9448107420E+01+
*       4.2603752758E+02               0
GRID*              11566               09.6034616629E+017.9519726412E+01+
*       4.2503652110E+02               0
GRID*              11567               09.6296509476E+018.0269195376E+01+
*       4.2655556669E+02               0
GRID*              11568               09.6714892033E+018.1002573762E+01+
*       4.2707851174E+02               0
GRID*              11569               09.6753962202E+018.1057319429E+01+
*       4.2608817813E+02               0
GRID*              11570               09.7277915181E+018.1659438880E+01+
*       4.2759077347E+02               0
GRID*              11571               09.7933215413E+018.2181404506E+01+
*       4.2809506029E+02               0
GRID*              11572               09.7972229715E+018.2206654390E+01+
*       4.2711539601E+02               0
GRID*              11573               01.0039099249E+028.2915912170E+01+
*       4.2959210193E+02               0
GRID*              11574               09.9519209791E+018.2829418173E+01+
*       4.2908687267E+02               0
GRID*              11575               01.0126038269E+028.2832314266E+01+
*       4.2908242186E+02               0
GRID*              11576               09.8701036091E+018.2584036961E+01+
*       4.2860079028E+02               0
GRID*              11577               09.9534564052E+018.2832442407E+01+
*       4.2810576613E+02               0
GRID*              11578               01.0127178806E+027.4001744589E+01+
*       4.2179081810E+02               0
GRID*              11579               01.0127178808E+027.4001744592E+01+
*       4.2075989026E+02               0
GRID*              11580               01.0210838008E+027.4254052875E+01+
*       4.2229372595E+02               0
GRID*              11581               01.0288091880E+027.4663482026E+01+
*       4.2175241954E+02               0
GRID*              11582               01.0287654966E+027.4660593720E+01+
*       4.2280235846E+02               0
GRID*              11583               01.0454450346E+027.6669830364E+01+
*       4.2433580041E+02               0
GRID*              11584               01.0480837688E+027.7526593490E+01+
*       4.2379825998E+02               0
GRID*              11585               01.0480975534E+027.7533459311E+01+
*       4.2485397006E+02               0
GRID*              11586               01.0412180357E+027.5890738202E+01+
*       4.2382216919E+02               0
GRID*              11587               01.0355734436E+027.5212315924E+01+
*       4.2331266634E+02               0
GRID*              11588               01.0412010193E+027.5888230742E+01+
*       4.2277055570E+02               0
GRID*              11589               01.0207652342E+028.2590799118E+01+
*       4.2857541992E+02               0
GRID*              11590               01.0123424627E+028.2837338283E+01+
*       4.2808484620E+02               0
GRID*              11591               01.0285134486E+028.2187740381E+01+
*       4.2805568011E+02               0
GRID*              11592               01.0352778216E+028.1648416500E+01+
*       4.2751301564E+02               0
GRID*              11593               01.0409989137E+028.0973132891E+01+
*       4.2698624549E+02               0
GRID*              11594               01.0282079219E+028.2207451197E+01+
*       4.2703517896E+02               0
GRID*              11595               01.0489712463E+027.8422066423E+01+
*       4.2537284575E+02               0
GRID*              11596               01.0480237770E+027.9334409292E+01+
*       4.2485238356E+02               0
GRID*              11597               01.0480281750E+027.9332294510E+01+
*       4.2590876694E+02               0
GRID*              11598               01.0453447006E+028.0185736270E+01+
*       4.2643411948E+02               0
GRID*              11599               01.0408743091E+028.0991082940E+01+
*       4.2594041357E+02               0
GRID*              11600               01.0037255556E+028.2915848305E+01+
*       4.2764760751E+02               0
GRID*              11601               09.9521692350E+018.2829911051E+01+
*       4.2716152450E+02               0
GRID*              11602               01.0122134925E+028.2839758353E+01+
*       4.2714060441E+02               0
GRID*              11603               09.7384763412E+018.1758882197E+01+
*       4.2565314135E+02               0
GRID*              11604               09.8014516182E+018.2233382390E+01+
*       4.2618934621E+02               0
GRID*              11605               09.8099465558E+018.2285115431E+01+
*       4.2523137903E+02               0
GRID*              11606               09.6813212733E+018.1137176591E+01+
*       4.2513020493E+02               0
GRID*              11607               09.8761942523E+018.2608303819E+01+
*       4.2669363392E+02               0
GRID*              11608               09.9570824372E+018.2839364824E+01+
*       4.2623547476E+02               0
GRID*              11609               09.6372227470E+018.0428369585E+01+
*       4.2458174036E+02               0
GRID*              11610               09.6062589468E+017.9624911784E+01+
*       4.2405300450E+02               0
GRID*              11611               09.6880181463E+018.1223205084E+01+
*       4.2414669560E+02               0
GRID*              11612               09.5911855579E+017.8779092123E+01+
*       4.2350510951E+02               0
GRID*              11613               09.5926622802E+017.7901646058E+01+
*       4.2297380586E+02               0
GRID*              11614               09.6093921239E+017.9732075238E+01+
*       4.2305028843E+02               0
GRID*              11615               09.8541293058E+017.4316482187E+01+
*       4.2032827861E+02               0
GRID*              11616               09.7712238512E+017.4804646842E+01+
*       4.2082931480E+02               0
GRID*              11617               09.7697184688E+017.4815888345E+01+
*       4.1981817878E+02               0
GRID*              11618               09.9438866820E+017.4019138046E+01+
*       4.1979656734E+02               0
GRID*              11619               09.9438866704E+017.4019138071E+01+
*       4.1876564009E+02               0
GRID*              11620               09.6115140654E+017.7032327950E+01+
*       4.2241540894E+02               0
GRID*              11621               09.6478078729E+017.6204361470E+01+
*       4.2188608530E+02               0
GRID*              11622               09.5916331821E+017.8000754713E+01+
*       4.2194402398E+02               0
GRID*              11623               09.7029295051E+017.5431395678E+01+
*       4.2135288490E+02               0
GRID*              11624               09.6451727130E+017.6251730566E+01+
*       4.2085241667E+02               0
GRID*              11625               01.0130035907E+027.4007501095E+01+
*       4.1966674613E+02               0
GRID*              11626               01.0130035907E+027.4007501095E+01+
*       4.1863581830E+02               0
GRID*              11627               01.0214017289E+027.4267267687E+01+
*       4.2015064226E+02               0
GRID*              11628               01.0291457679E+027.4685978748E+01+
*       4.1960009557E+02               0
GRID*              11629               01.0289039929E+027.4669774458E+01+
*       4.2069323903E+02               0
GRID*              11630               01.0453807043E+027.6654623746E+01+
*       4.2221519026E+02               0
GRID*              11631               01.0480541372E+027.7512018226E+01+
*       4.2165190634E+02               0
GRID*              11632               01.0480731172E+027.7521325772E+01+
*       4.2271680512E+02               0
GRID*              11633               01.0411473758E+027.5880349936E+01+
*       4.2170565596E+02               0
GRID*              11634               01.0356329022E+027.5218192013E+01+
*       4.2120187252E+02               0
GRID*              11635               01.0412115446E+027.5889781057E+01+
*       4.2064647688E+02               0
GRID*              11636               01.0198412285E+028.2626788137E+01+
*       4.2660307587E+02               0
GRID*              11637               01.0114973247E+028.2852493524E+01+
*       4.2616583655E+02               0
GRID*              11638               01.0275920011E+028.2246136453E+01+
*       4.2606041059E+02               0
GRID*              11639               01.0345110201E+028.1720943553E+01+
*       4.2543830548E+02               0
GRID*              11640               01.0404739875E+028.1047520993E+01+
*       4.2488620192E+02               0
GRID*              11641               01.0270001460E+028.2282018056E+01+
*       4.2500620253E+02               0
GRID*              11642               01.0489712958E+027.8418827382E+01+
*       4.2323500925E+02               0
GRID*              11643               01.0479967319E+027.9347298182E+01+
*       4.2268981023E+02               0
GRID*              11644               01.0479856139E+027.9352541140E+01+
*       4.2377126399E+02               0
GRID*              11645               01.0451843143E+028.0222768320E+01+
*       4.2430716921E+02               0
GRID*              11646               01.0403655001E+028.1062506288E+01+
*       4.2380508180E+02               0
GRID*              11647               09.6491014370E+018.0650239625E+01+
*       4.2260300419E+02               0
GRID*              11648               09.6137761849E+017.9867705438E+01+
*       4.2205504367E+02               0
GRID*              11649               09.6976932322E+018.1340323609E+01+
*       4.2317262094E+02               0
GRID*              11650               09.7576258807E+018.1921938168E+01+
*       4.2372110759E+02               0
GRID*              11651               09.7071488138E+018.1447431958E+01+
*       4.2217737536E+02               0
GRID*              11652               09.7826235034E+018.2109166113E+01+
*       4.2172786684E+02               0
GRID*              11653               09.7181277666E+018.1563656950E+01+
*       4.2115820047E+02               0
GRID*              11654               09.8728254007E+018.2595008467E+01+
*       4.2131034578E+02               0
GRID*              11655               09.9715116050E+018.2863882372E+01+
*       4.2083674349E+02               0
GRID*              11656               09.8875828623E+018.2650958832E+01+
*       4.2023508998E+02               0
GRID*              11657               09.8580715869E+018.2533030197E+01+
*       4.2232952034E+02               0
GRID*              11658               09.8242548229E+018.2366581155E+01+
*       4.2431692870E+02               0
GRID*              11659               09.8963624127E+018.2681478174E+01+
*       4.2485313400E+02               0
GRID*              11660               09.8376913936E+018.2436948453E+01+
*       4.2334286269E+02               0
GRID*              11661               09.9338490585E+018.2789617159E+01+
*       4.2292534159E+02               0
GRID*              11662               09.5941179978E+017.9043585309E+01+
*       4.2149274902E+02               0
GRID*              11663               09.5904757375E+017.8154165533E+01+
*       4.2093437579E+02               0
GRID*              11664               09.6189968656E+018.0012667541E+01+
*       4.2104539989E+02               0
GRID*              11665               09.6650695385E+018.0908709895E+01+
*       4.2061926642E+02               0
GRID*              11666               09.6249852880E+018.0162293306E+01+
*       4.2005692806E+02               0
GRID*              11667               09.9017925093E+018.2699345568E+01+
*       4.1919493965E+02               0
GRID*              11668               09.8087146542E+018.2277772608E+01+
*       4.1966854214E+02               0
GRID*              11669               01.0001460348E+028.2899586231E+01+
*       4.1871074730E+02               0
GRID*              11670               09.9154983081E+018.2741085791E+01+
*       4.1814419899E+02               0
GRID*              11671               09.7296050043E+018.1676778386E+01+
*       4.2016972246E+02               0
GRID*              11672               09.7406752172E+018.1778560650E+01+
*       4.1912957220E+02               0
GRID*              11673               09.6048380324E+017.7259057225E+01+
*       4.2026479134E+02               0
GRID*              11674               09.6387905713E+017.6372423814E+01+
*       4.1973158135E+02               0
GRID*              11675               09.5898890050E+017.8290246453E+01+
*       4.1981354222E+02               0
GRID*              11676               09.6992529828E+017.5473416762E+01+
*       4.1931153655E+02               0
GRID*              11677               09.7695879311E+017.4816867765E+01+
*       4.1881049946E+02               0
GRID*              11678               09.6387157765E+017.6373892893E+01+
*       4.1872390331E+02               0
GRID*              11679               09.6092677101E+017.7103846140E+01+
*       4.1828827040E+02               0
GRID*              11680               09.6531034422E+017.6113041978E+01+
*       4.1786821876E+02               0
GRID*              11681               09.6934721317E+017.5541679541E+01+
*       4.1722807092E+02               0
GRID*              11682               09.6486835580E+017.6188914524E+01+
*       4.1679243396E+02               0
GRID*              11683               09.9420851258E+017.4023102955E+01+
*       4.1782731733E+02               0
GRID*              11684               09.8507360412E+017.4332009834E+01+
*       4.1837881987E+02               0
GRID*              11685               09.9420850739E+017.4023103071E+01+
*       4.1679639056E+02               0
GRID*              11686               09.8467546751E+017.4350664385E+01+
*       4.1679639031E+02               0
GRID*              11687               09.7681134904E+017.4827982041E+01+
*       4.1787217823E+02               0
GRID*              11688               09.7611764088E+017.4881568288E+01+
*       4.1679639023E+02               0
GRID*              11689               09.6089076207E+017.7115712763E+01+
*       4.1679243514E+02               0
GRID*              11690               09.5965708927E+017.7633375268E+01+
*       4.1743244766E+02               0
GRID*              11691               09.5923694615E+017.7927770430E+01+
*       4.1828813668E+02               0
GRID*              11692               09.5922368174E+017.7940082738E+01+
*       4.1679229384E+02               0
GRID*              11693               09.5928691987E+017.8947457654E+01+
*       4.1679228790E+02               0
GRID*              11694               09.9278591018E+018.2774688174E+01+
*       4.1690614468E+02               0
GRID*              11695               01.0027742372E+028.2914316628E+01+
*       4.1690614460E+02               0
GRID*              11696               09.7606467972E+018.1946028452E+01+
*       4.1695500140E+02               0
GRID*              11697               09.6890883162E+018.1236568793E+01+
*       4.1695500572E+02               0
GRID*              11698               09.8330095808E+018.2413082947E+01+
*       4.1739033822E+02               0
GRID*              11699               09.7506998833E+018.1865078450E+01+
*       4.1819305274E+02               0
GRID*              11700               09.6096645319E+017.9740967382E+01+
*       4.1669098319E+02               0
GRID*              11701               09.5980620072E+017.9278530240E+01+
*       4.1733102117E+02               0
GRID*              11702               09.6499172198E+018.0664442354E+01+
*       4.1669103861E+02               0
GRID*              11703               09.6508835444E+018.0681111337E+01+
*       4.1749375806E+02               0
GRID*              11704               09.6821137820E+018.1147593099E+01+
*       4.1869425126E+02               0
GRID*              11705               09.6404075050E+018.0490853066E+01+
*       4.1818413395E+02               0
GRID*              11706               09.6344801768E+018.0372546881E+01+
*       4.1912064900E+02               0
GRID*              11707               09.6132705877E+017.9852788099E+01+
*       4.1792009634E+02               0
GRID*              11708               09.6011104993E+017.9422215554E+01+
*       4.1954680020E+02               0
GRID*              11709               09.5898363166E+017.8520874836E+01+
*       4.1887725233E+02               0
GRID*              11710               09.5944132473E+017.9064211563E+01+
*       4.1802141011E+02               0
GRID*              11711               01.0243924501E+028.2425877980E+01+
*       4.2278069160E+02               0
GRID*              11712               01.0255497079E+028.2364809398E+01+
*       4.2154276122E+02               0
GRID*              11713               01.0153188831E+028.2770497829E+01+
*       4.2219412385E+02               0
GRID*              11714               01.0246715653E+028.2411541054E+01+
*       4.2390807491E+02               0
GRID*              11715               01.0166260025E+028.2734322416E+01+
*       4.2453018071E+02               0
GRID*              11716               01.0337639165E+028.1788423822E+01+
*       4.2325671311E+02               0
GRID*              11717               01.0401795484E+028.1087892669E+01+
*       4.2267769630E+02               0
GRID*              11718               01.0061480597E+028.2910628905E+01+
*       4.2143409667E+02               0
GRID*              11719               01.0048371847E+028.2915079290E+01+
*       4.2267202635E+02               0
GRID*              11720               01.0077257410E+028.2900186318E+01+
*       4.2035884076E+02               0
GRID*              11721               01.0033037221E+028.2915419415E+01+
*       4.2591150386E+02               0
GRID*              11722               01.0112103972E+028.2857262232E+01+
*       4.2537397458E+02               0
GRID*              11723               09.9542252012E+018.2833936018E+01+
*       4.2544361295E+02               0
GRID*              11724               09.9704717457E+018.2862276061E+01+
*       4.2452916284E+02               0
GRID*              11725               01.0085639127E+028.2892370623E+01+
*       4.2427584784E+02               0
GRID*              11726               01.0025789574E+028.2913753982E+01+
*       4.2368536869E+02               0
GRID*              11727               01.0451081409E+028.0240043997E+01+
*       4.2209524969E+02               0
GRID*              11728               01.0479959414E+027.9347672914E+01+
*       4.2155900963E+02               0
GRID*              11729               01.0401773490E+028.1088192249E+01+
*       4.2154689721E+02               0
GRID*              11730               01.0402848606E+028.1073564928E+01+
*       4.2040177000E+02               0
GRID*              11731               01.0336645160E+028.1797175439E+01+
*       4.2098420174E+02               0
GRID*              11732               01.0087994758E+028.2889889845E+01+
*       4.1924336926E+02               0
GRID*              11733               01.0102239071E+028.2872213523E+01+
*       4.1819262894E+02               0
GRID*              11734               01.0176112888E+028.2704216770E+01+
*       4.1984072237E+02               0
GRID*              11735               01.0257090160E+028.2356062502E+01+
*       4.2039763488E+02               0
GRID*              11736               01.0266453419E+028.2302935179E+01+
*       4.1928216285E+02               0
GRID*              11737               01.0403053454E+028.1070764705E+01+
*       4.1911872616E+02               0
GRID*              11738               01.0451206508E+028.0237220080E+01+
*       4.1968140319E+02               0
GRID*              11739               01.0128226161E+028.2827981875E+01+
*       4.1690614462E+02               0
GRID*              11740               01.0210948765E+028.2577387903E+01+
*       4.1743876767E+02               0
GRID*              11741               01.0401068225E+028.1097724782E+01+
*       4.1812408498E+02               0
GRID*              11742               01.0335496624E+028.1807223704E+01+
*       4.1884443839E+02               0
GRID*              11743               01.0424626741E+028.0747045446E+01+
*       4.1727532920E+02               0
GRID*              11744               01.0466842962E+027.9832261060E+01+
*       4.1727530911E+02               0
GRID*              11745               01.0363700212E+028.1538942582E+01+
*       4.1700104052E+02               0
GRID*              11746               01.0263558361E+028.2319679235E+01+
*       4.1828752798E+02               0
GRID*              11747               01.0286027915E+028.2181910644E+01+
*       4.1700104668E+02               0
GRID*              11748               01.0489700204E+027.8381788745E+01+
*       4.2105009819E+02               0
GRID*              11749               01.0479894030E+027.7480998496E+01+
*       4.2054845258E+02               0
GRID*              11750               01.0480604819E+027.9316615545E+01+
*       4.2045555507E+02               0
GRID*              11751               01.0480673939E+027.9313223544E+01+
*       4.1917250848E+02               0
GRID*              11752               01.0483302400E+027.9172545077E+01+
*       4.1813352193E+02               0
GRID*              11753               01.0489229730E+027.8207394751E+01+
*       4.1890764130E+02               0
GRID*              11754               01.0488507760E+027.8744605580E+01+
*       4.1701047383E+02               0
GRID*              11755               01.0484582901E+027.7738369396E+01+
*       4.1701045264E+02               0
GRID*              11756               01.0479450162E+027.7460335791E+01+
*       4.1952167828E+02               0
GRID*              11757               01.0476195377E+027.7321216233E+01+
*       4.1848270064E+02               0
GRID*              11758               01.0452597097E+027.6626438593E+01+
*       4.2012351552E+02               0
GRID*              11759               01.0410921550E+027.5872274646E+01+
*       4.1961970232E+02               0
GRID*              11760               01.0475286748E+027.7285601183E+01+
*       4.1766548175E+02               0
GRID*              11761               01.0450257334E+027.6573382553E+01+
*       4.1827952080E+02               0
GRID*              11762               01.0465852311E+027.6970127564E+01+
*       4.1680730235E+02               0
GRID*              11763               01.0422953073E+027.6057383533E+01+
*       4.1680728810E+02               0
GRID*              11764               01.0414135317E+027.5919807818E+01+
*       4.1855977635E+02               0
GRID*              11765               01.0412078832E+027.5889241414E+01+
*       4.1774255724E+02               0
GRID*              11766               01.0361176501E+027.5266928150E+01+
*       4.1908276530E+02               0
GRID*              11767               01.0296181724E+027.4718301236E+01+
*       4.1854016663E+02               0
GRID*              11768               01.0378666322E+027.5456053144E+01+
*       4.1708756175E+02               0
GRID*              11769               01.0304341541E+027.4776251719E+01+
*       4.1708755838E+02               0
GRID*              11770               01.0139819599E+027.4028681743E+01+
*       4.1718321056E+02               0
GRID*              11771               01.0225883040E+027.4319135150E+01+
*       4.1760489044E+02               0
GRID*              11772               01.0438551297E+028.0499876789E+01+
*       5.9640498251E+02               0
GRID*              11773               01.0399945847E+028.1111488949E+01+
*       5.9667267950E+02               0
GRID*              11774               01.0344696795E+028.1724753612E+01+
*       5.9695424472E+02               0
GRID*              11775               01.0282824561E+028.2202682067E+01+
*       5.9735844872E+02               0
GRID*              11776               01.0125116619E+028.2834100320E+01+
*       5.9824869119E+02               0
GRID*              11777               01.0206452231E+028.2595605828E+01+
*       5.9777953827E+02               0
GRID*              11778               01.0444413172E+027.7116841030E+01+
*       5.9540341684E+02               0
GRID*              11779               01.0458465419E+027.7665652455E+01+
*       5.9485392296E+02               0
GRID*              11780               01.0444297005E+027.7116629594E+01+
*       5.9690090970E+02               0
GRID*              11781               01.0437364251E+027.6916183273E+01+
*       5.9615314843E+02               0
GRID*              11782               01.0464749138E+027.8416152989E+01+
*       5.9765219092E+02               0
GRID*              11783               01.0457343783E+027.7665090068E+01+
*       5.9744997246E+02               0
GRID*              11784               01.0444415792E+027.9715141676E+01+
*       5.9690057823E+02               0
GRID*              11785               01.0458448300E+027.9166614241E+01+
*       5.9744995831E+02               0
GRID*              11786               01.0444398150E+027.9713371425E+01+
*       5.9540054220E+02               0
GRID*              11787               01.0437342913E+027.9915666338E+01+
*       5.9615076276E+02               0
GRID*              11788               01.0453923639E+027.9164477730E+01+
*       5.9485313316E+02               0
GRID*              11789               01.0410393593E+027.6383568787E+01+
*       5.9651342503E+02               0
GRID*              11790               01.0398866734E+027.6292674719E+01+
*       5.9727348677E+02               0
GRID*              11791               01.0363805381E+027.5647294151E+01+
*       5.9687131791E+02               0
GRID*              11792               01.0464659179E+027.8365623154E+01+
*       5.9380473093E+02               0
GRID*              11793               01.0451778318E+027.7659068542E+01+
*       5.9358150231E+02               0
GRID*              11794               01.0460996025E+027.7997781390E+01+
*       5.9284980655E+02               0
GRID*              11795               01.0406136186E+027.6380798889E+01+
*       5.9545316329E+02               0
GRID*              11796               01.0369313709E+027.5729435723E+01+
*       5.9575108292E+02               0
GRID*              11797               01.0381424977E+027.5883771974E+01+
*       5.9509522665E+02               0
GRID*              11798               01.0451832808E+027.7709361830E+01+
*       5.9442905409E+02               0
GRID*              11799               01.0403407874E+027.6392393549E+01+
*       5.9912047177E+02               0
GRID*              11800               01.0442832312E+027.7071180951E+01+
*       5.9860033007E+02               0
GRID*              11801               01.0445234844E+027.7103817261E+01+
*       5.9960777925E+02               0
GRID*              11802               01.0446582465E+027.7217536918E+01+
*       6.0797368760E+02               0
GRID*              11803               01.0407413059E+027.6403372058E+01+
*       6.0747207990E+02               0
GRID*              11804               01.0446043187E+027.7194777289E+01+
*       6.0691608932E+02               0
GRID*              11805               01.0262512619E+028.2020440264E+01+
*       6.0271946355E+02               0
GRID*              11806               01.0180284784E+028.2391630166E+01+
*       6.0327971391E+02               0
GRID*              11807               01.0266446750E+028.1991334299E+01+
*       6.0377081194E+02               0
GRID*              11808               01.0341711495E+028.1447528840E+01+
*       6.0222663678E+02               0
GRID*              11809               01.0346724899E+028.1421248857E+01+
*       6.0327933337E+02               0
GRID*              11810               01.0393592580E+028.0772130470E+01+
*       6.0165404308E+02               0
GRID*              11811               01.0332001807E+028.1425556322E+01+
*       6.0109088202E+02               0
GRID*              11812               01.0260703577E+028.2056632393E+01+
*       6.0165928180E+02               0
GRID*              11813               01.0443991402E+027.7108456086E+01+
*       5.9777574580E+02               0
GRID*              11814               01.0398430670E+027.6282017952E+01+
*       5.9816115397E+02               0
GRID*              11815               01.0183781862E+028.2445862239E+01+
*       6.0119001220E+02               0
GRID*              11816               01.0188427510E+028.2447260795E+01+
*       6.0222376954E+02               0
GRID*              11817               01.0257001730E+028.2078895902E+01+
*       6.0067197035E+02               0
GRID*              11818               01.0453945766E+027.7769534209E+01+
*       5.9811134187E+02               0
GRID*              11819               01.0086586091E+028.2617256641E+01+
*       6.0064662025E+02               0
GRID*              11820               01.0087204230E+028.2617236736E+01+
*       6.0170986867E+02               0
GRID*              11821               09.9945593114E+018.2619131760E+01+
*       6.0016356982E+02               0
GRID*              11822               09.9953877013E+018.2620829628E+01+
*       6.0119572670E+02               0
GRID*              11823               01.0459866151E+027.7939706114E+01+
*       5.8681198967E+02               0
GRID*              11824               01.0465296693E+027.8892319005E+01+
*       5.8730366859E+02               0
GRID*              11825               01.0459984281E+027.7949831707E+01+
*       5.8785016740E+02               0
GRID*              11826               01.0459958268E+027.7937707627E+01+
*       5.8884425227E+02               0
GRID*              11827               01.0465660790E+027.8866275519E+01+
*       5.8828837768E+02               0
GRID*              11828               01.0442567070E+027.7122250624E+01+
*       5.8930571561E+02               0
GRID*              11829               01.0442792524E+027.7144623550E+01+
*       5.9035226406E+02               0
GRID*              11830               01.0404899114E+027.6316237487E+01+
*       5.8981176413E+02               0
GRID*              11831               01.0442191712E+027.7113336317E+01+
*       5.8831491476E+02               0
GRID*              11832               09.6204823919E+017.8857769955E+01+
*       5.7905189866E+02               0
GRID*              11833               09.6208174662E+017.7974799747E+01+
*       5.7956465618E+02               0
GRID*              11834               09.6204872008E+017.8866297031E+01+
*       5.8008404554E+02               0
GRID*              11835               09.6208222751E+017.7983326823E+01+
*       5.8059680307E+02               0
GRID*              11836               09.6557089064E+017.6641225713E+01+
*       5.9569200419E+02               0
GRID*              11837               09.6556957347E+017.6641386399E+01+
*       5.9644412092E+02               0
GRID*              11838               09.6906762069E+017.6016625272E+01+
*       5.9687213392E+02               0
GRID*              11839               09.6700080835E+017.6494179436E+01+
*       5.9733238276E+02               0
GRID*              11840               09.7160550307E+017.5662188700E+01+
*       5.9756130105E+02               0
GRID*              11841               09.6380209414E+017.9725786284E+01+
*       5.8063217137E+02               0
GRID*              11842               09.6379688267E+017.9724713015E+01+
*       5.7959739714E+02               0
GRID*              11843               09.6205358883E+017.8867555375E+01+
*       5.8111742905E+02               0
GRID*              11844               09.6385804327E+017.9739132124E+01+
*       5.8166645842E+02               0
GRID*              11845               09.6385754866E+017.9741519982E+01+
*       5.8270034755E+02               0
GRID*              11846               09.6722167486E+018.0612353137E+01+
*       5.8215076788E+02               0
GRID*              11847               09.6205582855E+017.8884953227E+01+
*       5.8318295691E+02               0
GRID*              11848               09.6393016183E+017.9758447317E+01+
*       5.8373555421E+02               0
GRID*              11849               09.7228719733E+018.1256116347E+01+
*       5.8059762561E+02               0
GRID*              11850               09.7215340589E+018.1252731845E+01+
*       5.8165125396E+02               0
GRID*              11851               09.7927208422E+018.1902452125E+01+
*       5.8113040366E+02               0
GRID*              11852               09.6709611072E+018.0585023073E+01+
*       5.6151417678E+02               0
GRID*              11853               09.6701203070E+018.0580707770E+01+
*       5.6255092078E+02               0
GRID*              11854               09.7216327477E+018.1242680178E+01+
*       5.6202458143E+02               0
GRID*              11855               09.6709556594E+018.0589282876E+01+
*       5.6357693895E+02               0
GRID*              11856               09.7205363080E+018.1238325506E+01+
*       5.6307402791E+02               0
GRID*              11857               09.6196618995E+017.8855609831E+01+
*       5.6667207463E+02               0
GRID*              11858               09.6196645989E+017.8855749826E+01+
*       5.6564107331E+02               0
GRID*              11859               09.6198815808E+017.7966635709E+01+
*       5.6615571404E+02               0
GRID*              11860               09.6367114707E+017.9717207381E+01+
*       5.6514161454E+02               0
GRID*              11861               09.6196652409E+017.8855983069E+01+
*       5.6461016411E+02               0
GRID*              11862               09.6701575621E+018.0580827241E+01+
*       5.6460688064E+02               0
GRID*              11863               09.7205186019E+018.1238274198E+01+
*       5.6408430223E+02               0
GRID*              11864               09.7216156942E+018.1242471248E+01+
*       5.6513379895E+02               0
GRID*              11865               09.9536948623E+017.4336867185E+01+
*       5.7027618906E+02               0
GRID*              11866               09.8669867755E+017.4534616093E+01+
*       5.6976186723E+02               0
GRID*              11867               09.9536948623E+017.4336867185E+01+
*       5.6924526123E+02               0
GRID*              11868               09.6198185852E+017.7964833329E+01+
*       4.8470925051E+02               0
GRID*              11869               09.6198258469E+017.7964468433E+01+
*       4.8367791023E+02               0
GRID*              11870               09.6370528184E+017.7104217795E+01+
*       4.8419323301E+02               0
GRID*              11871               09.6370455567E+017.7104582691E+01+
*       4.8522457328E+02               0
GRID*              11872               01.0125695264E+027.4336715216E+01+
*       5.7027570281E+02               0
GRID*              11873               01.0125695264E+027.4336715216E+01+
*       5.6924477497E+02               0
GRID*              11874               01.0212351148E+027.4534218526E+01+
*       5.6976208563E+02               0
GRID*              11875               09.6757623394E+017.6303201108E+01+
*       4.8470909102E+02               0
GRID*              11876               09.6196369574E+017.8853843318E+01+
*       4.8419346295E+02               0
GRID*              11877               09.6196371615E+017.8854079365E+01+
*       4.8522447492E+02               0
GRID*              11878               09.6198187893E+017.7965069376E+01+
*       4.8574026248E+02               0
GRID*              11879               09.6145383587E+017.8805902556E+01+
*       4.1765785660E+02               0
GRID*              11880               09.6206203422E+017.7961793269E+01+
*       4.1744944769E+02               0
GRID*              11881               09.6142502359E+017.7989034933E+01+
*       4.1828750285E+02               0
GRID*              11882               09.6250209355E+017.9345232763E+01+
*       4.1824866113E+02               0
GRID*              11883               09.6184768133E+017.8585799657E+01+
*       4.1885661749E+02               0
GRID*              11884               09.6727683684E+018.0617077171E+01+
*       4.2750810891E+02               0
GRID*              11885               09.7207295921E+018.1245148652E+01+
*       4.2800733342E+02               0
GRID*              11886               09.7243066982E+018.1279016913E+01+
*       4.2704728081E+02               0
GRID*              11887               09.6254087161E+017.7458499206E+01+
*       4.1911929052E+02               0
GRID*              11888               09.6265138022E+017.7421813829E+01+
*       4.1830526996E+02               0
GRID*              11889               09.6499230241E+017.6657105581E+01+
*       4.1859696778E+02               0
GRID*              11890               01.0355464106E+027.5582455778E+01+
*       5.8729508716E+02               0
GRID*              11891               01.0403934216E+027.6300450071E+01+
*       5.8678258093E+02               0
GRID*              11892               01.0403875441E+027.6299064323E+01+
*       5.8778680415E+02               0
GRID*              11893               09.9536810483E+017.4336924363E+01+
*       5.7130708686E+02               0
GRID*              11894               09.8669729615E+017.4534673271E+01+
*       5.7079276502E+02               0
GRID*              11895               01.0039713287E+027.4165916443E+01+
*       5.7079145797E+02               0
GRID*              11896               01.0039713287E+027.4165916443E+01+
*       5.7182238581E+02               0
GRID*              11897               01.0039713287E+027.4165916443E+01+
*       5.6976053014E+02               0
GRID*              11898               09.7123112891E+017.5707960608E+01+
*       4.2023000744E+02               0
GRID*              11899               09.6633989824E+017.6667508351E+01+
*       4.1964237938E+02               0
GRID*              11900               09.7122044963E+017.5709196551E+01+
*       4.1922232274E+02               0
GRID*              11901               09.7065583898E+017.5772258252E+01+
*       4.1815788926E+02               0
GRID*              11902               09.7940203965E+017.5021537892E+01+
*       5.7027744385E+02               0
GRID*              11903               09.6282244772E+017.9490036211E+01+
*       4.1930185454E+02               0
GRID*              11904               09.7223377795E+018.1253252831E+01+
*       4.2906553806E+02               0
GRID*              11905               09.6720802017E+018.0619876499E+01+
*       4.2854211946E+02               0
GRID*              11906               09.6718635250E+018.0599061491E+01+
*       4.2956075497E+02               0
GRID*              11907               09.6232846078E+017.8354422526E+01+
*       4.2081987047E+02               0
GRID*              11908               09.6120737144E+017.8346182368E+01+
*       4.1978172305E+02               0
GRID*              11909               09.6257871057E+017.7452108948E+01+
*       4.2015029519E+02               0
GRID*              11910               01.0125704565E+027.4336753687E+01+
*       5.6821379511E+02               0
GRID*              11911               01.0125704565E+027.4336753687E+01+
*       5.6718286728E+02               0
GRID*              11912               01.0212370443E+027.4534305270E+01+
*       5.6769983683E+02               0
GRID*              11913               09.9528880713E+017.4340223928E+01+
*       5.8471009173E+02               0
GRID*              11914               09.8659431024E+017.4539113946E+01+
*       5.8522588544E+02               0
GRID*              11915               09.8660082682E+017.4538799401E+01+
*       5.8419690699E+02               0
GRID*              11916               01.0458481938E+027.8178234146E+01+
*       6.1285955027E+02               0
GRID*              11917               01.0461158509E+027.8947459690E+01+
*       6.1345992356E+02               0
GRID*              11918               01.0462136531E+027.8782168130E+01+
*       6.1448276651E+02               0
GRID*              11919               01.0459459961E+027.8012942587E+01+
*       6.1388239322E+02               0
GRID*              11920               01.0458688417E+027.7980777581E+01+
*       6.1473172455E+02               0
GRID*              11921               01.0439380897E+027.7032873672E+01+
*       6.1349929014E+02               0
GRID*              11922               01.0438609353E+027.7000708666E+01+
*       6.1434862147E+02               0
GRID*              11923               01.0458853558E+027.8194901449E+01+
*       6.1181273082E+02               0
GRID*              11924               01.0457981220E+027.9105450036E+01+
*       6.1235679284E+02               0
GRID*              11925               01.0406109988E+027.6347431789E+01+
*       6.1174078420E+02               0
GRID*              11926               01.0443769489E+027.7143723346E+01+
*       6.1119110155E+02               0
GRID*              11927               01.0443397869E+027.7127056044E+01+
*       6.1223792099E+02               0
GRID*              11928               09.7244745057E+017.5575459370E+01+
*       5.6873212909E+02               0
GRID*              11929               09.7940249578E+017.5021492346E+01+
*       5.6924657544E+02               0
GRID*              11930               09.7244699444E+017.5575504916E+01+
*       5.6976299750E+02               0
GRID*              11931               01.0402248558E+027.6255652174E+01+
*       6.1299711559E+02               0
GRID*              11932               01.0442049316E+027.9708661278E+01+
*       5.5688746752E+02               0
GRID*              11933               01.0409536730E+028.0586521810E+01+
*       5.5738931624E+02               0
GRID*              11934               01.0442085599E+027.9708767674E+01+
*       5.5791917378E+02               0
GRID*              11935               01.0459002341E+027.8847648929E+01+
*       5.5945329900E+02               0
GRID*              11936               01.0459002717E+027.8847691492E+01+
*       5.5842241606E+02               0
GRID*              11937               01.0442078600E+027.9708925604E+01+
*       5.5895063558E+02               0
GRID*              11938               01.0410589401E+028.0584522537E+01+
*       5.5841840862E+02               0
GRID*              11939               01.0359477335E+028.1232603820E+01+
*       5.5789679534E+02               0
GRID*              11940               01.0357809093E+028.1238558638E+01+
*       5.5894659422E+02               0
GRID*              11941               01.0409694101E+028.0588163975E+01+
*       5.5945603736E+02               0
GRID*              11942               09.6554666006E+017.6519559007E+01+
*       6.1140367565E+02               0
GRID*              11943               09.7050407455E+017.5792688001E+01+
*       6.1195076982E+02               0
GRID*              11944               09.6570834976E+017.6539806005E+01+
*       6.1226706050E+02               0
GRID*              11945               01.0039713287E+027.4165916443E+01+
*       5.4295640643E+02               0
GRID*              11946               01.0039713287E+027.4165916443E+01+
*       5.4192547859E+02               0
GRID*              11947               01.0125707926E+027.4336767645E+01+
*       5.4347212183E+02               0
GRID*              11948               01.0125707926E+027.4336767645E+01+
*       5.4244119399E+02               0
GRID*              11949               09.7067446642E+017.5775171476E+01+
*       6.1086998407E+02               0
GRID*              11950               09.6657770797E+017.6558393352E+01+
*       6.1032684479E+02               0
GRID*              11951               09.8669997318E+017.4534572246E+01+
*       5.4192670770E+02               0
GRID*              11952               09.9537075335E+017.4336814699E+01+
*       5.4141080301E+02               0
GRID*              11953               09.9536945171E+017.4336868556E+01+
*       5.4244157784E+02               0
GRID*              11954               09.8669867155E+017.4534626103E+01+
*       5.4295748254E+02               0
GRID*              11955               09.6274394570E+017.7397397159E+01+
*       6.1275168575E+02               0
GRID*              11956               09.6908420545E+017.5973800013E+01+
*       6.1307122948E+02               0
GRID*              11957               09.6554200798E+017.6785773462E+01+
*       6.1355237476E+02               0
GRID*              11958               09.7738304426E+017.5120114110E+01+
*       6.1252081649E+02               0
GRID*              11959               09.7667044336E+017.5144388981E+01+
*       6.1358747366E+02               0
GRID*              11960               09.6895486100E+017.5997753473E+01+
*       6.1414242690E+02               0
GRID*              11961               09.8670026609E+017.4534558602E+01+
*       5.4089570450E+02               0
GRID*              11962               09.7940406852E+017.5021362406E+01+
*       5.4038097205E+02               0
GRID*              11963               09.8669893672E+017.4534613616E+01+
*       5.3986476172E+02               0
GRID*              11964               09.8503036379E+017.4605627862E+01+
*       6.1198224142E+02               0
GRID*              11965               09.7700844569E+017.5125302684E+01+
*       6.1141408563E+02               0
GRID*              11966               01.0039713287E+027.4165916443E+01+
*       4.1821413838E+02               0
GRID*              11967               09.9460644074E+017.4370099238E+01+
*       4.1876564603E+02               0
GRID*              11968               09.9424908387E+017.4251025989E+01+
*       4.1782775596E+02               0
GRID*              11969               09.8526849118E+017.4591000789E+01+
*       4.1918361643E+02               0
GRID*              11970               09.8526341081E+017.4606389604E+01+
*       4.1824932340E+02               0
GRID*              11971               01.0039713287E+027.4165916443E+01+
*       4.1718321055E+02               0
GRID*              11972               09.9423801492E+017.4262814677E+01+
*       4.1678422384E+02               0
GRID*              11973               01.0039713287E+027.4165916443E+01+
*       5.4089455076E+02               0
GRID*              11974               09.6196429702E+017.8855771953E+01+
*       5.2955650770E+02               0
GRID*              11975               09.6196430689E+017.8855602393E+01+
*       5.3058795138E+02               0
GRID*              11976               09.6366369625E+017.9716417296E+01+
*       5.3007606455E+02               0
GRID*              11977               09.6198238197E+017.7964900437E+01+
*       4.8677153521E+02               0
GRID*              11978               09.6370548788E+017.7104309768E+01+
*       4.8728686833E+02               0
GRID*              11979               09.6198240417E+017.7965090584E+01+
*       4.8780269549E+02               0
GRID*              11980               09.7938810337E+018.1823074368E+01+
*       5.3058765856E+02               0
GRID*              11981               09.8659298401E+018.2297105784E+01+
*       5.3111709547E+02               0
GRID*              11982               09.8658860404E+018.2296894933E+01+
*       5.3005882496E+02               0
GRID*              11983               09.7205708649E+018.1238320703E+01+
*       5.3008241000E+02               0
GRID*              11984               09.7909949793E+018.1887965696E+01+
*       5.2955726311E+02               0
GRID*              11985               01.0039987564E+028.2668348348E+01+
*       5.3008689669E+02               0
GRID*              11986               09.9524599034E+018.2558036568E+01+
*       5.2955646296E+02               0
GRID*              11987               09.9523632047E+018.2582023092E+01+
*       5.3058803788E+02               0
GRID*              11988               09.7245455189E+017.5574576937E+01+
*       5.2336838800E+02               0
GRID*              11989               09.7940866767E+017.5021198595E+01+
*       5.2285309179E+02               0
GRID*              11990               09.7940895928E+017.5021184525E+01+
*       5.2388423222E+02               0
GRID*              11991               09.9537160573E+017.4336779765E+01+
*       4.4347102233E+02               0
GRID*              11992               09.8670503587E+017.4534330184E+01+
*       4.4398674630E+02               0
GRID*              11993               09.8670506670E+017.4534328530E+01+
*       4.4295575505E+02               0
GRID*              11994               09.7941446357E+017.5020522499E+01+
*       4.4347043176E+02               0
GRID*              11995               09.7941449441E+017.5020520844E+01+
*       4.4243944051E+02               0
GRID*              11996               09.7940930376E+017.5021135085E+01+
*       5.2182205820E+02               0
GRID*              11997               09.8670391974E+017.4534371437E+01+
*       5.2130656566E+02               0
GRID*              11998               09.8670338415E+017.4534393573E+01+
*       5.2233751747E+02               0
GRID*              11999               09.7245518798E+017.5574513427E+01+
*       5.2233735441E+02               0
GRID*              12000               09.7245528021E+017.5574501716E+01+
*       5.2130593439E+02               0
GRID*              12001               09.9536873639E+017.4336898322E+01+
*       5.2079151483E+02               0
GRID*              12002               09.9536820080E+017.4336920458E+01+
*       5.2182246664E+02               0
GRID*              12003               09.6709301033E+018.0590175106E+01+
*       5.2027329596E+02               0
GRID*              12004               09.6366680272E+017.9715674667E+01+
*       5.2079258886E+02               0
GRID*              12005               09.6702059313E+018.0582882710E+01+
*       5.2130236610E+02               0
GRID*              12006               01.0285363842E+027.5021244561E+01+
*       4.4553248189E+02               0
GRID*              12007               01.0354914487E+027.5575008417E+01+
*       4.4501758825E+02               0
GRID*              12008               01.0285378551E+027.5021391430E+01+
*       4.4656331529E+02               0
GRID*              12009               01.0354929197E+027.5575155286E+01+
*       4.4604842165E+02               0
GRID*              12010               01.0403753859E+027.6304817197E+01+
*       4.4553223055E+02               0
GRID*              12011               01.0403743512E+027.6304687896E+01+
*       4.4656307145E+02               0
GRID*              12012               01.0354918850E+027.5575025985E+01+
*       4.4707926255E+02               0
GRID*              12013               09.6701862702E+018.0582524821E+01+
*       5.2337068961E+02               0
GRID*              12014               09.7213738544E+018.1241477882E+01+
*       5.2284357935E+02               0
GRID*              12015               09.6709706382E+018.0581701857E+01+
*       5.2233629270E+02               0
GRID*              12016               09.7205150110E+018.1237613403E+01+
*       5.2389403927E+02               0
GRID*              12017               09.6709147178E+018.0589841361E+01+
*       5.2439896197E+02               0
GRID*              12018               09.6366575545E+017.9715420853E+01+
*       5.2388678401E+02               0
GRID*              12019               09.6366580586E+017.9715459622E+01+
*       5.2491854957E+02               0
GRID*              12020               01.0459589308E+027.7962542779E+01+
*       5.3831979067E+02               0
GRID*              12021               01.0442284915E+027.7103240290E+01+
*       5.3883498999E+02               0
GRID*              12022               01.0442273886E+027.7103444426E+01+
*       5.3780392699E+02               0
GRID*              12023               01.0039563679E+028.2668300772E+01+
*       4.4348470645E+02               0
GRID*              12024               01.0127063075E+028.2557853500E+01+
*       4.4295502714E+02               0
GRID*              12025               01.0039572900E+028.2668419759E+01+
*       4.4242416411E+02               0
GRID*              12026               01.0213601070E+028.2296468237E+01+
*       4.4245274487E+02               0
GRID*              12027               01.0127214994E+028.2581751769E+01+
*       4.4192398967E+02               0
GRID*              12028               01.0403568109E+027.6302654320E+01+
*       5.3831904758E+02               0
GRID*              12029               01.0403557080E+027.6302858456E+01+
*       5.3728798458E+02               0
GRID*              12030               01.0442293012E+027.7103318867E+01+
*       5.3574167644E+02               0
GRID*              12031               01.0459588718E+027.7962680237E+01+
*       5.3625757173E+02               0
GRID*              12032               01.0442276178E+027.7103526370E+01+
*       5.3677278794E+02               0
GRID*              12033               01.0127297172E+028.2581480196E+01+
*       4.8522528939E+02               0
GRID*              12034               01.0213724641E+028.2296058532E+01+
*       4.8469637752E+02               0
GRID*              12035               01.0039660212E+028.2668365501E+01+
*       4.8472467490E+02               0
GRID*              12036               01.0127171147E+028.2557738188E+01+
*       4.8419438942E+02               0
GRID*              12037               01.0213670667E+028.2296267561E+01+
*       4.8369253417E+02               0
GRID*              12038               01.0459068200E+027.8848759142E+01+
*       5.3574201300E+02               0
GRID*              12039               01.0459013908E+027.8848524454E+01+
*       5.3677315162E+02               0
GRID*              12040               09.8658336283E+018.2296707017E+01+
*       5.1255553484E+02               0
GRID*              12041               09.9523011373E+018.2582010359E+01+
*       5.1202620662E+02               0
GRID*              12042               09.8658437110E+018.2296637343E+01+
*       5.1149817890E+02               0
GRID*              12043               01.0459649164E+027.7967065708E+01+
*       4.6614802836E+02               0
GRID*              12044               01.0459649593E+027.7966885414E+01+
*       4.6717980182E+02               0
GRID*              12045               01.0442437462E+027.7106223492E+01+
*       4.6666402400E+02               0
GRID*              12046               09.8648770357E+017.4543622530E+01+
*       5.8832347171E+02               0
GRID*              12047               09.8650969171E+017.4542563058E+01+
*       5.8935516451E+02               0
GRID*              12048               09.7902774249E+017.5058325301E+01+
*       5.8885432576E+02               0
GRID*              12049               09.7904973063E+017.5057265830E+01+
*       5.8988601857E+02               0
GRID*              12050               01.0285328862E+027.5020929665E+01+
*       4.7852384158E+02               0
GRID*              12051               01.0212369796E+027.4534308557E+01+
*       4.7903894213E+02               0
GRID*              12052               01.0212389733E+027.4534391034E+01+
*       4.7800807474E+02               0
GRID*              12053               01.0442422289E+027.7105868726E+01+
*       4.6769564680E+02               0
GRID*              12054               09.7909566813E+018.1887563841E+01+
*       5.1305643143E+02               0
GRID*              12055               09.8658839593E+018.2296785162E+01+
*       5.1355892453E+02               0
GRID*              12056               09.7941062628E+017.5021002286E+01+
*       5.2800881057E+02               0
GRID*              12057               09.7941076531E+017.5020995725E+01+
*       5.2697774966E+02               0
GRID*              12058               09.8670439150E+017.4534351640E+01+
*       5.2749290273E+02               0
GRID*              12059               09.8670453053E+017.4534345080E+01+
*       5.2646184181E+02               0
GRID*              12060               01.0359187710E+028.1236446023E+01+
*       4.9810528541E+02               0
GRID*              12061               01.0288714809E+028.1885529245E+01+
*       4.9863100183E+02               0
GRID*              12062               01.0357854988E+028.1241126373E+01+
*       4.9915453240E+02               0
GRID*              12063               01.0213808859E+028.2295677403E+01+
*       4.9913353053E+02               0
GRID*              12064               01.0213859844E+028.2295449354E+01+
*       5.0019088644E+02               0
GRID*              12065               01.0285795790E+028.1821951516E+01+
*       4.9966368035E+02               0
GRID*              12066               09.7910815261E+018.1888324819E+01+
*       5.3574429776E+02               0
GRID*              12067               09.7203419423E+018.1238045596E+01+
*       5.3626992046E+02               0
GRID*              12068               09.7939394381E+018.1823896880E+01+
*       5.3677259220E+02               0
GRID*              12069               09.8659887378E+018.2297341092E+01+
*       5.3624564223E+02               0
GRID*              12070               09.7216841736E+018.1243059445E+01+
*       5.3728179923E+02               0
GRID*              12071               01.0127456026E+028.2581005193E+01+
*       4.9966223675E+02               0
GRID*              12072               01.0127331825E+028.2557586992E+01+
*       4.9863152789E+02               0
GRID*              12073               01.0039814448E+028.2668357191E+01+
*       4.9916154718E+02               0
GRID*              12074               01.0039813356E+028.2668342135E+01+
*       4.9810140445E+02               0
GRID*              12075               01.0409358174E+028.0580775780E+01+
*       5.1099806379E+02               0
GRID*              12076               01.0408582879E+028.0580012148E+01+
*       5.0996455157E+02               0
GRID*              12077               01.0358201453E+028.1239550400E+01+
*       5.1047173356E+02               0
GRID*              12078               01.0459729018E+027.8852524490E+01+
*       5.1099523602E+02               0
GRID*              12079               01.0459597920E+027.7963031628E+01+
*       5.1048034786E+02               0
GRID*              12080               01.0459599054E+027.7963241426E+01+
*       5.0944991130E+02               0
GRID*              12081               01.0459730153E+027.8852734289E+01+
*       5.0996479947E+02               0
GRID*              12082               09.8660553782E+018.2297573964E+01+
*       5.6204659067E+02               0
GRID*              12083               09.8660287137E+018.2297566498E+01+
*       5.6098836198E+02               0
GRID*              12084               09.7939877515E+018.1823747741E+01+
*       5.6151546563E+02               0
GRID*              12085               09.7203003116E+018.1237687156E+01+
*       5.6101253443E+02               0
GRID*              12086               01.0408635116E+028.0588201559E+01+
*       5.1202539500E+02               0
GRID*              12087               01.0359015449E+028.1236038440E+01+
*       5.1152091665E+02               0
GRID*              12088               09.6366675363E+017.9715998456E+01+
*       4.9811635386E+02               0
GRID*              12089               09.6710038683E+018.0587243081E+01+
*       4.9759793155E+02               0
GRID*              12090               09.6366677769E+017.9715996801E+01+
*       4.9708531004E+02               0
GRID*              12091               09.6757255146E+017.6303782502E+01+
*       4.9605191059E+02               0
GRID*              12092               09.6370343082E+017.7105172583E+01+
*       4.9656772653E+02               0
GRID*              12093               09.6370373987E+017.7104985014E+01+
*       4.9553670202E+02               0
GRID*              12094               09.6196445820E+017.8855207229E+01+
*       4.9863062306E+02               0
GRID*              12095               09.6196448829E+017.8855208242E+01+
*       4.9759961101E+02               0
GRID*              12096               09.6198196360E+017.7966192280E+01+
*       4.9811473859E+02               0
GRID*              12097               09.6757129468E+017.6304028174E+01+
*       4.9914507601E+02               0
GRID*              12098               09.6370265924E+017.7105356986E+01+
*       4.9862990729E+02               0
GRID*              12099               09.6757105753E+017.6304085972E+01+
*       4.9811390659E+02               0
GRID*              12100               09.6370242210E+017.7105414785E+01+
*       4.9759873788E+02               0
GRID*              12101               09.6196445041E+017.8854993820E+01+
*       4.9553743615E+02               0
GRID*              12102               09.6366629052E+017.9715863219E+01+
*       4.9502287464E+02               0
GRID*              12103               09.6196442299E+017.8854910411E+01+
*       4.9450614261E+02               0
GRID*              12104               01.0125713000E+027.4336788600E+01+
*       5.3419367130E+02               0
GRID*              12105               01.0212344018E+027.4534176559E+01+
*       5.3367854337E+02               0
GRID*              12106               01.0212348273E+027.4534196822E+01+
*       5.3470950704E+02               0
GRID*              12107               09.6710093850E+018.0583395442E+01+
*       4.9553770117E+02               0
GRID*              12108               09.6702324180E+018.0584763489E+01+
*       4.9657197627E+02               0
GRID*              12109               09.7214601173E+018.1241861547E+01+
*       4.9604487556E+02               0
GRID*              12110               01.0039713287E+027.4165916443E+01+
*       4.6460589096E+02               0
GRID*              12111               01.0039713287E+027.4165916443E+01+
*       4.6357496313E+02               0
GRID*              12112               01.0125716073E+027.4336800886E+01+
*       4.6512090897E+02               0
GRID*              12113               01.0125716073E+027.4336800886E+01+
*       4.6408998113E+02               0
GRID*              12114               09.9537415066E+017.4336674650E+01+
*       4.6512077313E+02               0
GRID*              12115               09.9537415066E+017.4336674650E+01+
*       4.6408984529E+02               0
GRID*              12116               01.0285257453E+027.5020457931E+01+
*       5.3316320443E+02               0
GRID*              12117               01.0285261708E+027.5020478194E+01+
*       5.3419416809E+02               0
GRID*              12118               01.0212401412E+027.4534452013E+01+
*       4.6666643863E+02               0
GRID*              12119               01.0125697542E+027.4336724218E+01+
*       4.6615209786E+02               0
GRID*              12120               01.0212419943E+027.4534528681E+01+
*       4.6563524974E+02               0
GRID*              12121               09.7247311674E+017.5572533590E+01+
*       4.6666508585E+02               0
GRID*              12122               09.7942577643E+017.5019786780E+01+
*       4.6615040456E+02               0
GRID*              12123               09.7942492909E+017.5019871268E+01+
*       4.6718170480E+02               0
GRID*              12124               09.7247226941E+017.5572618078E+01+
*       4.6769638610E+02               0
GRID*              12125               09.6957673630E+018.0886078745E+01+
*       5.9247322634E+02               0
GRID*              12126               09.7498168875E+018.1496109617E+01+
*       5.9191324379E+02               0
GRID*              12127               09.6890555960E+018.0767359014E+01+
*       5.9144845813E+02               0
GRID*              12128               09.6471423913E+017.9969828287E+01+
*       5.9098188475E+02               0
GRID*              12129               09.6465388465E+017.9931992441E+01+
*       5.8993459235E+02               0
GRID*              12130               09.6211940262E+017.9009783589E+01+
*       5.8942295097E+02               0
GRID*              12131               09.6217975710E+017.9047619436E+01+
*       5.9047024336E+02               0
GRID*              12132               01.0212392425E+027.4534404451E+01+
*       4.6357296876E+02               0
GRID*              12133               01.0212408121E+027.4534479503E+01+
*       4.6254209846E+02               0
GRID*              12134               01.0285344956E+027.5021018960E+01+
*       4.6408803098E+02               0
GRID*              12135               01.0285360651E+027.5021094012E+01+
*       4.6305716068E+02               0
GRID*              12136               09.6538541583E+018.0088548019E+01+
*       5.9200665295E+02               0
GRID*              12137               09.6866176445E+018.0738474658E+01+
*       5.9044058575E+02               0
GRID*              12138               09.6221278031E+017.9095672973E+01+
*       5.9162664002E+02               0
GRID*              12139               01.0354900526E+027.5574906633E+01+
*       4.6769638243E+02               0
GRID*              12140               01.0285357682E+027.5021070938E+01+
*       4.6718196319E+02               0
GRID*              12141               01.0354910194E+027.5575003128E+01+
*       4.6666497241E+02               0
GRID*              12142               01.0285367351E+027.5021167434E+01+
*       4.6615055317E+02               0
GRID*              12143               01.0125697542E+027.4336724218E+01+
*       4.6718302570E+02               0
GRID*              12144               01.0354913072E+027.5575058690E+01+
*       4.6460241696E+02               0
GRID*              12145               01.0285352729E+027.5021096541E+01+
*       4.6511950403E+02               0
GRID*              12146               01.0354920845E+027.5575136272E+01+
*       4.6563389002E+02               0
GRID*              12147               01.0125703177E+027.4336747548E+01+
*       4.6305874929E+02               0
GRID*              12148               09.8668007302E+017.4535382712E+01+
*       5.7904151910E+02               0
GRID*              12149               09.7938602442E+017.5023166287E+01+
*       5.7852641216E+02               0
GRID*              12150               09.8669024354E+017.4534961055E+01+
*       5.7801045602E+02               0
GRID*              12151               01.0408229548E+028.0590891608E+01+
*       4.5223159184E+02               0
GRID*              12152               01.0442639003E+027.9719530508E+01+
*       4.5171505028E+02               0
GRID*              12153               01.0409022460E+028.0587997701E+01+
*       4.5119606194E+02               0
GRID*              12154               01.0442641532E+027.9719469269E+01+
*       4.5068422568E+02               0
GRID*              12155               09.6683113385E+017.6518039362E+01+
*       4.2182023354E+02               0
GRID*              12156               09.6669055670E+017.6535715572E+01+
*       4.2076320973E+02               0
GRID*              12157               09.7137173492E+017.5690280982E+01+
*       4.2128702399E+02               0
GRID*              12158               09.9535033888E+017.4337660566E+01+
*       5.8058572152E+02               0
GRID*              12159               01.0039713287E+027.4165916443E+01+
*       5.8110073632E+02               0
GRID*              12160               09.9531897453E+017.4338964527E+01+
*       5.8161694568E+02               0
GRID*              12161               01.0357543022E+028.1244594526E+01+
*       4.5172218324E+02               0
GRID*              12162               01.0357522488E+028.1244830274E+01+
*       4.5378279163E+02               0
GRID*              12163               01.0288377567E+028.1887960367E+01+
*       4.5325960509E+02               0
GRID*              12164               01.0285400429E+028.1824580634E+01+
*       4.5429181220E+02               0
GRID*              12165               01.0213402944E+028.2297481877E+01+
*       4.5376165588E+02               0
GRID*              12166               09.8660442904E+018.2297596369E+01+
*       5.7542858802E+02               0
GRID*              12167               09.9524697261E+018.2583033391E+01+
*       5.7596180301E+02               0
GRID*              12168               01.0039947078E+028.2668243116E+01+
*       5.7545978242E+02               0
GRID*              12169               09.9525912438E+018.2557732613E+01+
*       5.7492674241E+02               0
GRID*              12170               09.8658762676E+018.2296768058E+01+
*       5.7442425311E+02               0
GRID*              12171               01.0442631401E+027.9719854802E+01+
*       4.5274494422E+02               0
GRID*              12172               01.0408241451E+028.0590697656E+01+
*       4.5017099071E+02               0
GRID*              12173               01.0442642165E+027.9719449996E+01+
*       4.4965417712E+02               0
GRID*              12174               01.0409017181E+028.0587408430E+01+
*       4.4913555101E+02               0
GRID*              12175               01.0442647459E+027.9719321958E+01+
*       4.4862344627E+02               0
GRID*              12176               01.0213495673E+028.2296978883E+01+
*       4.5069697783E+02               0
GRID*              12177               01.0126906973E+028.2558197111E+01+
*       4.5119931593E+02               0
GRID*              12178               01.0213433538E+028.2297358009E+01+
*       4.5170090913E+02               0
GRID*              12179               09.6716227049E+017.6420042810E+01+
*       4.2390114775E+02               0
GRID*              12180               09.6713832462E+017.6423013532E+01+
*       4.2285001877E+02               0
GRID*              12181               09.7175508021E+017.5646742688E+01+
*       4.2337182513E+02               0
GRID*              12182               09.7173113434E+017.5649713410E+01+
*       4.2232069615E+02               0
GRID*              12183               09.8652629482E+018.2294043593E+01+
*       4.6100250341E+02               0
GRID*              12184               09.8652267340E+018.2293826027E+01+
*       4.6200714315E+02               0
GRID*              12185               09.9517452280E+018.2556652096E+01+
*       4.6150470687E+02               0
GRID*              12186               01.0040004069E+027.4163679602E+01+
*       5.9656044079E+02               0
GRID*              12187               01.0040093287E+027.4164024482E+01+
*       5.9552270620E+02               0
GRID*              12188               01.0128342843E+027.4266416064E+01+
*       5.9614300064E+02               0
GRID*              12189               01.0039264367E+028.2668345463E+01+
*       4.6097478889E+02               0
GRID*              12190               01.0039251965E+028.2668383564E+01+
*       4.6203476779E+02               0
GRID*              12191               01.0126816961E+028.2558678279E+01+
*       4.6150469559E+02               0
GRID*              12192               01.0126926270E+028.2582162822E+01+
*       4.6047364576E+02               0
GRID*              12193               01.0039245753E+028.2668374367E+01+
*       4.5997259093E+02               0
GRID*              12194               09.9497930546E+017.4242247226E+01+
*       5.9705471688E+02               0
GRID*              12195               09.9497287080E+017.4242939850E+01+
*       5.9601867301E+02               0
GRID*              12196               01.0039713287E+027.4165916443E+01+
*       5.9347187034E+02               0
GRID*              12197               01.0038004336E+027.4151442391E+01+
*       5.9450098611E+02               0
GRID*              12198               09.9511328029E+017.4347641682E+01+
*       5.9400142519E+02               0
GRID*              12199               01.0134018886E+027.4251661400E+01+
*       5.9500099145E+02               0
GRID*              12200               01.0134466061E+027.4243637212E+01+
*       5.9395621737E+02               0
GRID*              12201               09.8652567420E+018.2294022085E+01+
*       4.6306472633E+02               0
GRID*              12202               09.9516319173E+018.2580474376E+01+
*       4.6253560972E+02               0
GRID*              12203               01.0396628730E+028.0733844594E+01+
*       6.0269233380E+02               0
GRID*              12204               01.0460268558E+027.9047959048E+01+
*       6.0269306770E+02               0
GRID*              12205               01.0440528062E+027.9902883260E+01+
*       6.0328411339E+02               0
GRID*              12206               01.0461668031E+027.9016306514E+01+
*       6.0375308944E+02               0
GRID*              12207               09.9517331029E+018.2556579180E+01+
*       4.6356682891E+02               0
GRID*              12208               01.0039244639E+028.2668394026E+01+
*       4.6409705221E+02               0
GRID*              12209               01.0039258433E+028.2668332754E+01+
*       4.6303690162E+02               0
GRID*              12210               09.7868965866E+017.5098962632E+01+
*       4.2286299319E+02               0
GRID*              12211               01.0039713287E+027.4165916443E+01+
*       4.5429661261E+02               0
GRID*              12212               01.0039713287E+027.4165916443E+01+
*       4.5532754045E+02               0
GRID*              12213               09.9537481428E+017.4336647153E+01+
*       4.5481129793E+02               0
GRID*              12214               01.0125737470E+027.4336889473E+01+
*       4.5481088323E+02               0
GRID*              12215               09.9537378784E+017.4336689602E+01+
*       4.5584226389E+02               0
GRID*              12216               01.0125724008E+027.4336833756E+01+
*       4.5687272363E+02               0
GRID*              12217               01.0125724008E+027.4336833756E+01+
*       4.5584179580E+02               0
GRID*              12218               01.0212426627E+027.4534553897E+01+
*       4.5635656051E+02               0
GRID*              12219               09.6152557813E+017.8600621419E+01+
*       5.9938436176E+02               0
GRID*              12220               09.6412041259E+017.9601081345E+01+
*       5.9966412527E+02               0
GRID*              12221               09.6237614485E+017.9165962289E+01+
*       5.9885977171E+02               0
GRID*              12222               09.6516797611E+018.0118171592E+01+
*       5.9912725326E+02               0
GRID*              12223               09.6653638652E+018.0343750654E+01+
*       5.9811613479E+02               0
GRID*              12224               09.6342370836E+017.9683052535E+01+
*       5.9832289970E+02               0
GRID*              12225               09.7824427510E+017.5143664446E+01+
*       4.2077922969E+02               0
GRID*              12226               09.6651807529E+018.0340181691E+01+
*       5.9740452981E+02               0
GRID*              12227               09.6340539713E+017.9679483573E+01+
*       5.9761129472E+02               0
GRID*              12228               01.0039713287E+027.4165916443E+01+
*       4.5635846828E+02               0
GRID*              12229               01.0039713287E+027.4165916443E+01+
*       4.5738939612E+02               0
GRID*              12230               09.9537378784E+017.4336689602E+01+
*       4.5687319172E+02               0
GRID*              12231               09.8635582476E+017.4549141100E+01+
*       5.9756696623E+02               0
GRID*              12232               09.8515590885E+017.4611992457E+01+
*       5.9647759942E+02               0
GRID*              12233               09.7942190586E+017.5020018530E+01+
*       4.5584094579E+02               0
GRID*              12234               09.7942184440E+017.5020021263E+01+
*       4.5481033286E+02               0
GRID*              12235               09.8671174352E+017.4534023556E+01+
*       4.5532655246E+02               0
GRID*              12236               09.8671180498E+017.4534020823E+01+
*       4.5635716539E+02               0
GRID*              12237               01.0040102464E+027.4164880582E+01+
*       5.9759474891E+02               0
GRID*              12238               09.7835559584E+017.5133047726E+01+
*       5.9799671412E+02               0
GRID*              12239               09.7715567993E+017.5195899083E+01+
*       5.9690734731E+02               0
GRID*              12240               09.7942094698E+017.5020114152E+01+
*       4.5687193117E+02               0
GRID*              12241               09.7942374861E+017.5019979830E+01+
*       4.5790255285E+02               0
GRID*              12242               09.8671460661E+017.4533886501E+01+
*       4.5738778707E+02               0
GRID*              12243               09.8671397805E+017.4533912502E+01+
*       4.5841873920E+02               0
GRID*              12244               01.0442433839E+027.7105441412E+01+
*       4.3883229659E+02               0
GRID*              12245               01.0442438227E+027.7105623672E+01+
*       4.3780086271E+02               0
GRID*              12246               01.0459634855E+027.7966331382E+01+
*       4.3934736690E+02               0
GRID*              12247               01.0459639243E+027.7966513642E+01+
*       4.3831593302E+02               0
GRID*              12248               09.7246865502E+017.5573044596E+01+
*       4.5738656649E+02               0
GRID*              12249               01.0357589443E+028.1244273369E+01+
*       4.6923340142E+02               0
GRID*              12250               01.0358641118E+028.1240269323E+01+
*       4.7028315127E+02               0
GRID*              12251               01.0408337208E+028.0593685700E+01+
*       4.7078871849E+02               0
GRID*              12252               01.0409052812E+028.0586650471E+01+
*       4.6976015623E+02               0
GRID*              12253               01.0285457796E+028.1824420059E+01+
*       4.6872360476E+02               0
GRID*              12254               01.0213412752E+028.2297449106E+01+
*       4.6925434157E+02               0
GRID*              12255               01.0288412147E+028.1887822895E+01+
*       4.6975695207E+02               0
GRID*              12256               09.6797990084E+018.0610711933E+01+
*       5.8731696088E+02               0
GRID*              12257               09.6789701878E+018.0600334400E+01+
*       5.8633013660E+02               0
GRID*              12258               09.6408751857E+017.9805266357E+01+
*       5.8679979200E+02               0
GRID*              12259               09.6407576030E+017.9795305746E+01+
*       5.8580665569E+02               0
GRID*              12260               01.0285261852E+027.5020317724E+01+
*       5.6718393801E+02               0
GRID*              12261               01.0285276283E+027.5020461652E+01+
*       5.6821508369E+02               0
GRID*              12262               09.6200637032E+017.8064651081E+01+
*       5.8783502215E+02               0
GRID*              12263               09.6209916382E+017.8966786271E+01+
*       5.8835703138E+02               0
GRID*              12264               09.6207647554E+017.8950954923E+01+
*       5.8732323647E+02               0
GRID*              12265               09.6370007002E+017.7106941350E+01+
*       5.4502108725E+02               0
GRID*              12266               09.6756140345E+017.6305688060E+01+
*       5.4553611306E+02               0
GRID*              12267               09.6756066114E+017.6305865731E+01+
*       5.4656672086E+02               0
GRID*              12268               09.6369932771E+017.7107119022E+01+
*       5.4605169505E+02               0
GRID*              12269               01.0409093282E+028.0586120477E+01+
*       4.7181749787E+02               0
GRID*              12270               01.0357634576E+028.1243772287E+01+
*       4.7234412885E+02               0
GRID*              12271               01.0408312093E+028.0589362868E+01+
*       4.7285338535E+02               0
GRID*              12272               09.6196829989E+017.8856883262E+01+
*       5.4399091582E+02               0
GRID*              12273               09.6198362809E+017.7967614006E+01+
*       5.4450597917E+02               0
GRID*              12274               09.6196966941E+017.8857078361E+01+
*       5.4502145883E+02               0
GRID*              12275               09.6198499761E+017.7967809105E+01+
*       5.4553652217E+02               0
GRID*              12276               09.6198373231E+017.7967518865E+01+
*       5.4347484874E+02               0
GRID*              12277               01.0442702258E+027.9717851609E+01+
*       4.7130534982E+02               0
GRID*              12278               01.0442687812E+027.9718329667E+01+
*       4.7027395855E+02               0
GRID*              12279               01.0442384555E+027.7104389226E+01+
*       4.8728784239E+02               0
GRID*              12280               01.0403685885E+027.6303495230E+01+
*       4.8677211916E+02               0
GRID*              12281               01.0442389040E+027.7104695804E+01+
*       4.8625670648E+02               0
GRID*              12282               01.0403690369E+027.6303801808E+01+
*       4.8574098325E+02               0
GRID*              12283               09.6756134879E+017.6305694986E+01+
*       5.4450504185E+02               0
GRID*              12284               09.6756036377E+017.6305688113E+01+
*       5.4347430976E+02               0
GRID*              12285               09.6369908500E+017.7106934477E+01+
*       5.4399035516E+02               0
GRID*              12286               01.0403699069E+027.6303910521E+01+
*       4.8470984623E+02               0
GRID*              12287               01.0442397349E+027.7105038265E+01+
*       4.8522543534E+02               0
GRID*              12288               01.0442762578E+027.9716107168E+01+
*       4.8471072440E+02               0
GRID*              12289               01.0459779307E+027.8854485826E+01+
*       4.8522546280E+02               0
GRID*              12290               01.0459779147E+027.8854774114E+01+
*       4.8419440956E+02               0
GRID*              12291               01.0127768324E+028.2580486619E+01+
*       5.4296067499E+02               0
GRID*              12292               01.0214138399E+028.2294215836E+01+
*       5.4348967538E+02               0
GRID*              12293               01.0214140076E+028.2294232157E+01+
*       5.4243145662E+02               0
GRID*              12294               01.0354855632E+027.5574362221E+01+
*       4.8728749584E+02               0
GRID*              12295               01.0403684206E+027.6303474320E+01+
*       4.8780330434E+02               0
GRID*              12296               01.0354858979E+027.5574395619E+01+
*       4.8831855645E+02               0
GRID*              12297               01.0358570375E+028.1236451112E+01+
*       5.4140485250E+02               0
GRID*              12298               01.0288930800E+028.1884044378E+01+
*       5.4193027397E+02               0
GRID*              12299               01.0359400586E+028.1233271913E+01+
*       5.4245510166E+02               0
GRID*              12300               01.0127641017E+028.2556768380E+01+
*       5.4192981854E+02               0
GRID*              12301               01.0040166086E+028.2668334750E+01+
*       5.4246010923E+02               0
GRID*              12302               01.0214093325E+028.2294357771E+01+
*       5.4142780009E+02               0
GRID*              12303               01.0459755465E+027.8856176595E+01+
*       4.7388324992E+02               0
GRID*              12304               01.0459638338E+027.7966235112E+01+
*       4.7439946764E+02               0
GRID*              12305               01.0459644270E+027.7966476109E+01+
*       4.7336805049E+02               0
GRID*              12306               01.0459640994E+027.7966283435E+01+
*       4.7233697629E+02               0
GRID*              12307               01.0442411706E+027.7105457567E+01+
*       4.7285236323E+02               0
GRID*              12308               01.0442416539E+027.7105562671E+01+
*       4.7182106893E+02               0
GRID*              12309               01.0442338389E+027.7104000115E+01+
*       5.0996487229E+02               0
GRID*              12310               01.0403644264E+027.6303166474E+01+
*       5.1048087843E+02               0
GRID*              12311               01.0403657606E+027.6303333529E+01+
*       5.0945037635E+02               0
GRID*              12312               01.0354833113E+027.5574168562E+01+
*       5.0790422686E+02               0
GRID*              12313               01.0354821361E+027.5574021712E+01+
*       5.0687371571E+02               0
GRID*              12314               01.0403659727E+027.6303335120E+01+
*       5.0738930274E+02               0
GRID*              12315               01.0403671479E+027.6303481970E+01+
*       5.0841981390E+02               0
GRID*              12316               01.0459749658E+027.8856072372E+01+
*       4.7182058494E+02               0
GRID*              12317               01.0459752189E+027.8855983920E+01+
*       4.7285217573E+02               0
GRID*              12318               01.0403708059E+027.6303872976E+01+
*       4.7233732381E+02               0
GRID*              12319               01.0403712892E+027.6303978080E+01+
*       4.7130602951E+02               0
GRID*              12320               01.0285266154E+027.5020429322E+01+
*       5.0738956315E+02               0
GRID*              12321               01.0285271604E+027.5020483692E+01+
*       5.0842020975E+02               0
GRID*              12322               01.0354838563E+027.5574222932E+01+
*       5.0893487346E+02               0
GRID*              12323               01.0127105720E+028.2581831902E+01+
*       4.7491384772E+02               0
GRID*              12324               01.0213527179E+028.2296925081E+01+
*       4.7544360579E+02               0
GRID*              12325               01.0213502777E+028.2296970175E+01+
*       4.7438502203E+02               0
GRID*              12326               09.7246007257E+017.5574031463E+01+
*       4.8831781181E+02               0
GRID*              12327               09.6757528705E+017.6303269699E+01+
*       4.8780248730E+02               0
GRID*              12328               09.7245974655E+017.5574063991E+01+
*       4.8728671620E+02               0
GRID*              12329               09.6757457439E+017.6303440516E+01+
*       4.8883370326E+02               0
GRID*              12330               01.0442702918E+027.9717808826E+01+
*       4.7336822948E+02               0
GRID*              12331               09.7941359617E+017.5020647380E+01+
*       4.8780231297E+02               0
GRID*              12332               09.7941327016E+017.5020679908E+01+
*       4.8677121736E+02               0
GRID*              12333               09.6198165502E+017.7964603106E+01+
*       4.8058526271E+02               0
GRID*              12334               09.6198204377E+017.7964348926E+01+
*       4.7955403720E+02               0
GRID*              12335               09.6370563297E+017.7104081695E+01+
*       4.8006916345E+02               0
GRID*              12336               09.6370524422E+017.7104335874E+01+
*       4.8110038896E+02               0
GRID*              12337               09.6757724831E+017.6302976833E+01+
*       4.8058508738E+02               0
GRID*              12338               01.0442707322E+027.9717702453E+01+
*       4.7439944716E+02               0
GRID*              12339               01.0459754815E+027.8856050799E+01+
*       4.7491430633E+02               0
GRID*              12340               09.6196532041E+017.8854030086E+01+
*       4.4707838753E+02               0
GRID*              12341               09.6197930152E+017.7964609684E+01+
*       4.4656255899E+02               0
GRID*              12342               09.6198008412E+017.7964295987E+01+
*       4.4759345895E+02               0
GRID*              12343               09.6198167397E+017.7964724561E+01+
*       4.8161601692E+02               0
GRID*              12344               09.8670939714E+017.4534134457E+01+
*       4.4707952773E+02               0
GRID*              12345               09.7941765327E+017.5020324614E+01+
*       4.4656324849E+02               0
GRID*              12346               09.8670831974E+017.4534178997E+01+
*       4.4604862181E+02               0
GRID*              12347               09.7246312585E+017.5573710771E+01+
*       4.4707897851E+02               0
GRID*              12348               09.7246294717E+017.5573733327E+01+
*       4.4604804540E+02               0
GRID*              12349               01.0355620015E+027.5584261434E+01+
*       4.2748447087E+02               0
GRID*              12350               01.0355235943E+027.5579403474E+01+
*       4.2851748759E+02               0
GRID*              12351               01.0285663235E+027.5021977754E+01+
*       4.2800252811E+02               0
GRID*              12352               01.0404490226E+027.6312819033E+01+
*       4.2696556262E+02               0
GRID*              12353               01.0404106154E+027.6307961074E+01+
*       4.2799857934E+02               0
GRID*              12354               01.0442743328E+027.7125444768E+01+
*       4.2540371242E+02               0
GRID*              12355               01.0404294245E+027.6308125999E+01+
*       4.2592257383E+02               0
GRID*              12356               01.0404787842E+027.6314414923E+01+
*       4.2488790357E+02               0
GRID*              12357               09.6757719063E+017.6302882923E+01+
*       4.4553184365E+02               0
GRID*              12358               09.6757652194E+017.6303044311E+01+
*       4.4450098717E+02               0
GRID*              12359               09.7246163179E+017.5573864536E+01+
*       4.4501717497E+02               0
GRID*              12360               09.6757736932E+017.6302860367E+01+
*       4.4656277676E+02               0
GRID*              12361               01.0442482724E+027.7113511776E+01+
*       4.2643859394E+02               0
GRID*              12362               09.7941644310E+017.5020382958E+01+
*       4.4759413377E+02               0
GRID*              12363               01.0127188017E+028.2581824975E+01+
*       4.4398582343E+02               0
GRID*              12364               01.0213618117E+028.2296557969E+01+
*       4.4345642442E+02               0
GRID*              12365               01.0408331654E+028.0593995837E+01+
*       4.4398614680E+02               0
GRID*              12366               01.0409029161E+028.0587171613E+01+
*       4.4295809851E+02               0
GRID*              12367               01.0358687186E+028.1239715778E+01+
*       4.4348055917E+02               0
GRID*              12368               01.0357870467E+028.1243145122E+01+
*       4.4243107007E+02               0
GRID*              12369               01.0459583000E+027.8092149119E+01+
*       6.0853262303E+02               0
GRID*              12370               01.0459010032E+027.8067481479E+01+
*       6.0749063485E+02               0
GRID*              12371               01.0459237886E+027.8980106836E+01+
*       6.0795716549E+02               0
GRID*              12372               01.0213611706E+028.2296480483E+01+
*       4.4451437582E+02               0
GRID*              12373               01.0442669082E+027.9718591438E+01+
*       4.4450165824E+02               0
GRID*              12374               01.0442670228E+027.9718546604E+01+
*       4.4347067332E+02               0
GRID*              12375               01.0285319706E+028.1826726587E+01+
*       4.3161476164E+02               0
GRID*              12376               01.0212784452E+028.2300114469E+01+
*       4.3108252374E+02               0
GRID*              12377               01.0213320620E+028.2297843607E+01+
*       4.3214169825E+02               0
GRID*              12378               01.0126893438E+028.2581509365E+01+
*       4.3161174075E+02               0
GRID*              12379               01.0039301602E+028.2668310985E+01+
*       4.3211377388E+02               0
GRID*              12380               01.0126949040E+028.2559000555E+01+
*       4.3264479468E+02               0
GRID*              12381               01.0447229626E+027.7228547888E+01+
*       6.0586004160E+02               0
GRID*              12382               01.0446453258E+027.7197575703E+01+
*       6.0481545532E+02               0
GRID*              12383               01.0457906767E+027.8089177290E+01+
*       6.0539144918E+02               0
GRID*              12384               01.0458683135E+027.8120149475E+01+
*       6.0643603545E+02               0
GRID*              12385               01.0288322419E+028.1887970740E+01+
*       4.3264220054E+02               0
GRID*              12386               01.0358660213E+028.1242168610E+01+
*       4.3211619700E+02               0
GRID*              12387               01.0066641238E+028.2650234796E+01+
*       5.9187791022E+02               0
GRID*              12388               01.0154665600E+028.2529702923E+01+
*       5.9135192361E+02               0
GRID*              12389               01.0063850919E+028.2666087091E+01+
*       5.9084307804E+02               0
GRID*              12390               09.9832589057E+018.2592813772E+01+
*       5.9239986678E+02               0
GRID*              12391               01.0076688921E+028.2636021124E+01+
*       5.9288272812E+02               0
GRID*              12392               01.0458935850E+027.9031439733E+01+
*       6.0692052345E+02               0
GRID*              12393               01.0407509059E+027.6423679167E+01+
*       6.0537006808E+02               0
GRID*              12394               01.0406322621E+027.6389908568E+01+
*       6.0642611581E+02               0
GRID*              12395               01.0254032268E+028.2063369788E+01+
*       5.9387724527E+02               0
GRID*              12396               01.0253514658E+028.2065732557E+01+
*       5.9482252998E+02               0
GRID*              12397               01.0320241329E+028.1573441767E+01+
*       5.9437913822E+02               0
GRID*              12398               01.0198410384E+028.2362455719E+01+
*       4.2500501648E+02               0
GRID*              12399               01.0177998832E+028.2458544414E+01+
*       4.2392223104E+02               0
GRID*              12400               01.0116391626E+028.2565372385E+01+
*       4.2476061942E+02               0
GRID*              12401               09.8733117902E+018.2322043519E+01+
*       4.2507741792E+02               0
GRID*              12402               09.9569512198E+018.2520775266E+01+
*       4.2560028678E+02               0
GRID*              12403               01.0031587716E+028.2665125330E+01+
*       4.2527631236E+02               0
GRID*              12404               09.9479482635E+018.2466392936E+01+
*       4.2475341243E+02               0
GRID*              12405               01.0403714337E+027.6304177268E+01+
*       4.3831621297E+02               0
GRID*              12406               01.0088094019E+028.2608712419E+01+
*       4.2344574896E+02               0
GRID*              12407               09.9738983932E+018.2573388843E+01+
*       4.2369904017E+02               0
GRID*              12408               01.0032933927E+028.2665305333E+01+
*       4.2428955238E+02               0
GRID*              12409               01.0076390885E+028.2636558972E+01+
*       5.9380888383E+02               0
GRID*              12410               09.9835024432E+018.2593354228E+01+
*       5.9332324381E+02               0
GRID*              12411               09.9907185978E+018.2610867553E+01+
*       5.9431067694E+02               0
GRID*              12412               01.0322283806E+028.1550000463E+01+
*       5.9341717118E+02               0
GRID*              12413               01.0238219586E+028.2167663722E+01+
*       5.9284063581E+02               0
GRID*              12414               01.0306248301E+028.1652994606E+01+
*       5.9238677316E+02               0
GRID*              12415               01.0290689863E+027.5080511615E+01+
*       6.0640398105E+02               0
GRID*              12416               01.0359579859E+027.5620689010E+01+
*       6.0585738593E+02               0
GRID*              12417               01.0360670298E+027.5634152500E+01+
*       6.0690335003E+02               0
GRID*              12418               01.0215694131E+027.4548365364E+01+
*       6.0793062105E+02               0
GRID*              12419               01.0289189006E+027.5060414993E+01+
*       6.0849439361E+02               0
GRID*              12420               01.0213401047E+027.4538600422E+01+
*       6.0896366093E+02               0
GRID*              12421               01.0359135029E+027.5619092028E+01+
*       6.0900790369E+02               0
GRID*              12422               01.0355464188E+027.5581497989E+01+
*       6.1005008728E+02               0
GRID*              12423               01.0285518165E+027.5022820954E+01+
*       6.0953657720E+02               0
GRID*              12424               09.6532382841E+018.0047093954E+01+
*       4.2189445082E+02               0
GRID*              12425               09.6981370599E+018.0918324078E+01+
*       4.2133271560E+02               0
GRID*              12426               09.6426021932E+018.0069167375E+01+
*       4.2078874260E+02               0
GRID*              12427               09.8955728663E+018.2405147384E+01+
*       4.2314253985E+02               0
GRID*              12428               09.9175067746E+018.2458214263E+01+
*       4.2212921141E+02               0
GRID*              12429               09.9958322507E+018.2626455103E+01+
*       4.2268571301E+02               0
GRID*              12430               09.8243590617E+018.2047234524E+01+
*       4.2254671491E+02               0
GRID*              12431               09.8889127052E+018.2374476430E+01+
*       4.2416293007E+02               0
GRID*              12432               09.8176989006E+018.2016563570E+01+
*       4.2356710513E+02               0
GRID*              12433               01.0364484852E+027.5669629875E+01+
*       5.9333461372E+02               0
GRID*              12434               01.0372104865E+027.5763754213E+01+
*       5.9399737699E+02               0
GRID*              12435               01.0295153283E+027.5076069774E+01+
*       5.9390389596E+02               0
GRID*              12436               01.0303142680E+027.5146291751E+01+
*       5.9458532353E+02               0
GRID*              12437               09.7732136861E+017.5066538239E+01+
*       4.1968242149E+02               0
GRID*              12438               09.9460644074E+017.4370099238E+01+
*       4.1979657387E+02               0
GRID*              12439               01.0403843120E+027.6305897474E+01+
*       4.3212882247E+02               0
GRID*              12440               01.0442465882E+027.7106595955E+01+
*       4.3264456390E+02               0
GRID*              12441               01.0442463064E+027.7106532032E+01+
*       4.3367585903E+02               0
GRID*              12442               01.0403840302E+027.6305833551E+01+
*       4.3316011760E+02               0
GRID*              12443               09.8589710056E+017.4569710441E+01+
*       4.2027818682E+02               0
GRID*              12444               09.8667545509E+017.4535604924E+01+
*       5.8007285394E+02               0
GRID*              12445               09.9535033888E+017.4337660566E+01+
*       5.7955479368E+02               0
GRID*              12446               01.0459656921E+027.7966983088E+01+
*       4.3419098332E+02               0
GRID*              12447               01.0459641922E+027.7966336489E+01+
*       4.3522253308E+02               0
GRID*              12448               01.0442448065E+027.7105885434E+01+
*       4.3470740879E+02               0
GRID*              12449               01.0442436793E+027.7105618306E+01+
*       4.3573843952E+02               0
GRID*              12450               01.0039713287E+027.4165916443E+01+
*       4.7388424148E+02               0
GRID*              12451               01.0039713287E+027.4165916443E+01+
*       4.7491516931E+02               0
GRID*              12452               09.9537360857E+017.4336697109E+01+
*       4.7439998223E+02               0
GRID*              12453               09.9537324424E+017.4336712179E+01+
*       4.7646192013E+02               0
GRID*              12454               09.8670954430E+017.4534128285E+01+
*       4.7697681797E+02               0
GRID*              12455               09.9537360857E+017.4336697109E+01+
*       4.7543091007E+02               0
GRID*              12456               09.8670990863E+017.4534113216E+01+
*       4.7594580790E+02               0
GRID*              12457               01.0459657157E+027.7967158499E+01+
*       4.3315977045E+02               0
GRID*              12458               01.0127462839E+028.2557621490E+01+
*       5.2543094962E+02               0
GRID*              12459               01.0039888589E+028.2668340607E+01+
*       5.2490036967E+02               0
GRID*              12460               01.0039923329E+028.2668349801E+01+
*       5.2596133247E+02               0
GRID*              12461               01.0292799855E+027.5035635533E+01+
*       5.9523265743E+02               0
GRID*              12462               01.0295292174E+027.5030196483E+01+
*       5.9630133203E+02               0
GRID*              12463               09.7941502354E+017.5020520162E+01+
*       4.3831556440E+02               0
GRID*              12464               09.8670657055E+017.4534259190E+01+
*       4.3780090257E+02               0
GRID*              12465               09.8670578110E+017.4534291852E+01+
*       4.3883186651E+02               0
GRID*              12466               09.8658964142E+018.2296914675E+01+
*       5.2699170908E+02               0
GRID*              12467               09.9523118950E+018.2582069543E+01+
*       5.2646245003E+02               0
GRID*              12468               09.8658629591E+018.2296748732E+01+
*       5.2593317769E+02               0
GRID*              12469               09.9537120027E+017.4336796496E+01+
*       4.3522363170E+02               0
GRID*              12470               09.8670487647E+017.4534334461E+01+
*       4.3573894274E+02               0
GRID*              12471               09.8670648237E+017.4534257155E+01+
*       4.3470783111E+02               0
GRID*              12472               09.7941255258E+017.5020683616E+01+
*       4.4037758001E+02               0
GRID*              12473               09.7941341405E+017.5020597672E+01+
*       4.3934659511E+02               0
GRID*              12474               09.8670417161E+017.4534369363E+01+
*       4.3986289722E+02               0
GRID*              12475               01.0459641444E+027.7966546383E+01+
*       4.6821100848E+02               0
GRID*              12476               01.0459732073E+027.8856692582E+01+
*       4.6872607813E+02               0
GRID*              12477               01.0459643270E+027.7966608629E+01+
*       4.6924259455E+02               0
GRID*              12478               01.0459733899E+027.8856754828E+01+
*       4.6975766420E+02               0
GRID*              12479               01.0459728522E+027.8856726358E+01+
*       4.6769451041E+02               0
GRID*              12480               01.0403739628E+027.6304397431E+01+
*       4.6718053122E+02               0
GRID*              12481               01.0403750280E+027.6304530574E+01+
*       4.6614944883E+02               0
GRID*              12482               01.0442457780E+027.7106333421E+01+
*       4.4604806639E+02               0
GRID*              12483               01.0442462208E+027.7106538070E+01+
*       4.4707848505E+02               0
GRID*              12484               01.0442451754E+027.7106059895E+01+
*       4.4501746410E+02               0
GRID*              12485               09.7938677037E+018.1822826681E+01+
*       5.1202685798E+02               0
GRID*              12486               01.0459641177E+027.7966924008E+01+
*       4.4450164992E+02               0
GRID*              12487               01.0459647202E+027.7967197534E+01+
*       4.4553225220E+02               0
GRID*              12488               01.0459641555E+027.7966645956E+01+
*       4.4347093550E+02               0
GRID*              12489               01.0459747635E+027.8856795317E+01+
*       4.4398656895E+02               0
GRID*              12490               01.0459747256E+027.8857073369E+01+
*       4.4501728336E+02               0
GRID*              12491               09.7206456780E+018.1238560160E+01+
*       5.1253235496E+02               0
GRID*              12492               01.0403751906E+027.6304775810E+01+
*       4.4862415402E+02               0
GRID*              12493               01.0442458579E+027.7106439076E+01+
*       4.4913940751E+02               0
GRID*              12494               01.0403759378E+027.6304963004E+01+
*       4.4965505433E+02               0
GRID*              12495               01.0442466051E+027.7106626270E+01+
*       4.5017030781E+02               0
GRID*              12496               01.0409281253E+028.0582648953E+01+
*       4.9862787021E+02               0
GRID*              12497               01.0408480832E+028.0585568646E+01+
*       4.9760219798E+02               0
GRID*              12498               01.0459649154E+027.7967453193E+01+
*       4.4965425246E+02               0
GRID*              12499               01.0285361993E+027.5021266199E+01+
*       4.4862481468E+02               0
GRID*              12500               01.0212401738E+027.4534432268E+01+
*       4.4914128472E+02               0
GRID*              12501               01.0212412489E+027.4534476765E+01+
*       4.4811048739E+02               0
GRID*              12502               01.0459619782E+027.7964432916E+01+
*       4.9502231262E+02               0
GRID*              12503               01.0459856484E+027.8853914036E+01+
*       4.9450685084E+02               0
GRID*              12504               01.0459856823E+027.8853863152E+01+
*       4.9553804146E+02               0
GRID*              12505               01.0442871475E+027.9715102625E+01+
*       4.9605482750E+02               0
GRID*              12506               01.0459856526E+027.8853997809E+01+
*       4.9656899712E+02               0
GRID*              12507               01.0442875918E+027.9714995270E+01+
*       4.9708591736E+02               0
GRID*              12508               01.0442865063E+027.9715123075E+01+
*       4.9811652240E+02               0
GRID*              12509               01.0459845770E+027.8854123260E+01+
*       4.9759956379E+02               0
GRID*              12510               01.0039713287E+027.4165916443E+01+
*       5.8213166416E+02               0
GRID*              12511               01.0039713287E+027.4165916443E+01+
*       5.8316259199E+02               0
GRID*              12512               09.9531897453E+017.4338964527E+01+
*       5.8264787352E+02               0
GRID*              12513               01.0354920552E+027.5575069605E+01+
*       4.4914039786E+02               0
GRID*              12514               01.0409276968E+028.0582753848E+01+
*       4.9656653132E+02               0
GRID*              12515               01.0408469644E+028.0585790533E+01+
*       4.9554019918E+02               0
GRID*              12516               01.0357855567E+028.1241133911E+01+
*       4.9709313685E+02               0
GRID*              12517               01.0359170641E+028.1236593055E+01+
*       4.9604324618E+02               0
GRID*              12518               01.0039945407E+028.2668347042E+01+
*       5.2802417263E+02               0
GRID*              12519               01.0039908084E+028.2668344644E+01+
*       5.2696330668E+02               0
GRID*              12520               09.9524333186E+018.2557869253E+01+
*       5.2749369808E+02               0
GRID*              12521               01.0403779300E+027.6305212504E+01+
*       4.5068534660E+02               0
GRID*              12522               09.8670577182E+017.4534297438E+01+
*       4.3676982080E+02               0
GRID*              12523               09.7941373177E+017.5020649038E+01+
*       4.3728472528E+02               0
GRID*              12524               09.7941293304E+017.5020687285E+01+
*       4.3625364350E+02               0
GRID*              12525               09.9526593549E+018.2558425372E+01+
*       5.5017673966E+02               0
GRID*              12526               01.0040171415E+028.2668376861E+01+
*       5.4964655293E+02               0
GRID*              12527               09.9525496831E+018.2582483013E+01+
*       5.4914633440E+02               0
GRID*              12528               09.8660664345E+018.2297687790E+01+
*       5.4967504455E+02               0
GRID*              12529               01.0125713091E+027.4336788704E+01+
*       4.3419264660E+02               0
GRID*              12530               01.0212420301E+027.4534533596E+01+
*       4.3367722141E+02               0
GRID*              12531               01.0125724168E+027.4336834519E+01+
*       4.3522365208E+02               0
GRID*              12532               01.0212431378E+027.4534579411E+01+
*       4.3470822689E+02               0
GRID*              12533               01.0039713287E+027.4165916443E+01+
*       4.3573991158E+02               0
GRID*              12534               01.0039713287E+027.4165916443E+01+
*       4.3677083942E+02               0
GRID*              12535               09.9537120027E+017.4336796496E+01+
*       4.3625455953E+02               0
GRID*              12536               01.0040145152E+028.2668316981E+01+
*       5.4864537275E+02               0
GRID*              12537               01.0125713091E+027.4336788704E+01+
*       4.3316171877E+02               0
GRID*              12538               01.0212509360E+027.4534962533E+01+
*       4.3264603192E+02               0
GRID*              12539               01.0125724168E+027.4336834519E+01+
*       4.3625457992E+02               0
GRID*              12540               01.0127559812E+028.2580631390E+01+
*       5.2646210981E+02               0
GRID*              12541               09.6370103473E+017.7106584769E+01+
*       5.5326844690E+02               0
GRID*              12542               09.6199279398E+017.7967635364E+01+
*       5.5378382633E+02               0
GRID*              12543               09.6199245498E+017.7967766927E+01+
*       5.5275305061E+02               0
GRID*              12544               09.6206859764E+017.8853468349E+01+
*       5.5326926155E+02               0
GRID*              12545               09.6207407598E+017.8853445133E+01+
*       5.5223799254E+02               0
GRID*              12546               09.6206380429E+017.8853980648E+01+
*       5.5120678478E+02               0
GRID*              12547               09.6199247818E+017.7967715638E+01+
*       5.5172190393E+02               0
GRID*              12548               01.0213922911E+028.2295179617E+01+
*       5.2593294372E+02               0
GRID*              12549               01.0354888658E+027.5574751952E+01+
*       4.3470766169E+02               0
GRID*              12550               01.0285362410E+027.5021101879E+01+
*       4.3419196075E+02               0
GRID*              12551               01.0354977132E+027.5575859786E+01+
*       4.3367624384E+02               0
GRID*              12552               09.6376241823E+017.9714554899E+01+
*       5.5070038781E+02               0
GRID*              12553               09.6206246974E+017.8853803962E+01+
*       5.5017608498E+02               0
GRID*              12554               01.0285341135E+027.5020999210E+01+
*       4.3522309179E+02               0
GRID*              12555               09.6756137867E+017.6305783447E+01+
*       5.5893821492E+02               0
GRID*              12556               09.7244536215E+017.5575678131E+01+
*       5.5842265360E+02               0
GRID*              12557               09.7244454736E+017.5575759510E+01+
*       5.5945360840E+02               0
GRID*              12558               09.7244488372E+017.5575754288E+01+
*       5.6151559592E+02               0
GRID*              12559               09.6756010477E+017.6305957392E+01+
*       5.6100014840E+02               0
GRID*              12560               09.7244342087E+017.5575900387E+01+
*       5.6048456000E+02               0
GRID*              12561               01.0039713287E+027.4165916443E+01+
*       4.3470898375E+02               0
GRID*              12562               01.0039713287E+027.4165916443E+01+
*       4.3367805591E+02               0
GRID*              12563               01.0403751828E+027.6304725717E+01+
*       4.3419153545E+02               0
GRID*              12564               01.0442506857E+027.7108381109E+01+
*       4.3161294118E+02               0
GRID*              12565               09.6371043707E+017.7102463757E+01+
*       4.7285208297E+02               0
GRID*              12566               09.6198301085E+017.7962623124E+01+
*       4.7336809261E+02               0
GRID*              12567               09.6198299341E+017.7962740718E+01+
*       4.7233650572E+02               0
GRID*              12568               09.8659384104E+018.2297148474E+01+
*       5.6923694760E+02               0
GRID*              12569               09.8659650550E+018.2297172862E+01+
*       5.6823299308E+02               0
GRID*              12570               09.7910475720E+018.1888109980E+01+
*       5.6873630542E+02               0
GRID*              12571               09.6196011390E+017.8850847779E+01+
*       4.6769426073E+02               0
GRID*              12572               09.6198409327E+017.7961847281E+01+
*       4.6821075541E+02               0
GRID*              12573               09.6196012459E+017.8851005929E+01+
*       4.6872596454E+02               0
GRID*              12574               09.6198410396E+017.7962005431E+01+
*       4.6924245922E+02               0
GRID*              12575               01.0285243739E+027.5020335568E+01+
*       5.2903911569E+02               0
GRID*              12576               01.0354803819E+027.5573791358E+01+
*       5.2955484662E+02               0
GRID*              12577               01.0285256660E+027.5020397490E+01+
*       5.3007005812E+02               0
GRID*              12578               09.6709843824E+018.0579709860E+01+
*       5.6770195679E+02               0
GRID*              12579               09.6367876605E+017.9716503568E+01+
*       5.6823672947E+02               0
GRID*              12580               09.6367756630E+017.9716385022E+01+
*       5.6926844227E+02               0
GRID*              12581               09.6701602774E+018.0580958118E+01+
*       5.6873686749E+02               0
GRID*              12582               09.8653826343E+018.2294632952E+01+
*       4.7338059143E+02               0
GRID*              12583               09.8653380122E+018.2294342098E+01+
*       4.7232214265E+02               0
GRID*              12584               09.7934403340E+018.1820319301E+01+
*       4.7285141917E+02               0
GRID*              12585               09.7212700016E+018.1239847874E+01+
*       4.7542153848E+02               0
GRID*              12586               09.7935047041E+018.1821060309E+01+
*       4.7491426737E+02               0
GRID*              12587               09.7212650556E+018.1239751005E+01+
*       4.7440704287E+02               0
GRID*              12588               09.7242842017E+017.5577411620E+01+
*       5.7904477746E+02               0
GRID*              12589               09.7239875392E+017.5580385854E+01+
*       5.8007604527E+02               0
GRID*              12590               09.6752995109E+017.6313185710E+01+
*       5.7956105982E+02               0
GRID*              12591               09.7239485998E+017.5580873465E+01+
*       5.8110759690E+02               0
GRID*              12592               09.6749712372E+017.6320753075E+01+
*       5.8162456129E+02               0
GRID*              12593               09.6752605715E+017.6313673321E+01+
*       5.8059261145E+02               0
GRID*              12594               01.0212343364E+027.4534180819E+01+
*       5.3058553496E+02               0
GRID*              12595               01.0285256373E+027.5020394621E+01+
*       5.3110112057E+02               0
GRID*              12596               01.0212359025E+027.4534245602E+01+
*       5.3161658789E+02               0
GRID*              12597               09.7938140649E+017.5023388498E+01+
*       5.7955774700E+02               0
GRID*              12598               09.7935174024E+017.5026362732E+01+
*       5.8058901482E+02               0
GRID*              12599               09.7934785466E+017.5026549891E+01+
*       5.8161990541E+02               0
GRID*              12600               01.0125702155E+027.4336743722E+01+
*       5.3006976391E+02               0
GRID*              12601               01.0212330443E+027.4534118897E+01+
*       5.2955459253E+02               0
GRID*              12602               09.8654261338E+018.2294700551E+01+
*       4.7438512592E+02               0
GRID*              12603               09.7905260768E+018.1884177715E+01+
*       4.7388183047E+02               0
GRID*              12604               09.7234191117E+017.5586210097E+01+
*       5.8213951684E+02               0
GRID*              12605               09.7929490584E+017.5031886522E+01+
*       5.8265182535E+02               0
GRID*              12606               01.0125717816E+027.4336808504E+01+
*       5.3213174467E+02               0
GRID*              12607               01.0212348834E+027.4534196463E+01+
*       5.3264754458E+02               0
GRID*              12608               01.0342317586E+028.1425319682E+01+
*       6.0004416766E+02               0
GRID*              12609               01.0253387942E+028.2109088016E+01+
*       5.9959438833E+02               0
GRID*              12610               01.0288778933E+028.1884842007E+01+
*       5.1924264351E+02               0
GRID*              12611               01.0358175500E+028.1239514082E+01+
*       5.1871802961E+02               0
GRID*              12612               01.0213875326E+028.2295388384E+01+
*       5.1874055263E+02               0
GRID*              12613               01.0285918377E+028.1821517254E+01+
*       5.1821122441E+02               0
GRID*              12614               01.0213928834E+028.2295134545E+01+
*       5.1974434963E+02               0
GRID*              12615               01.0212688036E+027.4535811959E+01+
*       5.8523008046E+02               0
GRID*              12616               01.0125735552E+027.4336881759E+01+
*       5.8573330912E+02               0
GRID*              12617               01.0125572504E+027.4336207934E+01+
*       5.8470620259E+02               0
GRID*              12618               01.0212524987E+027.4535138135E+01+
*       5.8420297393E+02               0
GRID*              12619               09.9536739679E+017.4336953961E+01+
*       5.0635929478E+02               0
GRID*              12620               09.8669952598E+017.4534573552E+01+
*       5.0687451810E+02               0
GRID*              12621               09.8670137036E+017.4534484764E+01+
*       5.0584385772E+02               0
GRID*              12622               01.0442077092E+027.7099395119E+01+
*       5.8318455690E+02               0
GRID*              12623               01.0403573656E+027.6297287487E+01+
*       5.8369593209E+02               0
GRID*              12624               01.0403682478E+027.6299874340E+01+
*       5.8266860968E+02               0
GRID*              12625               01.0442185914E+027.7101981973E+01+
*       5.8215723449E+02               0
GRID*              12626               09.7246136858E+017.5573897358E+01+
*       4.3779997425E+02               0
GRID*              12627               09.7246068440E+017.5573982734E+01+
*       4.3883114376E+02               0
GRID*              12628               09.6757489491E+017.6303411797E+01+
*       4.3728395563E+02               0
GRID*              12629               09.6757421073E+017.6303497173E+01+
*       4.3831512514E+02               0
GRID*              12630               01.0459707123E+027.7952290724E+01+
*       5.8267272583E+02               0
GRID*              12631               01.0459551550E+027.8840225554E+01+
*       5.8215961651E+02               0
GRID*              12632               01.0459555816E+027.8846450940E+01+
*       5.8113067832E+02               0
GRID*              12633               01.0459711389E+027.7958516110E+01+
*       5.8164378764E+02               0
GRID*              12634               01.0181675240E+028.2457213508E+01+
*       6.0019535777E+02               0
GRID*              12635               01.0178798177E+028.2462549301E+01+
*       5.9913442439E+02               0
GRID*              12636               09.7940920374E+017.5021081984E+01+
*       5.0636011938E+02               0
GRID*              12637               09.7940809297E+017.5021192876E+01+
*       5.0532918995E+02               0
GRID*              12638               01.0039713287E+027.4165916443E+01+
*       4.9244094251E+02               0
GRID*              12639               01.0039713287E+027.4165916443E+01+
*       4.9141001467E+02               0
GRID*              12640               01.0125693456E+027.4336707277E+01+
*       4.9192603083E+02               0
GRID*              12641               09.7246029457E+017.5573999186E+01+
*       4.3573788026E+02               0
GRID*              12642               09.7246007681E+017.5574026234E+01+
*       4.3676913512E+02               0
GRID*              12643               09.6757339512E+017.6303798651E+01+
*       4.3522196803E+02               0
GRID*              12644               09.6757317736E+017.6303825699E+01+
*       4.3625322289E+02               0
GRID*              12645               01.0039713287E+027.4165916443E+01+
*       4.8831723117E+02               0
GRID*              12646               01.0039713287E+027.4165916443E+01+
*       4.8934815900E+02               0
GRID*              12647               09.9537072970E+017.4336816170E+01+
*       4.8883309977E+02               0
GRID*              12648               01.0039713287E+027.4165916443E+01+
*       4.9037908684E+02               0
GRID*              12649               01.0125706233E+027.4336760128E+01+
*       4.8986406466E+02               0
GRID*              12650               01.0125706233E+027.4336760128E+01+
*       4.8883313682E+02               0
GRID*              12651               09.7244702684E+017.5575512592E+01+
*       5.6770111215E+02               0
GRID*              12652               09.6756234706E+017.6305582288E+01+
*       5.6821674329E+02               0
GRID*              12653               09.6756192333E+017.6305635510E+01+
*       5.6718572635E+02               0
GRID*              12654               09.9536905314E+017.4336885515E+01+
*       4.9192600803E+02               0
GRID*              12655               01.0125693456E+027.4336707277E+01+
*       4.9089510300E+02               0
GRID*              12656               09.6756192497E+017.6305637414E+01+
*       5.6615489075E+02               0
GRID*              12657               09.7244553957E+017.5575661110E+01+
*       5.6667019524E+02               0
GRID*              12658               09.6756096578E+017.6305757677E+01+
*       5.6512393287E+02               0
GRID*              12659               09.7244517240E+017.5575722252E+01+
*       5.6460840245E+02               0
GRID*              12660               09.7244458039E+017.5575781373E+01+
*       5.6563923736E+02               0
GRID*              12661               09.7940078856E+017.5021621813E+01+
*       5.6512286467E+02               0
GRID*              12662               09.7940019655E+017.5021680934E+01+
*       5.6615369957E+02               0
GRID*              12663               09.6200809660E+017.8853967233E+01+
*       5.7492263981E+02               0
GRID*              12664               09.6209486849E+017.7969525149E+01+
*       5.7440473208E+02               0
GRID*              12665               09.6209927004E+017.7969899340E+01+
*       5.7543697363E+02               0
GRID*              12666               09.6755477150E+017.6307387540E+01+
*       5.7749765350E+02               0
GRID*              12667               09.6380540242E+017.7111366964E+01+
*       5.7801616294E+02               0
GRID*              12668               09.6380996611E+017.7111273666E+01+
*       5.7698374279E+02               0
GRID*              12669               01.0354838227E+027.5574172728E+01+
*       4.9038091346E+02               0
GRID*              12670               01.0285288302E+027.5020656789E+01+
*       4.9089605145E+02               0
GRID*              12671               01.0285280266E+027.5020617710E+01+
*       4.8986496280E+02               0
GRID*              12672               09.6756346524E+017.6305520937E+01+
*       5.7440345359E+02               0
GRID*              12673               09.6381668552E+017.7109654005E+01+
*       5.7492136471E+02               0
GRID*              12674               09.6381228396E+017.7109279814E+01+
*       5.7388912316E+02               0
GRID*              12675               09.6381517146E+017.7110017814E+01+
*       5.7595246864E+02               0
GRID*              12676               09.6209875147E+017.7970558336E+01+
*       5.7646821393E+02               0
GRID*              12677               01.0212337313E+027.4534155509E+01+
*       4.9038001013E+02               0
GRID*              12678               01.0212345349E+027.4534194589E+01+
*       4.9141109878E+02               0
GRID*              12679               09.6198960145E+017.8855759175E+01+
*       5.6048632170E+02               0
GRID*              12680               09.6202102906E+017.8854771761E+01+
*       5.5945512903E+02               0
GRID*              12681               09.6198919225E+017.7967140839E+01+
*       5.5997005567E+02               0
GRID*              12682               09.6700802854E+018.0583029919E+01+
*       5.5842094154E+02               0
GRID*              12683               09.6708961632E+018.0581110713E+01+
*       5.5945497225E+02               0
GRID*              12684               09.7214659212E+018.1242633856E+01+
*       5.5894820039E+02               0
GRID*              12685               01.0407149260E+027.6317936195E+01+
*       4.1776566682E+02               0
GRID*              12686               01.0378529810E+027.5852907117E+01+
*       4.1711065919E+02               0
GRID*              12687               01.0365363777E+027.5702099091E+01+
*       4.1804593739E+02               0
GRID*              12688               01.0125701740E+027.4336741538E+01+
*       4.8780214899E+02               0
GRID*              12689               01.0212363103E+027.4534273406E+01+
*       4.8728690530E+02               0
GRID*              12690               01.0212345597E+027.4534189770E+01+
*       4.8831798396E+02               0
GRID*              12691               01.0354852696E+027.5574317108E+01+
*       4.8934978840E+02               0
GRID*              12692               01.0285294735E+027.5020762090E+01+
*       4.8883383774E+02               0
GRID*              12693               01.0360510758E+027.5628114815E+01+
*       5.9769005618E+02               0
GRID*              12694               01.0354855656E+027.5574366618E+01+
*       4.8522526883E+02               0
GRID*              12695               01.0285300201E+027.5020761393E+01+
*       4.8470961237E+02               0
GRID*              12696               01.0354864356E+027.5574475331E+01+
*       4.8419413182E+02               0
GRID*              12697               01.0459821730E+027.8854018256E+01+
*       4.8831930854E+02               0
GRID*              12698               01.0459617305E+027.7964486041E+01+
*       4.8780359622E+02               0
GRID*              12699               01.0459821231E+027.8854299401E+01+
*       4.8728812222E+02               0
GRID*              12700               01.0459616806E+027.7964767186E+01+
*       4.8677240990E+02               0
GRID*              12701               09.6369446470E+017.9716810310E+01+
*       5.5998369211E+02               0
GRID*              12702               09.6372577778E+017.9715783305E+01+
*       5.5895201597E+02               0
GRID*              12703               09.6707975140E+018.0592311410E+01+
*       5.5739191533E+02               0
GRID*              12704               09.7206109335E+018.1238603686E+01+
*       5.5789853834E+02               0
GRID*              12705               01.0442754591E+027.9716300320E+01+
*       4.8367969772E+02               0
GRID*              12706               01.0459760284E+027.8854994240E+01+
*       4.8213214798E+02               0
GRID*              12707               01.0442735594E+027.9716500136E+01+
*       4.8264839244E+02               0
GRID*              12708               01.0459760139E+027.8854975126E+01+
*       4.8316312462E+02               0
GRID*              12709               09.7245655108E+017.5574423318E+01+
*       4.9450473449E+02               0
GRID*              12710               09.7941101169E+017.5020873999E+01+
*       4.9398898592E+02               0
GRID*              12711               09.7941076738E+017.5020885945E+01+
*       4.9501998290E+02               0
GRID*              12712               09.7941183162E+017.5020792178E+01+
*       4.9295781895E+02               0
GRID*              12713               09.8670315716E+017.4534413293E+01+
*       4.9347278273E+02               0
GRID*              12714               01.0127452211E+028.2557700405E+01+
*       5.2336797986E+02               0
GRID*              12715               01.0039870705E+028.2668334686E+01+
*       5.2283742649E+02               0
GRID*              12716               01.0039891839E+028.2668353764E+01+
*       5.2389855260E+02               0
GRID*              12717               09.9523966919E+018.2557597238E+01+
*       5.2336793951E+02               0
GRID*              12718               09.8658024251E+018.2296528653E+01+
*       5.2387015407E+02               0
GRID*              12719               09.9523009363E+018.2582118563E+01+
*       5.2439951303E+02               0
GRID*              12720               01.0127542625E+028.2580604286E+01+
*       5.2439924423E+02               0
GRID*              12721               01.0213875063E+028.2295339996E+01+
*       5.2387004440E+02               0
GRID*              12722               01.0408656642E+027.6351530456E+01+
*       4.1858289186E+02               0
GRID*              12723               01.0361349750E+027.5661117920E+01+
*       4.1910586700E+02               0
GRID*              12724               09.6196218925E+017.8854702208E+01+
*       5.2543113260E+02               0
GRID*              12725               09.6198570946E+017.7965933876E+01+
*       5.2491534295E+02               0
GRID*              12726               09.6198648948E+017.7965652378E+01+
*       5.2594681885E+02               0
GRID*              12727               09.7245685542E+017.5574385761E+01+
*       4.9553578723E+02               0
GRID*              12728               09.6198572999E+017.7965950065E+01+
*       5.2285253859E+02               0
GRID*              12729               09.6370498177E+017.7105133830E+01+
*       5.2233690497E+02               0
GRID*              12730               09.6370448037E+017.7105262111E+01+
*       5.2336809469E+02               0
GRID*              12731               01.0039795972E+028.2668354457E+01+
*       4.9709972575E+02               0
GRID*              12732               01.0039798290E+028.2668344219E+01+
*       4.9603932878E+02               0
GRID*              12733               09.9522891200E+018.2557831933E+01+
*       4.9656920939E+02               0
GRID*              12734               01.0302454841E+027.5130086345E+01+
*       4.1708756092E+02               0
GRID*              12735               09.6196216766E+017.8854793311E+01+
*       5.2439984170E+02               0
GRID*              12736               09.6198568787E+017.7966024979E+01+
*       5.2388405204E+02               0
GRID*              12737               01.0127310382E+028.2557607844E+01+
*       4.9656954247E+02               0
GRID*              12738               01.0127436521E+028.2581064537E+01+
*       4.9760049083E+02               0
GRID*              12739               01.0213790342E+028.2295758818E+01+
*       4.9707157745E+02               0
GRID*              12740               09.6757244821E+017.6304344885E+01+
*       5.2285283371E+02               0
GRID*              12741               09.6757194682E+017.6304473167E+01+
*       5.2388402343E+02               0
GRID*              12742               01.0359457439E+028.1233445804E+01+
*       5.7752580525E+02               0
GRID*              12743               01.0288929900E+028.1883519502E+01+
*       5.7699745646E+02               0
GRID*              12744               01.0286419785E+028.1820561076E+01+
*       5.7803002716E+02               0
GRID*              12745               01.0214258573E+028.2293762534E+01+
*       5.7749834859E+02               0
GRID*              12746               01.0354794175E+027.5573641723E+01+
*       5.3367901282E+02               0
GRID*              12747               01.0285246181E+027.5020345483E+01+
*       5.3213207726E+02               0
GRID*              12748               01.0354807289E+027.5573834801E+01+
*       5.3161688991E+02               0
GRID*              12749               01.0125702155E+027.4336743722E+01+
*       5.3110069174E+02               0
GRID*              12750               01.0459593007E+027.7962289124E+01+
*       5.3935083009E+02               0
GRID*              12751               01.0441971030E+027.9708592567E+01+
*       5.4141958408E+02               0
GRID*              12752               01.0442012074E+027.9708543657E+01+
*       5.4245057123E+02               0
GRID*              12753               01.0458943580E+027.8847855149E+01+
*       5.4192848436E+02               0
GRID*              12754               01.0359387390E+028.1234491145E+01+
*       5.7545747407E+02               0
GRID*              12755               01.0288763346E+028.1885103214E+01+
*       5.7492996262E+02               0
GRID*              12756               01.0214007869E+028.2294839343E+01+
*       5.7543090478E+02               0
GRID*              12757               01.0286103793E+028.1821346902E+01+
*       5.7596109603E+02               0
GRID*              12758               01.0459595113E+027.7962276176E+01+
*       5.4141276817E+02               0
GRID*              12759               01.0458977605E+027.8848102256E+01+
*       5.4089720438E+02               0
GRID*              12760               01.0290172152E+027.5043929146E+01+
*       4.1960717228E+02               0
GRID*              12761               01.0294186179E+027.5084910316E+01+
*       4.1854724268E+02               0
GRID*              12762               09.7216597746E+018.1242461311E+01+
*       5.0223110450E+02               0
GRID*              12763               09.7206279582E+018.1238543573E+01+
*       5.0327962963E+02               0
GRID*              12764               09.7908981097E+018.1887159798E+01+
*       5.0275468347E+02               0
GRID*              12765               09.8657743129E+018.2296340611E+01+
*       5.0119513184E+02               0
GRID*              12766               09.7938068486E+018.1822725360E+01+
*       5.0172193568E+02               0
GRID*              12767               09.8658312319E+018.2296617777E+01+
*       5.0225237789E+02               0
GRID*              12768               01.0409217218E+028.0574299770E+01+
*       5.4193267102E+02               0
GRID*              12769               01.0408648712E+028.0574593987E+01+
*       5.4090002414E+02               0
GRID*              12770               01.0409690107E+028.0577582390E+01+
*       5.3986520272E+02               0
GRID*              12771               01.0441989513E+027.9708879717E+01+
*       5.3935696186E+02               0
GRID*              12772               01.0408914573E+028.0582131294E+01+
*       5.3883780429E+02               0
GRID*              12773               09.8658017235E+018.2296470075E+01+
*       5.0325619365E+02               0
GRID*              12774               09.9523515388E+018.2557868538E+01+
*       5.0275402771E+02               0
GRID*              12775               09.7938253335E+018.1822791690E+01+
*       5.0378451408E+02               0
GRID*              12776               01.0127517737E+028.2580822577E+01+
*       5.0584463461E+02               0
GRID*              12777               01.0213905564E+028.2295246431E+01+
*       5.0531633789E+02               0
GRID*              12778               01.0127397626E+028.2557526606E+01+
*       5.0481446402E+02               0
GRID*              12779               01.0039874873E+028.2668381374E+01+
*       5.0534440086E+02               0
GRID*              12780               09.6369397198E+017.9716687444E+01+
*       5.6101531107E+02               0
GRID*              12781               09.6367329426E+017.9717621620E+01+
*       5.6204676549E+02               0
GRID*              12782               01.0039887305E+028.2668389202E+01+
*       5.0740478866E+02               0
GRID*              12783               01.0127410497E+028.2557526585E+01+
*       5.0687469378E+02               0
GRID*              12784               01.0039887282E+028.2668311533E+01+
*       5.0634560249E+02               0
GRID*              12785               09.9523910127E+018.2557906897E+01+
*       5.0687521441E+02               0
GRID*              12786               09.9522634623E+018.2581834403E+01+
*       5.0584489749E+02               0
GRID*              12787               09.8658643312E+018.2296777775E+01+
*       5.0637383822E+02               0
GRID*              12788               01.0213920538E+028.2294991643E+01+
*       5.7649350257E+02               0
GRID*              12789               09.8658598436E+018.2296677784E+01+
*       5.0531693147E+02               0
GRID*              12790               01.0403650128E+027.6302616669E+01+
*       5.4965879067E+02               0
GRID*              12791               01.0403653484E+027.6302694425E+01+
*       5.5068947345E+02               0
GRID*              12792               01.0354803149E+027.5573792532E+01+
*       5.5017421309E+02               0
GRID*              12793               01.0354794186E+027.5573703144E+01+
*       5.5120487755E+02               0
GRID*              12794               01.0442798971E+027.9713865387E+01+
*       5.1357387492E+02               0
GRID*              12795               01.0442774479E+027.9713841263E+01+
*       5.1460505138E+02               0
GRID*              12796               01.0459720945E+027.8852607667E+01+
*       5.1305649123E+02               0
GRID*              12797               01.0459696965E+027.8852580241E+01+
*       5.1408758858E+02               0
GRID*              12798               01.0459697876E+027.8852275339E+01+
*       5.1614870525E+02               0
GRID*              12799               01.0459697111E+027.8852382289E+01+
*       5.1511803617E+02               0
GRID*              12800               01.0442775249E+027.9713823210E+01+
*       5.1563578618E+02               0
GRID*              12801               01.0408650285E+028.0588255853E+01+
*       5.1614846504E+02               0
GRID*              12802               01.0442727706E+027.9713709397E+01+
*       5.1666722165E+02               0
GRID*              12803               01.0442333705E+027.7102902191E+01+
*       5.4811308748E+02               0
GRID*              12804               01.0442342191E+027.7103286412E+01+
*       5.4914396752E+02               0
GRID*              12805               01.0403643010E+027.6302527826E+01+
*       5.4862784996E+02               0
GRID*              12806               01.0213749669E+028.2295919790E+01+
*       4.9194255275E+02               0
GRID*              12807               01.0127379908E+028.2581253079E+01+
*       4.9141315750E+02               0
GRID*              12808               01.0039759187E+028.2668343546E+01+
*       4.9191419827E+02               0
GRID*              12809               01.0127272034E+028.2557618379E+01+
*       4.9244470497E+02               0
GRID*              12810               01.0213794953E+028.2295741635E+01+
*       4.9088414639E+02               0
GRID*              12811               01.0285744609E+028.1822123358E+01+
*       4.9141182340E+02               0
GRID*              12812               01.0213806062E+028.2295692360E+01+
*       4.9294678768E+02               0
GRID*              12813               01.0285777065E+028.1821824817E+01+
*       4.9347611466E+02               0
GRID*              12814               01.0213807118E+028.2295690469E+01+
*       4.9400510410E+02               0
GRID*              12815               01.0127400623E+028.2581192614E+01+
*       4.9347583896E+02               0
GRID*              12816               01.0459044191E+027.8847786053E+01+
*       5.6048447656E+02               0
GRID*              12817               01.0442120963E+027.9709102487E+01+
*       5.5998240034E+02               0
GRID*              12818               01.0358903492E+028.1237443079E+01+
*       4.9297065685E+02               0
GRID*              12819               01.0288678517E+028.1885983122E+01+
*       4.9244509097E+02               0
GRID*              12820               01.0288938536E+028.1883902663E+01+
*       5.5017628758E+02               0
GRID*              12821               01.0359547761E+028.1232436706E+01+
*       5.4964971973E+02               0
GRID*              12822               01.0286112733E+028.1819603804E+01+
*       5.4914734986E+02               0
GRID*              12823               01.0214134279E+028.2294170360E+01+
*       5.4967484003E+02               0
GRID*              12824               01.0423717755E+027.6607027182E+01+
*       5.9508592143E+02               0
GRID*              12825               01.0419077762E+027.6507475085E+01+
*       5.9436561354E+02               0
GRID*              12826               01.0357853134E+028.1241436077E+01+
*       4.9192097577E+02               0
GRID*              12827               09.8670016726E+017.4534564472E+01+
*       5.3780295641E+02               0
GRID*              12828               09.9537085949E+017.4336810322E+01+
*       5.3728719232E+02               0
GRID*              12829               09.9536942398E+017.4336869713E+01+
*       5.3831800455E+02               0
GRID*              12830               09.8669873175E+017.4534623864E+01+
*       5.3883376865E+02               0
GRID*              12831               09.6198363933E+017.7962006534E+01+
*       4.6717946554E+02               0
GRID*              12832               09.7940186816E+017.5021566504E+01+
*       5.4244262286E+02               0
GRID*              12833               09.7244651490E+017.5575584200E+01+
*       5.3780380792E+02               0
GRID*              12834               09.7940284353E+017.5021474494E+01+
*       5.3831903565E+02               0
GRID*              12835               09.7244550057E+017.5575711170E+01+
*       5.3883486623E+02               0
GRID*              12836               09.9536942398E+017.4336869713E+01+
*       5.3934893239E+02               0
GRID*              12837               09.6371184054E+017.7101660054E+01+
*       4.6563264426E+02               0
GRID*              12838               09.6371098568E+017.7102045963E+01+
*       4.6666389865E+02               0
GRID*              12839               09.6198447670E+017.7961920432E+01+
*       4.6511678055E+02               0
GRID*              12840               09.6198362184E+017.7962306341E+01+
*       4.6614803493E+02               0
GRID*              12841               09.6195991591E+017.8850749733E+01+
*       4.6666288086E+02               0
GRID*              12842               09.6195989841E+017.8851049541E+01+
*       4.6563145025E+02               0
GRID*              12843               09.8670057134E+017.4534532606E+01+
*       5.4605011694E+02               0
GRID*              12844               09.7940365514E+017.5021498217E+01+
*       5.4553510383E+02               0
GRID*              12845               09.8669937344E+017.4534582186E+01+
*       5.4501925747E+02               0
GRID*              12846               09.9537085949E+017.4336810322E+01+
*       5.3625626448E+02               0
GRID*              12847               09.8670235768E+017.4534459454E+01+
*       5.3677196686E+02               0
GRID*              12848               09.9536941704E+017.4336870018E+01+
*       5.3522522224E+02               0
GRID*              12849               09.8670091523E+017.4534519150E+01+
*       5.3574092462E+02               0
GRID*              12850               09.6758809789E+017.6301201270E+01+
*       4.6614921238E+02               0
GRID*              12851               09.7940386355E+017.5021372654E+01+
*       5.3934997898E+02               0
GRID*              12852               01.0039713287E+027.4165916443E+01+
*       5.2955434457E+02               0
GRID*              12853               01.0039713287E+027.4165916443E+01+
*       5.3058527241E+02               0
GRID*              12854               09.9536943766E+017.4336869191E+01+
*       5.3007040771E+02               0
GRID*              12855               09.8670079845E+017.4534525051E+01+
*       5.3470996900E+02               0
GRID*              12856               09.9536941704E+017.4336870018E+01+
*       5.3419429441E+02               0
GRID*              12857               01.0409208960E+028.0584206890E+01+
*       4.8831663370E+02               0
GRID*              12858               01.0408434190E+028.0586895290E+01+
*       4.8728997791E+02               0
GRID*              12859               01.0358018976E+028.1241237381E+01+
*       4.8884373479E+02               0
GRID*              12860               01.0359087256E+028.1237303541E+01+
*       4.8779310067E+02               0
GRID*              12861               09.9537055356E+017.4336823002E+01+
*       5.3213243500E+02               0
GRID*              12862               09.8670389490E+017.4534384038E+01+
*       5.3264809335E+02               0
GRID*              12863               09.9536943766E+017.4336869191E+01+
*       5.3110133554E+02               0
GRID*              12864               09.8670277899E+017.4534430227E+01+
*       5.3161699388E+02               0
GRID*              12865               09.7245817936E+017.5574210258E+01+
*       4.3470708540E+02               0
GRID*              12866               09.7941081784E+017.5020898358E+01+
*       4.3522284865E+02               0
GRID*              12867               01.0039713287E+027.4165916443E+01+
*       5.3161620024E+02               0
GRID*              12868               01.0039713287E+027.4165916443E+01+
*       5.3264712808E+02               0
GRID*              12869               01.0129211523E+027.4351604954E+01+
*       5.9291801169E+02               0
GRID*              12870               01.0129211523E+027.4351604954E+01+
*       5.9188708386E+02               0
GRID*              12871               01.0222859219E+027.4569228403E+01+
*       5.9241219266E+02               0
GRID*              12872               09.7243031251E+017.5577174862E+01+
*       5.7801296052E+02               0
GRID*              12873               09.7243872117E+017.5576333892E+01+
*       5.7698177718E+02               0
GRID*              12874               09.6757277366E+017.6303948716E+01+
*       4.3419107782E+02               0
GRID*              12875               09.6757406956E+017.6303786848E+01+
*       4.3315967174E+02               0
GRID*              12876               09.7245947527E+017.5574048390E+01+
*       4.3367567932E+02               0
GRID*              12877               09.7940309227E+017.5021512541E+01+
*       5.7543279140E+02               0
GRID*              12878               09.7244834444E+017.5575322738E+01+
*       5.7491885612E+02               0
GRID*              12879               09.7940203244E+017.5021563616E+01+
*       5.7440161024E+02               0
GRID*              12880               09.6756195118E+017.6305884746E+01+
*       5.7543455752E+02               0
GRID*              12881               01.0448269705E+027.7300372481E+01+
*       5.9341586044E+02               0
GRID*              12882               01.0413484472E+027.6392175813E+01+
*       5.9369867921E+02               0
GRID*              12883               01.0412992033E+027.6277634650E+01+
*       5.9276399211E+02               0
GRID*              12884               01.0444775180E+027.7208417693E+01+
*       5.9249207924E+02               0
GRID*              12885               01.0213901213E+028.2295257336E+01+
*       5.6923709461E+02               0
GRID*              12886               01.0288815897E+028.1885016658E+01+
*       5.6873511409E+02               0
GRID*              12887               01.0213990606E+028.2294763095E+01+
*       5.6823304891E+02               0
GRID*              12888               01.0358121253E+028.1238355136E+01+
*       5.6719568395E+02               0
GRID*              12889               01.0288856460E+028.1884910069E+01+
*       5.6667225492E+02               0
GRID*              12890               01.0286012098E+028.1820446954E+01+
*       5.6770507536E+02               0
GRID*              12891               01.0213937869E+028.2295074838E+01+
*       5.6717442134E+02               0
GRID*              12892               09.7938884771E+018.1822933667E+01+
*       5.7182651879E+02               0
GRID*              12893               09.7201729911E+018.1236498671E+01+
*       5.7132380391E+02               0
GRID*              12894               09.7215781977E+018.1241861534E+01+
*       5.7233571989E+02               0
GRID*              12895               09.7939439125E+018.1823572489E+01+
*       5.6770303132E+02               0
GRID*              12896               09.7213546961E+018.1241630703E+01+
*       5.6719643968E+02               0
GRID*              12897               09.7213649824E+018.1241656712E+01+
*       5.6820992364E+02               0
GRID*              12898               01.0355401978E+027.5583489684E+01+
*       4.2437428220E+02               0
GRID*              12899               01.0285276012E+027.5016490330E+01+
*       4.2489443941E+02               0
GRID*              12900               01.0285837071E+027.5019228047E+01+
*       4.2385884528E+02               0
GRID*              12901               09.6709867161E+018.0583461171E+01+
*       5.6976134778E+02               0
GRID*              12902               09.6367725713E+017.9716235719E+01+
*       5.7030061473E+02               0
GRID*              12903               09.6366842789E+017.9716475437E+01+
*       5.7133247666E+02               0
GRID*              12904               09.6700171265E+018.0580154581E+01+
*       5.7079878188E+02               0
GRID*              12905               09.7939016800E+018.1823153944E+01+
*       5.6976371151E+02               0
GRID*              12906               09.7201855361E+018.1236697577E+01+
*       5.6926088742E+02               0
GRID*              12907               01.0355853559E+027.5587962861E+01+
*       4.2541612109E+02               0
GRID*              12908               01.0355359963E+027.5581673936E+01+
*       4.2645079135E+02               0
GRID*              12909               01.0285727593E+027.5020963506E+01+
*       4.2593627830E+02               0
GRID*              12910               01.0125712582E+027.4336786803E+01+
*       5.2697693118E+02               0
GRID*              12911               01.0125712582E+027.4336786803E+01+
*       5.2594600335E+02               0
GRID*              12912               01.0212364627E+027.4534276269E+01+
*       5.2646159897E+02               0
GRID*              12913               01.0212741994E+027.4536384999E+01+
*       4.2542288901E+02               0
GRID*              12914               01.0212981332E+027.4537371028E+01+
*       4.2645561468E+02               0
GRID*              12915               01.0125297671E+027.4335075214E+01+
*       4.2594137602E+02               0
GRID*              12916               01.0125537009E+027.4336061243E+01+
*       4.2697410169E+02               0
GRID*              12917               09.6781924820E+017.6184597779E+01+
*       6.1511278379E+02               0
GRID*              12918               01.0459754571E+027.8856500588E+01+
*       4.3883179505E+02               0
GRID*              12919               01.0459743152E+027.8857008940E+01+
*       4.3780016656E+02               0
GRID*              12920               01.0354804725E+027.5573803301E+01+
*       5.2852379104E+02               0
GRID*              12921               01.0285251123E+027.5020409227E+01+
*       5.2800812976E+02               0
GRID*              12922               01.0354812109E+027.5573876960E+01+
*       5.2749280510E+02               0
GRID*              12923               01.0442684708E+027.9718042185E+01+
*       4.3831612671E+02               0
GRID*              12924               01.0442673292E+027.9718550399E+01+
*       4.3728449498E+02               0
GRID*              12925               01.0408305834E+028.0589619618E+01+
*       4.3780206791E+02               0
GRID*              12926               01.0357671123E+028.1243183417E+01+
*       4.3729261107E+02               0
GRID*              12927               01.0409098321E+028.0586753015E+01+
*       4.3676646658E+02               0
GRID*              12928               01.0358943548E+028.1239159577E+01+
*       4.3624204073E+02               0
GRID*              12929               01.0408282735E+028.0589986887E+01+
*       4.3573952274E+02               0
GRID*              12930               01.0442672389E+027.9718572195E+01+
*       4.3625354705E+02               0
GRID*              12931               01.0442665524E+027.9718888212E+01+
*       4.3522198776E+02               0
GRID*              12932               01.0285272934E+027.5020449676E+01+
*       5.2491487962E+02               0
GRID*              12933               01.0285262378E+027.5020398816E+01+
*       5.2594599088E+02               0
GRID*              12934               01.0212375182E+027.4534327129E+01+
*       5.2543048771E+02               0
GRID*              12935               01.0354832529E+027.5574168104E+01+
*       5.2130588133E+02               0
GRID*              12936               01.0354837356E+027.5574228052E+01+
*       5.2233721290E+02               0
GRID*              12937               01.0285271171E+027.5020435899E+01+
*       5.2182181070E+02               0
GRID*              12938               01.0295547705E+028.1820282337E+01+
*       5.8729225969E+02               0
GRID*              12939               01.0219889576E+028.2267216555E+01+
*       5.8680570633E+02               0
GRID*              12940               01.0224400674E+028.2246684797E+01+
*       5.8779010497E+02               0
GRID*              12941               01.0403681585E+027.6303005740E+01+
*       5.2182124760E+02               0
GRID*              12942               01.0403686412E+027.6303065689E+01+
*       5.2285257916E+02               0
GRID*              12943               01.0359181859E+027.5614440100E+01+
*       6.0377430244E+02               0
GRID*              12944               01.0290985609E+027.5089227275E+01+
*       6.0432098828E+02               0
GRID*              12945               01.0289868868E+027.5084021862E+01+
*       6.0329284008E+02               0
GRID*              12946               01.0354824862E+027.5574091639E+01+
*       5.2027491026E+02               0
GRID*              12947               01.0403683227E+027.6303141217E+01+
*       5.2079032067E+02               0
GRID*              12948               01.0289746920E+027.5088530366E+01+
*       6.0123296933E+02               0
GRID*              12949               01.0358005567E+027.5600039568E+01+
*       6.0168459244E+02               0
GRID*              12950               01.0290657733E+027.5092714238E+01+
*       6.0224940142E+02               0
GRID*              12951               01.0359970724E+027.5623132475E+01+
*       6.0273086378E+02               0
GRID*              12952               09.8471794168E+017.4624683123E+01+
*       6.1308861186E+02               0
GRID*              12953               01.0285262019E+027.5020390997E+01+
*       5.1769765044E+02               0
GRID*              12954               01.0285254561E+027.5020316615E+01+
*       5.1872853712E+02               0
GRID*              12955               01.0212352371E+027.4534226467E+01+
*       5.1821327669E+02               0
GRID*              12956               01.0131294307E+027.4360758946E+01+
*       6.0122123104E+02               0
GRID*              12957               01.0214342082E+027.4541358843E+01+
*       6.0069629285E+02               0
GRID*              12958               01.0215252896E+027.4545542714E+01+
*       6.0171272495E+02               0
GRID*              12959               01.0446762883E+027.9644369274E+01+
*       5.8779024210E+02               0
GRID*              12960               01.0447677159E+027.9648128327E+01+
*       5.8679866461E+02               0
GRID*              12961               01.0225579740E+027.4598947787E+01+
*       5.9344411213E+02               0
GRID*              12962               01.0459651882E+027.7967741404E+01+
*       4.5583717564E+02               0
GRID*              12963               01.0459724057E+027.8858085519E+01+
*       4.5635165807E+02               0
GRID*              12964               01.0459651245E+027.7967766797E+01+
*       4.5686841086E+02               0
GRID*              12965               01.0459723421E+027.8858110912E+01+
*       4.5738289328E+02               0
GRID*              12966               09.6986614805E+017.5830000636E+01+
*       6.1516433972E+02               0
GRID*              12967               09.8372352697E+017.4679282389E+01+
*       6.1552909850E+02               0
GRID*              12968               09.7680805293E+017.5158097203E+01+
*       6.1453956444E+02               0
GRID*              12969               01.0459722733E+027.8857864860E+01+
*       4.5841402899E+02               0
GRID*              12970               01.0459716374E+027.8858130596E+01+
*       4.5944440638E+02               0
GRID*              12971               01.0459654048E+027.7967687466E+01+
*       4.5892987464E+02               0
GRID*              12972               01.0442630370E+027.9719880726E+01+
*       4.5686693353E+02               0
GRID*              12973               01.0442632644E+027.9719825912E+01+
*       4.5789817390E+02               0
GRID*              12974               01.0442626277E+027.9720092042E+01+
*       4.5892855829E+02               0
GRID*              12975               09.9108183466E+018.2436516882E+01+
*       5.9764757279E+02               0
GRID*              12976               09.9948507487E+018.2620018635E+01+
*       5.9815176998E+02               0
GRID*              12977               09.9941820094E+018.2618637897E+01+
*       5.9718901523E+02               0
GRID*              12978               09.9101496074E+018.2435136145E+01+
*       5.9668481804E+02               0
GRID*              12979               01.0082914730E+028.2624520581E+01+
*       5.9769685943E+02               0
GRID*              12980               01.0081863438E+028.2626947007E+01+
*       5.9481961691E+02               0
GRID*              12981               09.7942269547E+017.5019978773E+01+
*       4.6821273833E+02               0
GRID*              12982               09.8671426310E+017.4533900647E+01+
*       4.6666646548E+02               0
GRID*              12983               09.8671202948E+017.4534008153E+01+
*       4.6769749900E+02               0
GRID*              12984               09.7942367386E+017.5019881219E+01+
*       4.6924401139E+02               0
GRID*              12985               09.7247231674E+017.5572636763E+01+
*       4.6975884396E+02               0
GRID*              12986               09.7247133836E+017.5572734317E+01+
*       4.6872757090E+02               0
GRID*              12987               01.0406624539E+027.6372238781E+01+
*       6.0958328299E+02               0
GRID*              12988               01.0405217938E+027.6336113864E+01+
*       6.1067271351E+02               0
GRID*              12989               09.6758674161E+017.6301309475E+01+
*       4.6924300684E+02               0
GRID*              12990               01.0360770317E+027.5633635679E+01+
*       6.0480919795E+02               0
GRID*              12991               09.6758767266E+017.6301193236E+01+
*       4.6821182204E+02               0
GRID*              12992               09.6758714957E+017.6301319623E+01+
*       4.6718037467E+02               0
GRID*              12993               01.0288482837E+027.5057037278E+01+
*       6.0745149832E+02               0
GRID*              12994               01.0358463271E+027.5610678163E+01+
*       6.0795086730E+02               0
GRID*              12995               01.0364195239E+028.1165119981E+01+
*       5.8880314771E+02               0
GRID*              12996               01.0411382554E+028.0518621517E+01+
*       5.8831205002E+02               0
GRID*              12997               01.0361182695E+028.1197824288E+01+
*       5.8782116469E+02               0
GRID*              12998               01.0361886422E+028.1189732340E+01+
*       5.8677770241E+02               0
GRID*              12999               01.0360771223E+028.1206800922E+01+
*       5.8473420271E+02               0
GRID*              13000               01.0293113484E+028.1844564137E+01+
*       5.8525466667E+02               0
GRID*              13001               01.0361604224E+028.1204435060E+01+
*       5.8578172969E+02               0
GRID*              13002               01.0288776967E+028.1885013977E+01+
*       5.1717917632E+02               0
GRID*              13003               01.0358195689E+028.1239571344E+01+
*       5.1770432380E+02               0
GRID*              13004               01.0359036217E+028.1235833539E+01+
*       5.1665435700E+02               0
GRID*              13005               09.6252574710E+017.7475195149E+01+
*       6.1545165961E+02               0
GRID*              13006               09.6562857241E+017.6745183514E+01+
*       6.1441086661E+02               0
GRID*              13007               01.0213916316E+028.2295247158E+01+
*       5.1667827748E+02               0
GRID*              13008               01.0213882677E+028.2295289766E+01+
*       5.1768197073E+02               0
GRID*              13009               01.0411846149E+028.0529110898E+01+
*       5.8524830262E+02               0
GRID*              13010               01.0410873159E+028.0537953938E+01+
*       5.8627240880E+02               0
GRID*              13011               01.0459002509E+027.8847538975E+01+
*       5.5739143716E+02               0
GRID*              13012               01.0458966730E+027.8847468589E+01+
*       5.5636026701E+02               0
GRID*              13013               01.0220487581E+028.2265466782E+01+
*       5.8575569907E+02               0
GRID*              13014               01.0293572028E+028.1793028917E+01+
*       5.8629051374E+02               0
GRID*              13015               09.8459696905E+017.4627526166E+01+
*       6.1404964167E+02               0
GRID*              13016               01.0447159746E+027.9650639209E+01+
*       5.8883476974E+02               0
GRID*              13017               01.0464544149E+027.8888242040E+01+
*       5.8931402183E+02               0
GRID*              13018               01.0442061978E+027.7102557008E+01+
*       5.8727873881E+02               0
GRID*              13019               01.0405830934E+028.0461089046E+01+
*       5.8729695467E+02               0
GRID*              13020               09.7940872935E+017.5021208833E+01+
*       5.1976007414E+02               0
GRID*              13021               09.7940881165E+017.5021204876E+01+
*       5.1872893722E+02               0
GRID*              13022               09.8670304050E+017.4534405221E+01+
*       5.1821343689E+02               0
GRID*              13023               09.8670295819E+017.4534409177E+01+
*       5.1924457381E+02               0
GRID*              13024               01.0359555185E+028.1221313923E+01+
*       5.8267560731E+02               0
GRID*              13025               01.0291228431E+028.1862401951E+01+
*       5.8319927016E+02               0
GRID*              13026               01.0360673423E+028.1216978103E+01+
*       5.8372901495E+02               0
GRID*              13027               01.0290785105E+028.1803689350E+01+
*       5.8423389762E+02               0
GRID*              13028               01.0218014817E+028.2276908378E+01+
*       5.8369786023E+02               0
GRID*              13029               09.9036182988E+018.2402881048E+01+
*       6.0068178340E+02               0
GRID*              13030               09.9058711378E+018.2414127933E+01+
*       5.9961738197E+02               0
GRID*              13031               09.8226787347E+018.2055544092E+01+
*       5.9907072653E+02               0
GRID*              13032               09.8204258957E+018.2044297207E+01+
*       6.0013512795E+02               0
GRID*              13033               01.0217755851E+028.2277256334E+01+
*       5.8475720566E+02               0
GRID*              13034               09.6198245437E+017.7966509044E+01+
*       5.0533026341E+02               0
GRID*              13035               09.6370212207E+017.7105623898E+01+
*       5.0584522842E+02               0
GRID*              13036               09.6198248492E+017.7966729367E+01+
*       5.0636081434E+02               0
GRID*              13037               09.6196425251E+017.8855656839E+01+
*       5.0893652766E+02               0
GRID*              13038               09.6196482230E+017.8855895734E+01+
*       5.0790647386E+02               0
GRID*              13039               09.6198328117E+017.7966501400E+01+
*       5.0842174662E+02               0
GRID*              13040               09.6198325013E+017.7966452160E+01+
*       5.0739110248E+02               0
GRID*              13041               09.6196479126E+017.8855846494E+01+
*       5.0687582972E+02               0
GRID*              13042               09.6366864943E+017.9716559009E+01+
*       5.0739288914E+02               0
GRID*              13043               01.0410029862E+028.0553296437E+01+
*       5.8422473879E+02               0
GRID*              13044               09.7940364710E+017.5021437405E+01+
*       5.6821556893E+02               0
GRID*              13045               09.6710079835E+018.0587145916E+01+
*       5.0172147089E+02               0
GRID*              13046               09.6702034162E+018.0584321078E+01+
*       5.0069564884E+02               0
GRID*              13047               09.6366760016E+017.9716204857E+01+
*       5.0120934165E+02               0
GRID*              13048               09.7216852954E+018.1242421016E+01+
*       5.0016925842E+02               0
GRID*              13049               09.6710120797E+018.0587284039E+01+
*       4.9965972744E+02               0
GRID*              13050               09.8658108345E+018.2296536927E+01+
*       5.0019119655E+02               0
GRID*              13051               09.7938012142E+018.1822762877E+01+
*       4.9966023135E+02               0
GRID*              13052               09.7908832086E+018.1886870102E+01+
*       5.0069341518E+02               0
GRID*              13053               09.6201686538E+017.7967450891E+01+
*       5.6718668372E+02               0
GRID*              13054               09.6373308606E+017.7107504992E+01+
*       5.6667129906E+02               0
GRID*              13055               09.6373308442E+017.7107503088E+01+
*       5.6770213466E+02               0
GRID*              13056               09.6198482427E+017.7966966204E+01+
*       5.6409382530E+02               0
GRID*              13057               09.6198822228E+017.7966868951E+01+
*       5.6512480484E+02               0
GRID*              13058               09.6370098075E+017.7106787063E+01+
*       5.6460934983E+02               0
GRID*              13059               09.6756006363E+017.6305977666E+01+
*       5.6409294013E+02               0
GRID*              13060               09.6370007859E+017.7107007052E+01+
*       5.6357835709E+02               0
GRID*              13061               01.0459849691E+027.8854098166E+01+
*       4.9244436903E+02               0
GRID*              13062               01.0459615874E+027.7964397724E+01+
*       4.9192864184E+02               0
GRID*              13063               01.0459615111E+027.7964490268E+01+
*       4.9089744099E+02               0
GRID*              13064               01.0459848928E+027.8854190709E+01+
*       4.9141316819E+02               0
GRID*              13065               01.0459622361E+027.7964786142E+01+
*       4.8986603093E+02               0
GRID*              13066               01.0459841409E+027.8853996703E+01+
*       4.9038188759E+02               0
GRID*              13067               01.0442853028E+027.9715468884E+01+
*       4.9192982952E+02               0
GRID*              13068               09.6370437876E+017.7106689810E+01+
*       5.6564032938E+02               0
GRID*              13069               09.6367099058E+017.9717118930E+01+
*       5.6617325212E+02               0
GRID*              13070               09.6709362987E+018.0584143837E+01+
*       5.6564132493E+02               0
GRID*              13071               09.6755965576E+017.6306013452E+01+
*       5.6203108615E+02               0
GRID*              13072               09.6370014936E+017.7106990384E+01+
*       5.6151647854E+02               0
GRID*              13073               09.8189494909E+018.2033895514E+01+
*       6.0225771839E+02               0
GRID*              13074               09.8212778666E+018.2045513382E+01+
*       6.0334709029E+02               0
GRID*              13075               09.9067750644E+018.2416196784E+01+
*       6.0280331218E+02               0
GRID*              13076               09.9044466887E+018.2404578916E+01+
*       6.0171394028E+02               0
GRID*              13077               01.0213770356E+028.2295860087E+01+
*       4.8781730413E+02               0
GRID*              13078               01.0127328527E+028.2581400541E+01+
*       4.8728784376E+02               0
GRID*              13079               01.0127233910E+028.2557638052E+01+
*       4.8831929295E+02               0
GRID*              13080               01.0039711209E+028.2668339842E+01+
*       4.8778878316E+02               0
GRID*              13081               01.0213740380E+028.2295953590E+01+
*       4.8882149001E+02               0
GRID*              13082               09.6196804970E+017.8856296077E+01+
*       5.6357918939E+02               0
GRID*              13083               09.6196848170E+017.8856384367E+01+
*       5.6254820831E+02               0
GRID*              13084               09.6198634988E+017.7967279212E+01+
*       5.6306285058E+02               0
GRID*              13085               09.7940270166E+017.5021593440E+01+
*       5.4450431201E+02               0
GRID*              13086               09.8670080975E+017.4534522743E+01+
*       5.4398848561E+02               0
GRID*              13087               09.7940056346E+017.5021696800E+01+
*       5.4347330893E+02               0
GRID*              13088               09.6367203990E+017.9717422243E+01+
*       5.6410996484E+02               0
GRID*              13089               09.6367258224E+017.9717454108E+01+
*       5.6307840323E+02               0
GRID*              13090               09.7244416701E+017.5575822462E+01+
*       5.4398928956E+02               0
GRID*              13091               09.6198744369E+017.8855556639E+01+
*       5.6151728647E+02               0
GRID*              13092               09.6370023316E+017.7106972244E+01+
*       5.6254744049E+02               0
GRID*              13093               09.6198626609E+017.7967297353E+01+
*       5.6203188862E+02               0
GRID*              13094               01.0212360240E+027.4534265309E+01+
*       5.2439949730E+02               0
GRID*              13095               01.0039713287E+027.4165916443E+01+
*       5.2543063323E+02               0
GRID*              13096               01.0125697639E+027.4336724983E+01+
*       5.2491501293E+02               0
GRID*              13097               01.0039713287E+027.4165916443E+01+
*       5.2130692189E+02               0
GRID*              13098               01.0125694060E+027.4336710123E+01+
*       5.2079126559E+02               0
GRID*              13099               01.0125706186E+027.4336760298E+01+
*       5.2182222751E+02               0
GRID*              13100               01.0358247656E+028.1238762212E+01+
*       5.7132296742E+02               0
GRID*              13101               01.0288771750E+028.1885128231E+01+
*       5.7079843114E+02               0
GRID*              13102               01.0285936541E+028.1821335474E+01+
*       5.7183022392E+02               0
GRID*              13103               01.0213864899E+028.2295416364E+01+
*       5.7130047738E+02               0
GRID*              13104               01.0408962696E+028.0588057200E+01+
*       5.3677300556E+02               0
GRID*              13105               01.0442110328E+027.9709467168E+01+
*       5.3626290672E+02               0
GRID*              13106               01.0409680413E+028.0579453136E+01+
*       5.3574567340E+02               0
GRID*              13107               01.0285980884E+028.1820186879E+01+
*       5.3471220341E+02               0
GRID*              13108               01.0214044806E+028.2294574299E+01+
*       5.3524147477E+02               0
GRID*              13109               01.0288899674E+028.1884502676E+01+
*       5.3574389143E+02               0
GRID*              13110               01.0358303668E+028.1238286552E+01+
*       5.3521885907E+02               0
GRID*              13111               01.0285985739E+028.1820730628E+01+
*       5.6976803132E+02               0
GRID*              13112               01.0359474933E+028.1233559002E+01+
*       5.7027084497E+02               0
GRID*              13113               01.0358074166E+028.1238663347E+01+
*       5.6925887284E+02               0
GRID*              13114               09.6710000999E+018.0582250513E+01+
*       5.4502073844E+02               0
GRID*              13115               09.6701437661E+018.0584152254E+01+
*       5.4605531556E+02               0
GRID*              13116               09.7215605574E+018.1243367408E+01+
*       5.4552865671E+02               0
GRID*              13117               01.0127576525E+028.2556848895E+01+
*       5.3574376187E+02               0
GRID*              13118               01.0040090808E+028.2668347075E+01+
*       5.3627400433E+02               0
GRID*              13119               01.0214081302E+028.2294455135E+01+
*       5.3624555775E+02               0
GRID*              13120               01.0127690267E+028.2580721958E+01+
*       5.3677455605E+02               0
GRID*              13121               09.9525494874E+018.2582409202E+01+
*       5.4708452069E+02               0
GRID*              13122               09.8660983021E+018.2297859048E+01+
*       5.4655503635E+02               0
GRID*              13123               09.8661136982E+018.2297865552E+01+
*       5.4761330531E+02               0
GRID*              13124               09.8660728522E+018.2297741138E+01+
*       5.4348972146E+02               0
GRID*              13125               09.8661388438E+018.2297994873E+01+
*       5.4449324848E+02               0
GRID*              13126               09.9526365242E+018.2558650041E+01+
*       5.4399134982E+02               0
GRID*              13127               09.8844178738E+018.2387549717E+01+
*       5.8985040303E+02               0
GRID*              13128               09.9771395281E+018.2644499406E+01+
*       5.9036039028E+02               0
GRID*              13129               01.0057432627E+028.2664627799E+01+
*       5.8984994233E+02               0
GRID*              13130               09.9740579550E+018.2552629736E+01+
*       5.8932778027E+02               0
GRID*              13131               09.8986669058E+018.2407141661E+01+
*       5.9191051804E+02               0
GRID*              13132               09.8907308641E+018.2384838991E+01+
*       5.9090804717E+02               0
GRID*              13133               09.8174248671E+018.2004916078E+01+
*       5.9139814595E+02               0
GRID*              13134               01.0040165765E+028.2668322111E+01+
*       5.4658370761E+02               0
GRID*              13135               01.0040175965E+028.2668373604E+01+
*       5.4758483880E+02               0
GRID*              13136               01.0214105101E+028.2294292014E+01+
*       5.4555149705E+02               0
GRID*              13137               01.0127673642E+028.2556867279E+01+
*       5.4605351720E+02               0
GRID*              13138               01.0214143929E+028.2294197566E+01+
*       5.4655505181E+02               0
GRID*              13139               01.0127683040E+028.2557018180E+01+
*       5.5017691565E+02               0
GRID*              13140               01.0127772483E+028.2580310612E+01+
*       5.4914604985E+02               0
GRID*              13141               01.0214129263E+028.2294189031E+01+
*       5.4761314797E+02               0
GRID*              13142               01.0127783070E+028.2580342693E+01+
*       5.4708432823E+02               0
GRID*              13143               01.0127662033E+028.2556975160E+01+
*       5.4811510154E+02               0
GRID*              13144               01.0245519121E+028.2120447552E+01+
*       5.9584637737E+02               0
GRID*              13145               01.0164187974E+028.2447543149E+01+
*       5.9529715329E+02               0
GRID*              13146               01.0167992222E+028.2433497465E+01+
*       5.9719975988E+02               0
GRID*              13147               01.0249519186E+028.2099284461E+01+
*       5.9678415322E+02               0
GRID*              13148               01.0165595766E+028.2441075166E+01+
*       5.9622810875E+02               0
GRID*              13149               09.6366396520E+017.9716617592E+01+
*       5.3213895237E+02               0
GRID*              13150               09.6709714779E+018.0581638281E+01+
*       5.3264980594E+02               0
GRID*              13151               09.6702030272E+018.0582864856E+01+
*       5.3161555581E+02               0
GRID*              13152               09.6366435078E+017.9716724977E+01+
*       5.3110730997E+02               0
GRID*              13153               01.0408824568E+028.0583309506E+01+
*       5.3058822636E+02               0
GRID*              13154               01.0409649613E+028.0579832372E+01+
*       5.2955255149E+02               0
GRID*              13155               01.0358001941E+028.1239137881E+01+
*       5.3007968843E+02               0
GRID*              13156               09.7205853876E+018.1238313005E+01+
*       5.3109342777E+02               0
GRID*              13157               09.7910341938E+018.1888047941E+01+
*       5.3161879709E+02               0
GRID*              13158               09.6196195202E+017.8854819223E+01+
*       5.1821218221E+02               0
GRID*              13159               09.6196197994E+017.8854793623E+01+
*       5.1924282935E+02               0
GRID*              13160               09.6366673901E+017.9715597068E+01+
*       5.1872988649E+02               0
GRID*              13161               01.0285299203E+027.5020581637E+01+
*       5.7234025871E+02               0
GRID*              13162               01.0285312140E+027.5020643614E+01+
*       5.7337215985E+02               0
GRID*              13163               01.0212405848E+027.4534473715E+01+
*       5.7388774708E+02               0
GRID*              13164               01.0212392911E+027.4534411738E+01+
*       5.7285584594E+02               0
GRID*              13165               09.6701768808E+018.0582609589E+01+
*       5.1924505895E+02               0
GRID*              13166               09.7205036541E+018.1237653708E+01+
*       5.1976865247E+02               0
GRID*              13167               09.7216043549E+018.1242029924E+01+
*       5.1871871816E+02               0
GRID*              13168               09.6366657354E+017.9715557755E+01+
*       5.1976073338E+02               0
GRID*              13169               01.0139968520E+027.4263693228E+01+
*       6.1507100982E+02               0
GRID*              13170               01.0171844935E+027.4433744446E+01+
*       6.1415793672E+02               0
GRID*              13171               01.0267217470E+027.4839135794E+01+
*       6.1518252291E+02               0
GRID*              13172               09.6196224317E+017.8854794507E+01+
*       5.2233647248E+02               0
GRID*              13173               09.6196221897E+017.8854910267E+01+
*       5.2130543238E+02               0
GRID*              13174               09.6198570578E+017.7966065825E+01+
*       5.2182149849E+02               0
GRID*              13175               09.6370528629E+017.7105062452E+01+
*       5.2543089781E+02               0
GRID*              13176               09.6370443825E+017.7105337025E+01+
*       5.2439960815E+02               0
GRID*              13177               09.6196213685E+017.8854763215E+01+
*       5.2336817963E+02               0
GRID*              13178               09.6366641846E+017.9715580497E+01+
*       5.2285550365E+02               0
GRID*              13179               09.7441253264E+018.1364568059E+01+
*       5.9950861574E+02               0
GRID*              13180               09.6196200617E+017.8854800593E+01+
*       5.2027366321E+02               0
GRID*              13181               01.0377163928E+027.5833959173E+01+
*       6.1518788191E+02               0
GRID*              13182               01.0340651488E+027.5335381193E+01+
*       6.1420861181E+02               0
GRID*              13183               09.6757254044E+017.6304333175E+01+
*       5.2182141370E+02               0
GRID*              13184               09.6707312372E+018.0590261767E+01+
*       5.0790378825E+02               0
GRID*              13185               09.6699496067E+018.0587314071E+01+
*       5.0687885175E+02               0
GRID*              13186               01.0406182349E+027.6307752410E+01+
*       6.1407374886E+02               0
GRID*              13187               09.7909357746E+018.1887459979E+01+
*       5.0893618336E+02               0
GRID*              13188               09.7218281479E+018.1243004143E+01+
*       5.0841313827E+02               0
GRID*              13189               09.7203901389E+018.1237882728E+01+
*       5.0946210853E+02               0
GRID*              13190               09.6699185032E+018.0586933429E+01+
*       5.0893958085E+02               0
GRID*              13191               09.6707744093E+018.0589714350E+01+
*       5.0996492378E+02               0
GRID*              13192               09.6232786605E+017.9031161483E+01+
*       5.9798569163E+02               0
GRID*              13193               09.6384512643E+017.7019035384E+01+
*       5.9955819287E+02               0
GRID*              13194               09.6368966379E+017.7068069053E+01+
*       6.0050268419E+02               0
GRID*              13195               09.6254885938E+017.7822894914E+01+
*       5.9900345532E+02               0
GRID*              13196               09.6239339675E+017.7871928584E+01+
*       5.9994794664E+02               0
GRID*              13197               09.8176192655E+018.2024370607E+01+
*       6.0118201600E+02               0
GRID*              13198               09.7467119988E+018.1421984149E+01+
*       6.0174436756E+02               0
GRID*              13199               09.7480422242E+018.1431509055E+01+
*       6.0282006994E+02               0
GRID*              13200               09.7215921966E+018.1242708773E+01+
*       5.0635233345E+02               0
GRID*              13201               09.6708262772E+018.0584993944E+01+
*       5.0584451195E+02               0
GRID*              13202               09.7938709751E+018.1823157222E+01+
*       5.0790407229E+02               0
GRID*              13203               09.7204265370E+018.1237979459E+01+
*       5.0740154295E+02               0
GRID*              13204               09.8658381879E+018.2296594244E+01+
*       5.0943776506E+02               0
GRID*              13205               09.8658774480E+018.2296851437E+01+
*       5.0843430157E+02               0
GRID*              13206               09.9522813784E+018.2581895884E+01+
*       5.0790518263E+02               0
GRID*              13207               01.0039907806E+028.2668304164E+01+
*       5.0840596787E+02               0
GRID*              13208               01.0285254910E+027.5020403522E+01+
*       5.0945082057E+02               0
GRID*              13209               09.6244975631E+017.7989242552E+01+
*       6.0093495133E+02               0
GRID*              13210               01.0442352263E+027.7104148556E+01+
*       5.0893430983E+02               0
GRID*              13211               01.0459750893E+027.8852522747E+01+
*       5.0893425195E+02               0
GRID*              13212               01.0459597773E+027.7963165536E+01+
*       5.0841952918E+02               0
GRID*              13213               09.7217610231E+018.1242730979E+01+
*       5.1047369008E+02               0
GRID*              13214               09.7909429831E+018.1887657256E+01+
*       5.1099683972E+02               0
GRID*              13215               09.8658827505E+018.2296869999E+01+
*       5.1049485398E+02               0
GRID*              13216               09.7938734864E+018.1823045569E+01+
*       5.0996454400E+02               0
GRID*              13217               01.0459649731E+027.7967274655E+01+
*       4.6305416879E+02               0
GRID*              13218               01.0442448719E+027.7106440580E+01+
*       4.6253873035E+02               0
GRID*              13219               01.0459650440E+027.7967543547E+01+
*       4.6202260282E+02               0
GRID*              13220               01.0459594505E+027.7962903201E+01+
*       5.1151088779E+02               0
GRID*              13221               01.0442334974E+027.7103871688E+01+
*       5.1099541222E+02               0
GRID*              13222               01.0464657797E+027.8465545791E+01+
*       6.1542282833E+02               0
GRID*              13223               01.0456545308E+027.9233255627E+01+
*       6.1521222090E+02               0
GRID*              13224               01.0453112095E+027.7430708627E+01+
*       6.1546117893E+02               0
GRID*              13225               09.6710067978E+018.0582790352E+01+
*       5.1408790930E+02               0
GRID*              13226               09.6702277521E+018.0584064106E+01+
*       5.1512139472E+02               0
GRID*              13227               09.7214531029E+018.1241971361E+01+
*       5.1459454953E+02               0
GRID*              13228               09.6198522758E+017.7966098155E+01+
*       5.1666559049E+02               0
GRID*              13229               09.6196319149E+017.8855339286E+01+
*       5.1614958337E+02               0
GRID*              13230               09.6198519840E+017.7966182651E+01+
*       5.1563503924E+02               0
GRID*              13231               09.6196316230E+017.8855423782E+01+
*       5.1511903211E+02               0
GRID*              13232               01.0216195031E+027.4550248573E+01+
*       6.0584803515E+02               0
GRID*              13233               01.0215300320E+027.4546017564E+01+
*       6.0481323038E+02               0
GRID*              13234               01.0289795152E+027.5076280606E+01+
*       6.0536917627E+02               0
GRID*              13235               09.6707457922E+018.0587679339E+01+
*       5.5326631145E+02               0
GRID*              13236               09.6377362200E+017.9714064942E+01+
*       5.5276308155E+02               0
GRID*              13237               09.6376895224E+017.9714093795E+01+
*       5.5379471789E+02               0
GRID*              13238               09.6206893664E+017.8853336786E+01+
*       5.5430003728E+02               0
GRID*              13239               09.6199362727E+017.7967311422E+01+
*       5.5481505694E+02               0
GRID*              13240               09.6206831235E+017.8853413434E+01+
*       5.5533093957E+02               0
GRID*              13241               09.6199300298E+017.7967388071E+01+
*       5.5584595924E+02               0
GRID*              13242               09.6376877531E+017.9714035555E+01+
*       5.5482599686E+02               0
GRID*              13243               09.6698685415E+018.0584038429E+01+
*       5.5430284587E+02               0
GRID*              13244               09.7217934332E+018.1243264713E+01+
*       5.5377643627E+02               0
GRID*              13245               09.6366801859E+017.9716120370E+01+
*       5.1563641849E+02               0
GRID*              13246               09.6366808985E+017.9716136988E+01+
*       5.1460580512E+02               0
GRID*              13247               09.6707765134E+018.0587372030E+01+
*       5.5532839171E+02               0
GRID*              13248               09.7203286569E+018.1237842319E+01+
*       5.5482675123E+02               0
GRID*              13249               09.6370641807E+017.7105903935E+01+
*       5.3471175914E+02               0
GRID*              13250               09.6756853862E+017.6305101994E+01+
*       5.3522701305E+02               0
GRID*              13251               09.6370721477E+017.7106076281E+01+
*       5.3574264946E+02               0
GRID*              13252               09.6756933531E+017.6305274340E+01+
*       5.3625790338E+02               0
GRID*              13253               09.6709902838E+018.0586319191E+01+
*       5.1614732133E+02               0
GRID*              13254               09.6198467064E+017.7966727189E+01+
*       5.3522745030E+02               0
GRID*              13255               09.6196609441E+017.8856452323E+01+
*       5.3780538378E+02               0
GRID*              13256               09.6198362109E+017.7967109530E+01+
*       5.3728954089E+02               0
GRID*              13257               09.6198385911E+017.7967059513E+01+
*       5.3832060799E+02               0
GRID*              13258               09.7909276322E+018.1887586822E+01+
*       5.1924298605E+02               0
GRID*              13259               01.0214709466E+027.4543130372E+01+
*       6.0274866131E+02               0
GRID*              13260               01.0215826207E+027.4548335784E+01+
*       6.0377680952E+02               0
GRID*              13261               09.6196552852E+017.8856180937E+01+
*       5.3677428423E+02               0
GRID*              13262               09.6196553887E+017.8856304103E+01+
*       5.3574324645E+02               0
GRID*              13263               09.6198363145E+017.7967232696E+01+
*       5.3625850311E+02               0
GRID*              13264               09.6196309116E+017.8855309256E+01+
*       5.1718094714E+02               0
GRID*              13265               09.6198605604E+017.7965795702E+01+
*       5.1769677921E+02               0
GRID*              13266               09.7216415864E+018.1242164557E+01+
*       5.1665657045E+02               0
GRID*              13267               09.6701716600E+018.0583223832E+01+
*       5.1718291010E+02               0
GRID*              13268               09.6366793189E+017.9716096379E+01+
*       5.1666785418E+02               0
GRID*              13269               09.6366786341E+017.9716080487E+01+
*       5.1769857278E+02               0
GRID*              13270               01.0039713287E+027.4165916443E+01+
*       5.0584300436E+02               0
GRID*              13271               01.0039713287E+027.4165916443E+01+
*       5.0481207653E+02               0
GRID*              13272               01.0125690432E+027.4336694872E+01+
*       5.0635895709E+02               0
GRID*              13273               01.0125690432E+027.4336694872E+01+
*       5.0532802925E+02               0
GRID*              13274               01.0040163401E+028.2668333222E+01+
*       5.4452191846E+02               0
GRID*              13275               01.0127651809E+028.2556810675E+01+
*       5.4399158798E+02               0
GRID*              13276               01.0040181560E+028.2668357864E+01+
*       5.4346130025E+02               0
GRID*              13277               01.0039713287E+027.4165916443E+01+
*       5.0996671570E+02               0
GRID*              13278               01.0039713287E+027.4165916443E+01+
*       5.1099764354E+02               0
GRID*              13279               09.9536782456E+017.4336936214E+01+
*       5.1048284968E+02               0
GRID*              13280               09.9536782456E+017.4336936214E+01+
*       5.0945192185E+02               0
GRID*              13281               09.9525401761E+018.2582266321E+01+
*       5.4296089980E+02               0
GRID*              13282               01.0212340582E+027.4534177906E+01+
*       5.0790453323E+02               0
GRID*              13283               01.0125687076E+027.4336681019E+01+
*       5.0738977136E+02               0
GRID*              13284               01.0212343938E+027.4534191758E+01+
*       5.0687371896E+02               0
GRID*              13285               01.0039713287E+027.4165916443E+01+
*       5.0687393220E+02               0
GRID*              13286               09.9536877544E+017.4336896894E+01+
*       5.0739022453E+02               0
GRID*              13287               01.0039713287E+027.4165916443E+01+
*       5.0790486003E+02               0
GRID*              13288               01.0039713287E+027.4165916443E+01+
*       5.0893578787E+02               0
GRID*              13289               09.9536877544E+017.4336896894E+01+
*       5.0842115236E+02               0
GRID*              13290               01.0130750878E+027.4358346604E+01+
*       6.0328809524E+02               0
GRID*              13291               01.0442392960E+027.7104723081E+01+
*       4.9862969867E+02               0
GRID*              13292               01.0403710739E+027.6303838309E+01+
*       4.9811391040E+02               0
GRID*              13293               01.0442398030E+027.7104923772E+01+
*       4.9759894653E+02               0
GRID*              13294               01.0403690615E+027.6303442614E+01+
*       5.0017558299E+02               0
GRID*              13295               01.0403700029E+027.6303560408E+01+
*       4.9914493529E+02               0
GRID*              13296               01.0442382249E+027.7104445180E+01+
*       4.9966072357E+02               0
GRID*              13297               01.0354845422E+027.5574288899E+01+
*       5.0069054962E+02               0
GRID*              13298               01.0285292071E+027.5020622801E+01+
*       5.0017468658E+02               0
GRID*              13299               01.0354856829E+027.5574402706E+01+
*       4.9965960245E+02               0
GRID*              13300               01.0285303478E+027.5020736608E+01+
*       4.9914373940E+02               0
GRID*              13301               01.0403703021E+027.6303741759E+01+
*       4.9708318542E+02               0
GRID*              13302               01.0039765281E+028.2668353675E+01+
*       4.9297497232E+02               0
GRID*              13303               09.8670144184E+017.4534490771E+01+
*       5.0893612514E+02               0
GRID*              13304               09.8670090464E+017.4534516486E+01+
*       5.0790544785E+02               0
GRID*              13305               01.0459623873E+027.7964591092E+01+
*       4.9399099122E+02               0
GRID*              13306               01.0459856009E+027.8854067850E+01+
*       4.9347565982E+02               0
GRID*              13307               01.0459623398E+027.7964744907E+01+
*       4.9295980020E+02               0
GRID*              13308               01.0358914492E+028.1237334912E+01+
*       4.9398150946E+02               0
GRID*              13309               01.0358029406E+028.1241129297E+01+
*       4.8985786811E+02               0
GRID*              13310               01.0285716249E+028.1822349417E+01+
*       4.8935077696E+02               0
GRID*              13311               01.0125687076E+027.4336681019E+01+
*       5.0842069920E+02               0
GRID*              13312               01.0442845576E+027.9715273092E+01+
*       4.9089851968E+02               0
GRID*              13313               01.0408452898E+028.0586282399E+01+
*       4.9141148600E+02               0
GRID*              13314               01.0212323888E+027.4534097736E+01+
*       5.0893514405E+02               0
GRID*              13315               09.6370644465E+017.7103938691E+01+
*       4.8316228355E+02               0
GRID*              13316               09.6370555467E+017.7104260477E+01+
*       4.8213116375E+02               0
GRID*              13317               09.6757814250E+017.6302828583E+01+
*       4.8264695047E+02               0
GRID*              13318               01.0213337421E+028.2297735704E+01+
*       4.6200712299E+02               0
GRID*              13319               01.0285392754E+028.1824890176E+01+
*       4.6253764715E+02               0
GRID*              13320               01.0357496337E+028.1245049909E+01+
*       4.6202851677E+02               0
GRID*              13321               01.0288329534E+028.1888248983E+01+
*       4.6150439472E+02               0
GRID*              13322               09.6198256395E+017.7964402775E+01+
*       4.8264713672E+02               0
GRID*              13323               01.0403746848E+027.6304437909E+01+
*       4.6511780069E+02               0
GRID*              13324               01.0442439848E+027.7106368701E+01+
*       4.6460138120E+02               0
GRID*              13325               01.0442443279E+027.7106461367E+01+
*       4.6563302934E+02               0
GRID*              13326               09.7933625224E+018.1819827718E+01+
*       4.6047262401E+02               0
GRID*              13327               09.8652275658E+018.2293840297E+01+
*       4.5994511547E+02               0
GRID*              13328               09.7904057940E+018.1883302411E+01+
*       4.5944353110E+02               0
GRID*              13329               09.7200816403E+018.1234582893E+01+
*       4.5996979670E+02               0
GRID*              13330               01.0126802727E+028.2558657233E+01+
*       4.5944257580E+02               0
GRID*              13331               01.0039268072E+028.2668358355E+01+
*       4.5891299300E+02               0
GRID*              13332               09.6365503713E+017.9712164549E+01+
*       4.6408447938E+02               0
GRID*              13333               09.6196020855E+017.8851110055E+01+
*       4.6356886076E+02               0
GRID*              13334               09.6196021878E+017.8851182098E+01+
*       4.6460032443E+02               0
GRID*              13335               09.6198446647E+017.7961848389E+01+
*       4.6408531688E+02               0
GRID*              13336               09.6365471815E+017.9712032607E+01+
*       4.6511561272E+02               0
GRID*              13337               09.6708061915E+018.0584232722E+01+
*       4.6459716481E+02               0
GRID*              13338               01.0442414141E+027.7105529696E+01+
*       4.6872685346E+02               0
GRID*              13339               01.0403724456E+027.6304042665E+01+
*       4.6821215402E+02               0
GRID*              13340               09.6365444479E+017.9711966251E+01+
*       4.6614723467E+02               0
GRID*              13341               09.6700083626E+018.0581323370E+01+
*       4.6563350267E+02               0
GRID*              13342               01.0213459939E+028.2297148245E+01+
*       4.5275761971E+02               0
GRID*              13343               01.0127026465E+028.2582125100E+01+
*       4.5222977780E+02               0
GRID*              13344               01.0285420230E+028.1824358103E+01+
*       4.5223125759E+02               0
GRID*              13345               01.0126879531E+028.2558312886E+01+
*       4.5325996976E+02               0
GRID*              13346               01.0039386879E+028.2668404603E+01+
*       4.5273034247E+02               0
GRID*              13347               09.7213700110E+018.1238777861E+01+
*       4.6510676225E+02               0
GRID*              13348               01.0039342296E+028.2668333834E+01+
*       4.5378939597E+02               0
GRID*              13349               01.0213421856E+028.2297351234E+01+
*       4.5481827832E+02               0
GRID*              13350               09.6198365997E+017.7962200226E+01+
*       4.6305435371E+02               0
GRID*              13351               09.6196030682E+017.8851144130E+01+
*       4.6253789395E+02               0
GRID*              13352               09.6196029482E+017.8851233921E+01+
*       4.6150669175E+02               0
GRID*              13353               09.6198364796E+017.7962290017E+01+
*       4.6202315151E+02               0
GRID*              13354               01.0358845605E+028.1240271361E+01+
*       4.5273415370E+02               0
GRID*              13355               09.7246407313E+017.5573592671E+01+
*       4.7903857663E+02               0
GRID*              13356               09.7246332724E+017.5573667071E+01+
*       4.8006943854E+02               0
GRID*              13357               09.6757840239E+017.6302699907E+01+
*       4.7955432420E+02               0
GRID*              13358               09.6365524692E+017.9712225430E+01+
*       4.6202205028E+02               0
GRID*              13359               09.6757783204E+017.6302903980E+01+
*       4.8161617569E+02               0
GRID*              13360               09.7941658754E+017.5020413921E+01+
*       4.7955444833E+02               0
GRID*              13361               09.7941733344E+017.5020339521E+01+
*       4.7852358643E+02               0
GRID*              13362               09.7213552321E+018.1238632841E+01+
*       4.6304391995E+02               0
GRID*              13363               09.7200572298E+018.1234332989E+01+
*       4.6409414091E+02               0
GRID*              13364               09.7903863382E+018.1883226302E+01+
*       4.6356723290E+02               0
GRID*              13365               09.6708000930E+018.0584105579E+01+
*       4.6253449221E+02               0
GRID*              13366               09.6700040035E+018.0581249512E+01+
*       4.6357063616E+02               0
GRID*              13367               09.8670504113E+017.4534333410E+01+
*       4.4089377991E+02               0
GRID*              13368               09.8670563666E+017.4534304947E+01+
*       4.4192480045E+02               0
GRID*              13369               09.7941314811E+017.5020655152E+01+
*       4.4140860056E+02               0
GRID*              13370               09.7903979195E+018.1883299576E+01+
*       4.6563013763E+02               0
GRID*              13371               09.8652739288E+018.2294105592E+01+
*       4.6512765352E+02               0
GRID*              13372               09.7933568621E+018.1819640200E+01+
*       4.6459724603E+02               0
GRID*              13373               09.7200700864E+018.1234458615E+01+
*       4.6615705639E+02               0
GRID*              13374               09.6365514989E+017.9712191913E+01+
*       4.6305302399E+02               0
GRID*              13375               09.9537217568E+017.4336756182E+01+
*       4.4140913989E+02               0
GRID*              13376               09.8652075564E+018.2293736666E+01+
*       4.6406935511E+02               0
GRID*              13377               09.7245982293E+017.5574068678E+01+
*       4.3986212867E+02               0
GRID*              13378               09.7245935972E+017.5574126416E+01+
*       4.4089325759E+02               0
GRID*              13379               09.9537209561E+017.4336759473E+01+
*       4.3728543759E+02               0
GRID*              13380               09.9537209561E+017.4336759473E+01+
*       4.3831636542E+02               0
GRID*              13381               01.0039713287E+027.4165916443E+01+
*       4.3883269509E+02               0
GRID*              13382               09.9537130616E+017.4336792135E+01+
*       4.3934732937E+02               0
GRID*              13383               01.0459632102E+027.7965897475E+01+
*       4.8058590513E+02               0
GRID*              13384               01.0442398556E+027.7105279813E+01+
*       4.8110103337E+02               0
GRID*              13385               01.0442413471E+027.7105429720E+01+
*       4.8007027651E+02               0
GRID*              13386               01.0442389561E+027.7104906853E+01+
*       4.8213226487E+02               0
GRID*              13387               01.0459622709E+027.7965293919E+01+
*       4.8264790420E+02               0
GRID*              13388               01.0442386444E+027.7104908406E+01+
*       4.8316319438E+02               0
GRID*              13389               01.0125744880E+027.4336920147E+01+
*       4.5274905893E+02               0
GRID*              13390               01.0125744880E+027.4336920147E+01+
*       4.5171813110E+02               0
GRID*              13391               01.0212440091E+027.4534604706E+01+
*       4.5223350951E+02               0
GRID*              13392               01.0403699551E+027.6303975550E+01+
*       4.8058563252E+02               0
GRID*              13393               01.0403714466E+027.6304125457E+01+
*       4.7955487566E+02               0
GRID*              13394               01.0039713287E+027.4165916443E+01+
*       4.5223475694E+02               0
GRID*              13395               01.0039713287E+027.4165916443E+01+
*       4.5120382911E+02               0
GRID*              13396               01.0459631703E+027.7965666879E+01+
*       4.8161667270E+02               0
GRID*              13397               01.0288485041E+028.1887197971E+01+
*       4.7594590436E+02               0
GRID*              13398               01.0358689733E+028.1239579362E+01+
*       4.7647168368E+02               0
GRID*              13399               01.0357862722E+028.1243177259E+01+
*       4.7542168031E+02               0
GRID*              13400               01.0125737470E+027.4336889473E+01+
*       4.5377995540E+02               0
GRID*              13401               01.0039713287E+027.4165916443E+01+
*       4.5326568478E+02               0
GRID*              13402               01.0285515455E+028.1823914971E+01+
*       4.7491439588E+02               0
GRID*              13403               09.9537481428E+017.4336647153E+01+
*       4.5378037009E+02               0
GRID*              13404               09.8671276996E+017.4533981107E+01+
*       4.5429558650E+02               0
GRID*              13405               09.8671074147E+017.4534078347E+01+
*       4.5326490802E+02               0
GRID*              13406               01.0288455928E+028.1887255439E+01+
*       4.7388217426E+02               0
GRID*              13407               01.0357825171E+028.1243275513E+01+
*       4.7440760769E+02               0
GRID*              13408               01.0358913892E+028.1239186638E+01+
*       4.7335683266E+02               0
GRID*              13409               09.9537301678E+017.4336721459E+01+
*       4.5274941926E+02               0
GRID*              13410               09.7942187789E+017.5020017924E+01+
*       4.5377932054E+02               0
GRID*              13411               09.7941984939E+017.5020115163E+01+
*       4.5274864205E+02               0
GRID*              13412               09.7941923987E+017.5020227110E+01+
*       4.5068698837E+02               0
GRID*              13413               09.8671034211E+017.4534087966E+01+
*       4.5017229043E+02               0
GRID*              13414               09.8670993789E+017.4534104693E+01+
*       4.5120327331E+02               0
GRID*              13415               09.7941824595E+017.5020275069E+01+
*       4.5171767225E+02               0
GRID*              13416               09.8670894396E+017.4534152652E+01+
*       4.5223395718E+02               0
GRID*              13417               09.6370043565E+017.7105114135E+01+
*       4.3573755714E+02               0
GRID*              13418               09.9537342100E+017.4336704732E+01+
*       4.5068750855E+02               0
GRID*              13419               09.9537301678E+017.4336721459E+01+
*       4.5171849143E+02               0
GRID*              13420               01.0212396803E+027.4534409057E+01+
*       4.3986347159E+02               0
GRID*              13421               01.0285345917E+027.5021138192E+01+
*       4.4037816123E+02               0
GRID*              13422               01.0212408578E+027.4534457771E+01+
*       4.4089436102E+02               0
GRID*              13423               01.0125728643E+027.4336853017E+01+
*       4.4037829242E+02               0
GRID*              13424               01.0125740418E+027.4336901731E+01+
*       4.4140918185E+02               0
GRID*              13425               01.0354869920E+027.5574460931E+01+
*       4.4089442914E+02               0
GRID*              13426               01.0354881399E+027.5574604353E+01+
*       4.3986312053E+02               0
GRID*              13427               09.6300516533E+017.7297673503E+01+
*       6.0669676164E+02               0
GRID*              13428               09.6293849285E+017.7319334195E+01+
*       6.0772838325E+02               0
GRID*              13429               09.6216708760E+017.8250288146E+01+
*       6.0719455336E+02               0
GRID*              13430               09.7941242373E+017.5020821052E+01+
*       4.3419173701E+02               0
GRID*              13431               09.6677047908E+017.6523783424E+01+
*       6.0827735010E+02               0
GRID*              13432               09.6286789581E+017.7350342488E+01+
*       6.0879064854E+02               0
GRID*              13433               09.6212654783E+017.9130761500E+01+
*       6.0663874673E+02               0
GRID*              13434               09.6223931910E+017.9179358304E+01+
*       6.0770629463E+02               0
GRID*              13435               09.6317220115E+017.7236477032E+01+
*       6.0460904883E+02               0
GRID*              13436               09.6722132646E+017.6440301250E+01+
*       6.0412620940E+02               0
GRID*              13437               09.6704689395E+017.6461462823E+01+
*       6.0516408436E+02               0
GRID*              13438               09.6697118785E+017.6485452507E+01+
*       6.0620264738E+02               0
GRID*              13439               09.6683715156E+017.6502122732E+01+
*       6.0724572849E+02               0
GRID*              13440               09.7166599109E+017.5656155099E+01+
*       6.0571870853E+02               0
GRID*              13441               09.7153175960E+017.5671338148E+01+
*       6.0675022220E+02               0
GRID*              13442               09.7139772330E+017.5688008373E+01+
*       6.0779330331E+02               0
GRID*              13443               09.7184042361E+017.5634993525E+01+
*       6.0468083357E+02               0
GRID*              13444               09.7865593885E+017.5108751707E+01+
*       6.0522900621E+02               0
GRID*              13445               09.7841852408E+017.5128833857E+01+
*       6.0729582273E+02               0
GRID*              13446               01.0285551333E+028.1823487295E+01+
*       4.4192434860E+02               0
GRID*              13447               01.0288529301E+028.1886873918E+01+
*       4.4295575381E+02               0
GRID*              13448               01.0039713287E+027.4165916443E+01+
*       4.1924506622E+02               0
GRID*              13449               01.0039713287E+027.4165916443E+01+
*       4.2027599406E+02               0
GRID*              13450               01.0213602152E+028.2296583663E+01+
*       4.4139459262E+02               0
GRID*              13451               01.0125518467E+027.4335984761E+01+
*       4.2075989020E+02               0
GRID*              13452               01.0128208426E+027.4347286191E+01+
*       4.1966674611E+02               0
GRID*              13453               09.7954667134E+018.1922813740E+01+
*       4.2652783118E+02               0
GRID*              13454               09.7283464725E+018.1291539499E+01+
*       4.2599769521E+02               0
GRID*              13455               01.0285553024E+028.1823279442E+01+
*       4.4398601148E+02               0
GRID*              13456               09.6857879347E+018.0732348704E+01+
*       4.2343948138E+02               0
GRID*              13457               09.7376510498E+018.1382030194E+01+
*       4.2398795136E+02               0
GRID*              13458               09.7494960057E+018.1477320365E+01+
*       4.2301388006E+02               0
GRID*              13459               09.8660191533E+018.2295699957E+01+
*       4.2701952139E+02               0
GRID*              13460               09.8688616538E+018.2322887941E+01+
*       4.2611481685E+02               0
GRID*              13461               09.7245495887E+017.5574536423E+01+
*       5.1615098013E+02               0
GRID*              13462               09.7940987732E+017.5021117801E+01+
*       5.1563643204E+02               0
GRID*              13463               09.7245384937E+017.5574647206E+01+
*       5.1718165258E+02               0
GRID*              13464               09.7940876782E+017.5021228583E+01+
*       5.1666710449E+02               0
GRID*              13465               09.7917253003E+018.1894621797E+01+
*       4.2853556937E+02               0
GRID*              13466               09.8650365021E+018.2292758837E+01+
*       4.2903223252E+02               0
GRID*              13467               09.8664841438E+018.2300041175E+01+
*       4.2807802057E+02               0
GRID*              13468               09.7357379473E+018.1358125533E+01+
*       4.2503971761E+02               0
GRID*              13469               09.6838745740E+018.0708441319E+01+
*       4.2449121797E+02               0
GRID*              13470               09.8029165759E+018.2000294442E+01+
*       4.2557321826E+02               0
GRID*              13471               09.8058542193E+018.1921275238E+01+
*       4.2454120556E+02               0
GRID*              13472               01.0459373408E+027.8874338481E+01+
*       4.2851346818E+02               0
GRID*              13473               01.0459978060E+027.7982710672E+01+
*       4.2799791826E+02               0
GRID*              13474               01.0459978112E+027.7985336178E+01+
*       4.2695745872E+02               0
GRID*              13475               01.0459373460E+027.8876963987E+01+
*       4.2747300864E+02               0
GRID*              13476               01.0459056198E+027.8890225008E+01+
*       4.2643912195E+02               0
GRID*              13477               01.0460238715E+027.7997269169E+01+
*       4.2592257720E+02               0
GRID*              13478               01.0458519180E+027.8911814877E+01+
*       4.2539839560E+02               0
GRID*              13479               09.6147303869E+017.8443404346E+01+
*       4.1679231074E+02               0
GRID*              13480               09.6302076740E+017.9236224167E+01+
*       4.1669100987E+02               0
GRID*              13481               09.6282377297E+017.9541874299E+01+
*       4.1756577367E+02               0
GRID*              13482               09.6545537549E+018.0280975637E+01+
*       4.1666455176E+02               0
GRID*              13483               01.0458518991E+027.8913945999E+01+
*       4.2434200972E+02               0
GRID*              13484               01.0439953816E+027.9804755900E+01+
*       4.2487795406E+02               0
GRID*              13485               01.0140203666E+028.2551426468E+01+
*       5.8731514749E+02               0
GRID*              13486               09.8683901266E+018.2307909214E+01+
*       5.8163037158E+02               0
GRID*              13487               09.8672021922E+018.2302645497E+01+
*       5.8062497060E+02               0
GRID*              13488               01.0442452341E+027.7126977921E+01+
*       4.2018686685E+02               0
GRID*              13489               01.0406186597E+027.6325795200E+01+
*       4.2067323567E+02               0
GRID*              13490               01.0405344992E+027.6306373492E+01+
*       4.1964645728E+02               0
GRID*              13491               01.0441610736E+027.7107556213E+01+
*       4.1916008846E+02               0
GRID*              13492               01.0460567730E+027.7979099716E+01+
*       4.1958504381E+02               0
GRID*              13493               01.0440776448E+027.7069015877E+01+
*       4.1831558573E+02               0
GRID*              13494               01.0039713287E+027.4165916443E+01+
*       4.2955434457E+02               0
GRID*              13495               01.0039713287E+027.4165916443E+01+
*       4.3058527241E+02               0
GRID*              13496               09.9533493981E+017.4338300054E+01+
*       4.3007046888E+02               0
GRID*              13497               01.0125718511E+027.4336811135E+01+
*       4.3213068407E+02               0
GRID*              13498               01.0125718511E+027.4336811135E+01+
*       4.3109975623E+02               0
GRID*              13499               01.0212514781E+027.4534984964E+01+
*       4.3161499722E+02               0
GRID*              13500               01.0418784112E+028.0323874451E+01+
*       6.1530149408E+02               0
GRID*              13501               01.0443057627E+027.9640317690E+01+
*       6.1436143226E+02               0
GRID*              13502               01.0050848571E+028.2667135751E+01+
*       5.8782775569E+02               0
GRID*              13503               01.0141859877E+028.2518605156E+01+
*       5.8830602117E+02               0
GRID*              13504               01.0223434744E+028.2250643010E+01+
*       5.8883284561E+02               0
GRID*              13505               09.7934165374E+018.1820553903E+01+
*       4.5428928039E+02               0
GRID*              13506               09.8653330601E+018.2294351850E+01+
*       4.5376222592E+02               0
GRID*              13507               09.7904848208E+018.1883764214E+01+
*       4.5326112804E+02               0
GRID*              13508               09.7201480959E+018.1235300671E+01+
*       4.5378637574E+02               0
GRID*              13509               09.7214643102E+018.1239837871E+01+
*       4.5479864108E+02               0
GRID*              13510               01.0459594171E+027.7962745667E+01+
*       5.1460275299E+02               0
GRID*              13511               01.0442333989E+027.7103783871E+01+
*       5.1408741409E+02               0
GRID*              13512               01.0459594025E+027.7962943619E+01+
*       5.1357230539E+02               0
GRID*              13513               01.0298059722E+028.1774253979E+01+
*       5.8832966527E+02               0
GRID*              13514               01.0399517501E+028.0600680352E+01+
*       6.1393944936E+02               0
GRID*              13515               01.0378913643E+028.0969332016E+01+
*       6.1302001241E+02               0
GRID*              13516               01.0422557491E+028.0007602966E+01+
*       6.1344882153E+02               0
GRID*              13517               01.0419344873E+028.0165079000E+01+
*       6.1234534064E+02               0
GRID*              13518               01.0408591371E+028.0579823620E+01+
*       5.1408676358E+02               0
GRID*              13519               01.0409369427E+028.0580656510E+01+
*       5.1512061727E+02               0
GRID*              13520               09.6197929737E+017.7964584268E+01+
*       4.4553161606E+02               0
GRID*              13521               09.6370405964E+017.7104382277E+01+
*       4.4604758789E+02               0
GRID*              13522               09.6365544294E+017.9712366111E+01+
*       4.7027363724E+02               0
GRID*              13523               09.6196060375E+017.8851229069E+01+
*       4.6975739170E+02               0
GRID*              13524               09.6196061615E+017.8851356291E+01+
*       4.7078900309E+02               0
GRID*              13525               09.6198290520E+017.7962572541E+01+
*       4.7027368838E+02               0
GRID*              13526               09.6189103589E+017.8095761944E+01+
*       6.1355576034E+02               0
GRID*              13527               09.6206929665E+017.8975485416E+01+
*       6.1305377484E+02               0
GRID*              13528               09.6219154889E+017.9142563381E+01+
*       6.1192520037E+02               0
GRID*              13529               09.6201328814E+017.8262839910E+01+
*       6.1242718588E+02               0
GRID*              13530               01.0459595568E+027.7962686171E+01+
*       5.1666466370E+02               0
GRID*              13531               01.0442333861E+027.7103566738E+01+
*       5.1614925799E+02               0
GRID*              13532               01.0459594803E+027.7962793120E+01+
*       5.1563399463E+02               0
GRID*              13533               09.6209813207E+017.8987178410E+01+
*       6.1414298196E+02               0
GRID*              13534               09.6197690701E+017.8055621391E+01+
*       6.1441277166E+02               0
GRID*              13535               09.9524289659E+018.2582008985E+01+
*       5.3471277976E+02               0
GRID*              13536               01.0040064089E+028.2668343620E+01+
*       5.3521346722E+02               0
GRID*              13537               01.0040060816E+028.2668349878E+01+
*       5.3421169792E+02               0
GRID*              13538               01.0288783579E+028.1885139047E+01+
*       5.2130542164E+02               0
GRID*              13539               01.0213879447E+028.2295355358E+01+
*       5.2080308058E+02               0
GRID*              13540               01.0213912414E+028.2295202968E+01+
*       5.2180714197E+02               0
GRID*              13541               09.6202195513E+017.8259022605E+01+
*       6.1139418213E+02               0
GRID*              13542               01.0213931213E+028.2295123669E+01+
*       5.1561989809E+02               0
GRID*              13543               01.0285942005E+028.1821158720E+01+
*       5.1614906194E+02               0
GRID*              13544               01.0358189603E+028.1239612188E+01+
*       5.1358051908E+02               0
GRID*              13545               01.0358197844E+028.1239570569E+01+
*       5.1459410929E+02               0
GRID*              13546               01.0435583335E+027.9877319290E+01+
*       6.0749177299E+02               0
GRID*              13547               01.0439375026E+027.9798085300E+01+
*       6.0852718174E+02               0
GRID*              13548               01.0463302055E+027.9083098366E+01+
*       6.0904568222E+02               0
GRID*              13549               01.0137341593E+027.4388780134E+01+
*       4.1718321055E+02               0
GRID*              13550               09.7217732558E+018.1243818708E+01+
*       5.4759096366E+02               0
GRID*              13551               09.7911636254E+018.1889291211E+01+
*       5.4811591543E+02               0
GRID*              13552               09.7940418513E+018.1824312021E+01+
*       5.4708208155E+02               0
GRID*              13553               01.0127663027E+028.2580733371E+01+
*       5.3471231395E+02               0
GRID*              13554               01.0214006092E+028.2294760107E+01+
*       5.3418336365E+02               0
GRID*              13555               01.0127547466E+028.2556979135E+01+
*       5.3368140478E+02               0
GRID*              13556               09.9526487371E+018.2558491034E+01+
*       5.4811504586E+02               0
GRID*              13557               01.0219955284E+027.4570149531E+01+
*       4.1906457220E+02               0
GRID*              13558               01.0229088450E+027.4611643474E+01+
*       4.1761196448E+02               0
GRID*              13559               01.0358589738E+028.1236416871E+01+
*       5.4451546981E+02               0
GRID*              13560               01.0359420635E+028.1233088932E+01+
*       5.4346532353E+02               0
GRID*              13561               01.0288938395E+028.1883931933E+01+
*       5.4399099476E+02               0
GRID*              13562               01.0288908344E+028.1884238437E+01+
*       5.6254784166E+02               0
GRID*              13563               01.0358291712E+028.1237658791E+01+
*       5.6307134345E+02               0
GRID*              13564               01.0359525027E+028.1232759050E+01+
*       5.6202050960E+02               0
GRID*              13565               09.7203407377E+018.1237657874E+01+
*       5.0121902503E+02               0
GRID*              13566               09.6325293983E+017.7218281949E+01+
*       4.2336123245E+02               0
GRID*              13567               09.6212981349E+017.8194727511E+01+
*       4.2288983927E+02               0
GRID*              13568               09.6294574907E+017.7313307779E+01+
*       4.2233144722E+02               0
GRID*              13569               01.0358031406E+028.1238802551E+01+
*       5.3214214674E+02               0
GRID*              13570               01.0288852718E+028.1884736464E+01+
*       5.3161826240E+02               0
GRID*              13571               01.0213961219E+028.2294971611E+01+
*       5.3212101499E+02               0
GRID*              13572               01.0285977748E+028.1820302518E+01+
*       5.3265166412E+02               0
GRID*              13573               01.0357978981E+028.1237572444E+01+
*       5.5688522966E+02               0
GRID*              13574               01.0286099287E+028.1819966629E+01+
*       5.5739438958E+02               0
GRID*              13575               09.6349963012E+017.7150692247E+01+
*       4.2542732265E+02               0
GRID*              13576               09.6204045542E+017.8082714032E+01+
*       4.2494607759E+02               0
GRID*              13577               09.6325404145E+017.7217822335E+01+
*       4.2441476081E+02               0
GRID*              13578               01.0285245197E+027.5020270725E+01+
*       5.5996694732E+02               0
GRID*              13579               01.0212336732E+027.4534151549E+01+
*       5.6048273436E+02               0
GRID*              13580               01.0212345402E+027.4534187406E+01+
*       5.5945184229E+02               0
GRID*              13581               01.0125693714E+027.4336708850E+01+
*       5.6099716946E+02               0
GRID*              13582               01.0039713287E+027.4165916443E+01+
*       5.6048217962E+02               0
GRID*              13583               01.0125702384E+027.4336744707E+01+
*       5.5996627740E+02               0
GRID*              13584               01.0354776024E+027.5573483066E+01+
*       5.6254549315E+02               0
GRID*              13585               01.0285253284E+027.5020288498E+01+
*       5.6202884911E+02               0
GRID*              13586               01.0354776502E+027.5573488993E+01+
*       5.6151438428E+02               0
GRID*              13587               01.0040023663E+028.2668342730E+01+
*       5.3315118886E+02               0
GRID*              13588               01.0040029865E+028.2668351138E+01+
*       5.3214939108E+02               0
GRID*              13589               09.9523972551E+018.2581996860E+01+
*       5.3265044978E+02               0
GRID*              13590               01.0403635208E+027.6302374483E+01+
*       5.5893659302E+02               0
GRID*              13591               01.0403631988E+027.6302334244E+01+
*       5.5996768239E+02               0
GRID*              13592               01.0354780535E+027.5573529214E+01+
*       5.6048347833E+02               0
GRID*              13593               01.0354783754E+027.5573569453E+01+
*       5.5945238895E+02               0
GRID*              13594               09.6369957691E+017.7105350266E+01+
*       4.3367516620E+02               0
GRID*              13595               09.6197917796E+017.7967210047E+01+
*       4.3315994722E+02               0
GRID*              13596               09.6368351502E+017.7109229190E+01+
*       4.3264616529E+02               0
GRID*              13597               09.7244304428E+017.5575689935E+01+
*       4.3161463275E+02               0
GRID*              13598               09.7245797135E+017.5574198498E+01+
*       4.3264485480E+02               0
GRID*              13599               09.6755800767E+017.6307665773E+01+
*       4.3213067082E+02               0
GRID*              13600               09.6753970753E+017.6312382389E+01+
*       4.3007013680E+02               0
GRID*              13601               09.7244533696E+017.5575403501E+01+
*       4.3058293872E+02               0
GRID*              13602               09.6756030036E+017.6307379339E+01+
*       4.3109897679E+02               0
GRID*              13603               01.0442334202E+027.7103057907E+01+
*       5.5945297021E+02               0
GRID*              13604               01.0403640128E+027.6302526285E+01+
*       5.6099870269E+02               0
GRID*              13605               01.0442342342E+027.7103249948E+01+
*       5.6048399051E+02               0
GRID*              13606               09.6370339095E+017.7104543665E+01+
*       4.4501673141E+02               0
GRID*              13607               09.6370353320E+017.7104456267E+01+
*       4.4398576264E+02               0
GRID*              13608               01.0442336617E+027.7103013917E+01+
*       5.6151518897E+02               0
GRID*              13609               09.6757726354E+017.6302885242E+01+
*       4.4759375024E+02               0
GRID*              13610               01.0442335626E+027.7103095822E+01+
*       5.5842209483E+02               0
GRID*              13611               01.0442331028E+027.7102882996E+01+
*       5.5739101804E+02               0
GRID*              13612               01.0459614649E+027.7961732388E+01+
*       5.5790644709E+02               0
GRID*              13613               01.0459619246E+027.7961945213E+01+
*       5.5893752388E+02               0
GRID*              13614               01.0212420282E+027.4534514471E+01+
*       4.4707966805E+02               0
GRID*              13615               01.0125738286E+027.4336892879E+01+
*       4.4759446247E+02               0
GRID*              13616               01.0125744397E+027.4336918178E+01+
*       4.4656365929E+02               0
GRID*              13617               01.0212426393E+027.4534539770E+01+
*       4.4604886487E+02               0
GRID*              13618               01.0285370759E+027.5021353724E+01+
*       4.4759413462E+02               0
GRID*              13619               09.7216812141E+018.1242381580E+01+
*       4.9810740434E+02               0
GRID*              13620               09.6702060264E+018.0584412753E+01+
*       4.9863367999E+02               0
GRID*              13621               01.0403636632E+027.6302412398E+01+
*       5.5790571764E+02               0
GRID*              13622               09.6198377710E+017.7967482983E+01+
*       5.4244416424E+02               0
GRID*              13623               09.6198324366E+017.7967663593E+01+
*       5.4141302035E+02               0
GRID*              13624               09.6369918922E+017.7106839336E+01+
*       5.4295922474E+02               0
GRID*              13625               09.6369865578E+017.7107019946E+01+
*       5.4192808085E+02               0
GRID*              13626               09.6198327649E+017.7967465318E+01+
*       5.4038243474E+02               0
GRID*              13627               09.6369955611E+017.7106770219E+01+
*       5.4089747780E+02               0
GRID*              13628               09.6196479841E+017.8853806912E+01+
*       4.4810906475E+02               0
GRID*              13629               09.6196480473E+017.8853730075E+01+
*       4.4913999798E+02               0
GRID*              13630               09.6198009044E+017.7964219151E+01+
*       4.4862439218E+02               0
GRID*              13631               09.6198028363E+017.7964163548E+01+
*       4.4965497569E+02               0
GRID*              13632               09.6366321033E+017.9715020388E+01+
*       4.4862417133E+02               0
GRID*              13633               09.6366373170E+017.9715243284E+01+
*       4.4759349027E+02               0
GRID*              13634               01.0125717816E+027.4336808504E+01+
*       5.3316267250E+02               0
GRID*              13635               09.9537055356E+017.4336823002E+01+
*       5.3316336284E+02               0
GRID*              13636               01.0039713287E+027.4165916443E+01+
*       5.3573991158E+02               0
GRID*              13637               01.0039713287E+027.4165916443E+01+
*       5.3470898375E+02               0
GRID*              13638               01.0125713000E+027.4336788600E+01+
*       5.3522459914E+02               0
GRID*              13639               09.6370473646E+017.7104093456E+01+
*       4.4810946133E+02               0
GRID*              13640               09.7940766215E+017.5021202998E+01+
*       5.3213316065E+02               0
GRID*              13641               09.7940738192E+017.5021216667E+01+
*       5.3110220240E+02               0
GRID*              13642               09.8670249877E+017.4534443896E+01+
*       5.3058603564E+02               0
GRID*              13643               09.8671051274E+017.4534083946E+01+
*       4.7491487798E+02               0
GRID*              13644               09.9537327075E+017.4336711068E+01+
*       4.7336889549E+02               0
GRID*              13645               09.8671017491E+017.4534097906E+01+
*       4.7388379124E+02               0
GRID*              13646               09.7942093203E+017.5020060268E+01+
*       4.7543074959E+02               0
GRID*              13647               09.7246609509E+017.5573391551E+01+
*       4.7594568798E+02               0
GRID*              13648               09.7942055158E+017.5020098206E+01+
*       4.7439957232E+02               0
GRID*              13649               09.7246571464E+017.5573429489E+01+
*       4.7491451071E+02               0
GRID*              13650               01.0288871593E+028.1884484793E+01+
*       5.3368051295E+02               0
GRID*              13651               01.0214062679E+028.2294538841E+01+
*       5.3317915401E+02               0
GRID*              13652               09.7942032401E+017.5020108893E+01+
*       4.7336860857E+02               0
GRID*              13653               09.7942214447E+017.5019927378E+01+
*       4.7233734596E+02               0
GRID*              13654               09.8670994734E+017.4534108592E+01+
*       4.7285282749E+02               0
GRID*              13655               09.6758078744E+017.6302124702E+01+
*       4.7543047548E+02               0
GRID*              13656               09.8670193497E+017.4534478035E+01+
*       5.3367903743E+02               0
GRID*              13657               09.9537049664E+017.4336825390E+01+
*       5.2903936935E+02               0
GRID*              13658               01.0213927348E+028.2295130812E+01+
*       5.3005855412E+02               0
GRID*              13659               01.0288824993E+028.1884873755E+01+
*       5.2955575393E+02               0
GRID*              13660               01.0213994532E+028.2294832247E+01+
*       5.2905419916E+02               0
GRID*              13661               09.6756445444E+017.6305211210E+01+
*       5.7234098950E+02               0
GRID*              13662               09.7244843578E+017.5575329747E+01+
*       5.7285639886E+02               0
GRID*              13663               09.6756283474E+017.6305600027E+01+
*       5.7337198802E+02               0
GRID*              13664               09.6708829803E+018.0585473467E+01+
*       4.5428980556E+02               0
GRID*              13665               09.6365843847E+017.9713417801E+01+
*       4.5480712465E+02               0
GRID*              13666               09.6365798594E+017.9713307933E+01+
*       4.5583815370E+02               0
GRID*              13667               09.6700833219E+018.0582508488E+01+
*       4.5532554201E+02               0
GRID*              13668               09.8652935706E+018.2294158416E+01+
*       4.5582298421E+02               0
GRID*              13669               09.8653373008E+018.2294341270E+01+
*       4.5481876838E+02               0
GRID*              13670               09.7904566209E+018.1883602908E+01+
*       4.5532175374E+02               0
GRID*              13671               09.7933968407E+018.1820274023E+01+
*       4.5635011043E+02               0
GRID*              13672               09.7201237341E+018.1235041993E+01+
*       4.5584727109E+02               0
GRID*              13673               01.0039734180E+028.2668343665E+01+
*       4.8985145483E+02               0
GRID*              13674               01.0039715528E+028.2668358755E+01+
*       4.8884963474E+02               0
GRID*              13675               09.9520922786E+018.2581333938E+01+
*       4.8935043432E+02               0
GRID*              13676               01.0403665231E+027.6302928215E+01+
*       5.1872794230E+02               0
GRID*              13677               01.0442346377E+027.7103670253E+01+
*       5.1924316230E+02               0
GRID*              13678               01.0442360261E+027.7103832194E+01+
*       5.2027418127E+02               0
GRID*              13679               01.0403679114E+027.6303090157E+01+
*       5.1975896128E+02               0
GRID*              13680               09.8670462342E+017.4534337231E+01+
*       5.1615153741E+02               0
GRID*              13681               09.8670424974E+017.4534355214E+01+
*       5.1718261720E+02               0
GRID*              13682               09.7940839414E+017.5021246566E+01+
*       5.1769818428E+02               0
GRID*              13683               09.7245364531E+017.5574683488E+01+
*       5.1924375528E+02               0
GRID*              13684               09.7245322781E+017.5574725178E+01+
*       5.1821300234E+02               0
GRID*              13685               01.0442359056E+027.7103735303E+01+
*       5.2233667447E+02               0
GRID*              13686               01.0442360698E+027.7103870780E+01+
*       5.2130574754E+02               0
GRID*              13687               09.6757083461E+017.6304451468E+01+
*       5.1872842758E+02               0
GRID*              13688               01.0459600770E+027.7963023607E+01+
*       5.2182114077E+02               0
GRID*              13689               01.0212359524E+027.4534261979E+01+
*       5.2336838293E+02               0
GRID*              13690               01.0285276684E+027.5020490895E+01+
*       5.2285279633E+02               0
GRID*              13691               01.0285277400E+027.5020494226E+01+
*       5.2388391071E+02               0
GRID*              13692               09.6379322021E+017.7111467980E+01+
*       5.7904858790E+02               0
GRID*              13693               09.6755287916E+017.6307624298E+01+
*       5.7852947044E+02               0
GRID*              13694               09.6377029215E+017.7117029393E+01+
*       5.8008017728E+02               0
GRID*              13695               01.0459608674E+027.7962104357E+01+
*       5.4759798654E+02               0
GRID*              13696               01.0459617160E+027.7962488579E+01+
*       5.4862886658E+02               0
GRID*              13697               01.0441973661E+027.9708584219E+01+
*       5.4863736762E+02               0
GRID*              13698               01.0458897691E+027.8847561120E+01+
*       5.4914411199E+02               0
GRID*              13699               01.0458895109E+027.8847822327E+01+
*       5.4811364604E+02               0
GRID*              13700               01.0212361277E+027.4534262438E+01+
*       5.2749255254E+02               0
GRID*              13701               01.0125709232E+027.4336772972E+01+
*       5.2800788475E+02               0
GRID*              13702               01.0212392954E+027.4534420385E+01+
*       5.7491885739E+02               0
GRID*              13703               01.0125693209E+027.4336706681E+01+
*       5.7543087023E+02               0
GRID*              13704               01.0125706102E+027.4336760011E+01+
*       5.7439975992E+02               0
GRID*              13705               01.0285300425E+027.5020526770E+01+
*       5.7440342261E+02               0
GRID*              13706               01.0285311146E+027.5020578106E+01+
*       5.7543582503E+02               0
GRID*              13707               01.0212403676E+027.4534471721E+01+
*       5.7595125981E+02               0
GRID*              13708               01.0125633556E+027.4336460102E+01+
*       5.7955472184E+02               0
GRID*              13709               01.0039713287E+027.4165916443E+01+
*       5.7903888065E+02               0
GRID*              13710               01.0125665879E+027.4336593686E+01+
*       5.7852377059E+02               0
GRID*              13711               01.0354819176E+027.5574226820E+01+
*       5.7801974166E+02               0
GRID*              13712               01.0354868038E+027.5574839448E+01+
*       5.7905379458E+02               0
GRID*              13713               01.0285273666E+027.5019974325E+01+
*       5.7853070431E+02               0
GRID*              13714               01.0039713287E+027.4165916443E+01+
*       5.2852341674E+02               0
GRID*              13715               01.0125709232E+027.4336772972E+01+
*       5.2903881259E+02               0
GRID*              13716               09.7244979161E+017.5575173909E+01+
*       5.3367986726E+02               0
GRID*              13717               09.7940687035E+017.5021282052E+01+
*       5.3316419600E+02               0
GRID*              13718               09.7940491043E+017.5021376050E+01+
*       5.3419514008E+02               0
GRID*              13719               09.7940630147E+017.5021237169E+01+
*       5.3522629202E+02               0
GRID*              13720               09.7244951876E+017.5575243267E+01+
*       5.3574198848E+02               0
GRID*              13721               09.7244812772E+017.5575382148E+01+
*       5.3471083655E+02               0
GRID*              13722               09.7245058340E+017.5575094854E+01+
*       5.3264883191E+02               0
GRID*              13723               09.7245001512E+017.5575165931E+01+
*       5.3161787346E+02               0
GRID*              13724               01.0403721501E+027.6303053603E+01+
*       5.7750448842E+02               0
GRID*              13725               01.0403770363E+027.6303666230E+01+
*       5.7853854134E+02               0
GRID*              13726               01.0445122187E+027.7177989776E+01+
*       6.0902785430E+02               0
GRID*              13727               01.0405952782E+027.6363824916E+01+
*       6.0852624660E+02               0
GRID*              13728               01.0442444266E+027.9809698165E+01+
*       6.0962605458E+02               0
GRID*              13729               01.0463584893E+027.9053395787E+01+
*       6.1008239952E+02               0
GRID*              13730               01.0403913357E+028.0538039816E+01+
*       6.1026828073E+02               0
GRID*              13731               01.0358138172E+028.1258973808E+01+
*       6.0964453891E+02               0
GRID*              13732               01.0339136953E+028.1435321645E+01+
*       6.1079638974E+02               0
GRID*              13733               01.0391926060E+028.0784072584E+01+
*       5.9950552117E+02               0
GRID*              13734               01.0399216654E+028.0682992676E+01+
*       6.0045784797E+02               0
GRID*              13735               01.0439995035E+027.9875411343E+01+
*       5.9977312043E+02               0
GRID*              13736               09.7939246103E+018.1823711614E+01+
*       5.3264997084E+02               0
GRID*              13737               09.8660067970E+018.2297415397E+01+
*       5.3317944707E+02               0
GRID*              13738               09.8659644547E+018.2297205488E+01+
*       5.3212127946E+02               0
GRID*              13739               01.0357868710E+028.1241248335E+01+
*       4.9503096708E+02               0
GRID*              13740               01.0288691735E+028.1885876457E+01+
*       4.9450669889E+02               0
GRID*              13741               01.0285778548E+028.1821961873E+01+
*       4.9554023282E+02               0
GRID*              13742               01.0213778554E+028.2295794053E+01+
*       4.9500932998E+02               0
GRID*              13743               09.7214857308E+018.1242362094E+01+
*       5.3315733586E+02               0
GRID*              13744               09.7910695223E+018.1888103252E+01+
*       5.3368233828E+02               0
GRID*              13745               01.0217563659E+027.4557356431E+01+
*       5.9139707218E+02               0
GRID*              13746               01.0295241835E+027.4972032379E+01+
*       5.9186918548E+02               0
GRID*              13747               01.0289199735E+027.5051295942E+01+
*       5.9086087757E+02               0
GRID*              13748               01.0435623796E+027.9855240911E+01+
*       6.0210563109E+02               0
GRID*              13749               01.0395071037E+028.0719416516E+01+
*       6.0587302979E+02               0
GRID*              13750               01.0397338028E+028.0689211752E+01+
*       6.0480665182E+02               0
GRID*              13751               01.0337622780E+028.1406437129E+01+
*       6.0646982628E+02               0
GRID*              13752               01.0339730412E+028.1378981237E+01+
*       6.0542931242E+02               0
GRID*              13753               01.0442181079E+027.9710223888E+01+
*       5.3316893113E+02               0
GRID*              13754               01.0408869185E+028.0583011884E+01+
*       5.3265057889E+02               0
GRID*              13755               01.0409689326E+028.0580020131E+01+
*       5.3367706004E+02               0
GRID*              13756               01.0210367717E+027.4527140949E+01+
*       6.1101553921E+02               0
GRID*              13757               01.0286576816E+027.5027948471E+01+
*       6.1059077745E+02               0
GRID*              13758               01.0278678722E+027.4952210582E+01+
*       6.1161809691E+02               0
GRID*              13759               09.9960148512E+018.2620804500E+01+
*       6.0226117586E+02               0
GRID*              13760               01.0403662909E+027.6302861473E+01+
*       5.6821639622E+02               0
GRID*              13761               01.0403669687E+027.6303021417E+01+
*       5.6924760001E+02               0
GRID*              13762               01.0354806299E+027.5573830929E+01+
*       5.6873221821E+02               0
GRID*              13763               09.9483246950E+017.4359893288E+01+
*       5.9909503792E+02               0
GRID*              13764               09.8615599150E+017.4557916992E+01+
*       5.9858194822E+02               0
GRID*              13765               09.9467008585E+017.4253941783E+01+
*       5.9806959976E+02               0
GRID*              13766               01.0362188269E+028.1184560320E+01+
*       5.8983748188E+02               0
GRID*              13767               01.0408733529E+028.0440753172E+01+
*       5.8933305576E+02               0
GRID*              13768               01.0354791266E+027.5573679258E+01+
*       5.6563845459E+02               0
GRID*              13769               01.0285247599E+027.5020249460E+01+
*       5.6615283454E+02               0
GRID*              13770               01.0285246469E+027.5020238195E+01+
*       5.6512185560E+02               0
GRID*              13771               01.0354790137E+027.5573667993E+01+
*       5.6460747565E+02               0
GRID*              13772               01.0412101792E+028.0488969430E+01+
*       5.9030714088E+02               0
GRID*              13773               01.0447030400E+027.9626908009E+01+
*       5.8980448277E+02               0
GRID*              13774               01.0403662030E+027.6302850364E+01+
*       5.6718499921E+02               0
GRID*              13775               01.0354805420E+027.5573819820E+01+
*       5.6770082121E+02               0
GRID*              13776               01.0298649057E+028.1783657452E+01+
*       5.8931155494E+02               0
GRID*              13777               01.0303505771E+028.1750694805E+01+
*       5.9035503043E+02               0
GRID*              13778               01.0229449840E+028.2221568607E+01+
*       5.8981373260E+02               0
GRID*              13779               01.0234263611E+027.4636309744E+01+
*       5.9452949826E+02               0
GRID*              13780               01.0220180203E+027.4561339779E+01+
*       5.9557389526E+02               0
GRID*              13781               01.0404523755E+027.6307323180E+01+
*       5.8882096328E+02               0
GRID*              13782               01.0460178988E+027.7959628170E+01+
*       5.8989373932E+02               0
GRID*              13783               01.0446176548E+027.9643152564E+01+
*       5.9178062450E+02               0
GRID*              13784               01.0457670212E+027.8866316884E+01+
*       5.9137159101E+02               0
GRID*              13785               01.0445011719E+027.9674870487E+01+
*       5.9088875413E+02               0
GRID*              13786               01.0459492412E+027.8826316446E+01+
*       5.8630248493E+02               0
GRID*              13787               01.0444582934E+027.9673509232E+01+
*       5.8579737166E+02               0
GRID*              13788               01.0394780053E+028.0735378661E+01+
*       6.0373868029E+02               0
GRID*              13789               01.0444395327E+027.9853913453E+01+
*       6.0434871049E+02               0
GRID*              13790               01.0447610956E+027.7197413637E+01+
*       6.0271564061E+02               0
GRID*              13791               01.0464635537E+027.8106172289E+01+
*       6.0222023522E+02               0
GRID*              13792               01.0466566787E+027.8064156303E+01+
*       6.0328864801E+02               0
GRID*              13793               01.0459435287E+027.9035272973E+01+
*       6.0478235003E+02               0
GRID*              13794               01.0433374676E+027.9896273283E+01+
*       6.0537002458E+02               0
GRID*              13795               09.7297839122E+018.1308286231E+01+
*       5.8580976163E+02               0
GRID*              13796               09.7260278019E+018.1292478548E+01+
*       5.8473653307E+02               0
GRID*              13797               09.6747212375E+018.0676211342E+01+
*       5.8527160543E+02               0
GRID*              13798               09.6713240066E+018.0596944326E+01+
*       5.8008410944E+02               0
GRID*              13799               09.6710515267E+018.0607293065E+01+
*       5.8112342242E+02               0
GRID*              13800               09.6206603925E+017.7999226603E+01+
*       5.8266201233E+02               0
GRID*              13801               09.6205580287E+017.8882183705E+01+
*       5.8215069928E+02               0
GRID*              13802               09.7338977132E+018.1348125884E+01+
*       5.8787337264E+02               0
GRID*              13803               09.8023238518E+018.1976767869E+01+
*       5.8731844805E+02               0
GRID*              13804               09.7332711372E+018.1340323325E+01+
*       5.8684363661E+02               0
GRID*              13805               01.0134398460E+027.4263754876E+01+
*       5.9812376100E+02               0
GRID*              13806               01.0221822180E+027.4559734066E+01+
*       5.9768969672E+02               0
GRID*              13807               01.0216146612E+027.4549507417E+01+
*       5.9865497281E+02               0
GRID*              13808               09.7976674887E+018.1943606106E+01+
*       5.8628196268E+02               0
GRID*              13809               01.0039713287E+027.4165916443E+01+
*       5.9965743735E+02               0
GRID*              13810               01.0039713287E+027.4165916443E+01+
*       5.9862650952E+02               0
GRID*              13811               01.0132463679E+027.4366008319E+01+
*       5.9915724205E+02               0
GRID*              13812               01.0136550825E+027.4277746452E+01+
*       5.9709369610E+02               0
GRID*              13813               09.6205973605E+017.8905080963E+01+
*       5.8421835506E+02               0
GRID*              13814               09.6205875536E+017.8909321233E+01+
*       5.8524921594E+02               0
GRID*              13815               09.6392735078E+017.9761950641E+01+
*       5.8476834565E+02               0
GRID*              13816               09.6748759045E+017.6321948438E+01+
*       5.8265526958E+02               0
GRID*              13817               09.6372295641E+017.7125380595E+01+
*       5.8214406616E+02               0
GRID*              13818               01.0040110437E+027.4163130026E+01+
*       6.1409245921E+02               0
GRID*              13819               01.0286967470E+028.1818885031E+01+
*       5.8010027380E+02               0
GRID*              13820               01.0214601023E+028.2291761250E+01+
*       5.8063133322E+02               0
GRID*              13821               01.0358694989E+028.1231481549E+01+
*       5.8060878281E+02               0
GRID*              13822               01.0289882018E+028.1874728689E+01+
*       5.8113539964E+02               0
GRID*              13823               01.0359951314E+028.1226640789E+01+
*       5.8166440649E+02               0
GRID*              13824               01.0410000836E+028.0570031553E+01+
*       5.7906522736E+02               0
GRID*              13825               01.0409050068E+028.0574075701E+01+
*       5.8009519750E+02               0
GRID*              13826               01.0442960624E+027.9707381297E+01+
*       5.7960962309E+02               0
GRID*              13827               01.0358325129E+028.1235826648E+01+
*       5.7853900467E+02               0
GRID*              13828               01.0289277067E+028.1880387542E+01+
*       5.7906614359E+02               0
GRID*              13829               01.0359636915E+028.1230984960E+01+
*       5.7959516773E+02               0
GRID*              13830               09.8664020515E+017.4537096043E+01+
*       5.8213496870E+02               0
GRID*              13831               09.8664409074E+017.4536908885E+01+
*       5.8110407810E+02               0
GRID*              13832               01.0160116200E+028.2451740623E+01+
*       5.9337766105E+02               0
GRID*              13833               01.0166136568E+028.2515864130E+01+
*       5.9236467635E+02               0
GRID*              13834               01.0367822523E+028.1133277307E+01+
*       5.9078728684E+02               0
GRID*              13835               01.0303151569E+028.1719869469E+01+
*       5.9128491900E+02               0
GRID*              13836               01.0365270097E+028.1147108201E+01+
*       5.9185021755E+02               0
GRID*              13837               01.0237440051E+028.2191710746E+01+
*       5.9181465762E+02               0
GRID*              13838               01.0409621422E+028.0578417325E+01+
*       5.7079511723E+02               0
GRID*              13839               01.0408901255E+028.0580813195E+01+
*       5.6976572791E+02               0
GRID*              13840               01.0442510634E+027.9712936069E+01+
*       5.7236857943E+02               0
GRID*              13841               01.0442450239E+027.9712207886E+01+
*       5.7133434253E+02               0
GRID*              13842               01.0408882836E+028.0576412344E+01+
*       5.7182872207E+02               0
GRID*              13843               01.0227788692E+028.2229709432E+01+
*       5.9083608762E+02               0
GRID*              13844               01.0148516045E+028.2483294848E+01+
*       5.9031861380E+02               0
GRID*              13845               01.0403648631E+027.6302633604E+01+
*       5.5172043281E+02               0
GRID*              13846               01.0442345046E+027.7103357574E+01+
*       5.5120563366E+02               0
GRID*              13847               01.0403642529E+027.6302483613E+01+
*       5.5275102450E+02               0
GRID*              13848               01.0354775943E+027.5573508790E+01+
*       5.5326651213E+02               0
GRID*              13849               01.0354789334E+027.5573642323E+01+
*       5.5223583691E+02               0
GRID*              13850               01.0285246176E+027.5020200976E+01+
*       5.5378116268E+02               0
GRID*              13851               01.0285259567E+027.5020334510E+01+
*       5.5275048747E+02               0
GRID*              13852               09.9536921330E+017.4336878419E+01+
*       5.4656506484E+02               0
GRID*              13853               09.9536801540E+017.4336927999E+01+
*       5.4553420537E+02               0
GRID*              13854               01.0285248733E+027.5020282691E+01+
*       5.5171956260E+02               0
GRID*              13855               09.6205111507E+017.8854214012E+01+
*       5.5636202694E+02               0
GRID*              13856               09.6375235982E+017.9714845809E+01+
*       5.5585748685E+02               0
GRID*              13857               09.7205903973E+018.1238560325E+01+
*       5.5688813396E+02               0
GRID*              13858               09.7217535699E+018.1243231772E+01+
*       5.5583849138E+02               0
GRID*              13859               09.6699355874E+018.0583032420E+01+
*       5.5636491334E+02               0
GRID*              13860               09.6372613156E+017.9715878378E+01+
*       5.5792045787E+02               0
GRID*              13861               09.6375221086E+017.9714796427E+01+
*       5.5688892992E+02               0
GRID*              13862               09.6204971015E+017.8853987932E+01+
*       5.5739300506E+02               0
GRID*              13863               09.6202298560E+017.8855052152E+01+
*       5.5842409200E+02               0
GRID*              13864               09.6199077588E+017.7967553515E+01+
*       5.5790789198E+02               0
GRID*              13865               09.6199218080E+017.7967779595E+01+
*       5.5687691387E+02               0
GRID*              13866               01.0213895724E+028.2295258206E+01+
*       5.2492866803E+02               0
GRID*              13867               09.9524210571E+018.2557733144E+01+
*       5.2543075657E+02               0
GRID*              13868               01.0288782437E+028.1885055858E+01+
*       5.2543130093E+02               0
GRID*              13869               09.6377005294E+017.7107942244E+01+
*       5.7079502145E+02               0
GRID*              13870               09.6205269652E+017.7967720991E+01+
*       5.7027954015E+02               0
GRID*              13871               09.6376915342E+017.7108161029E+01+
*       5.6976410164E+02               0
GRID*              13872               01.0214131164E+028.2294144268E+01+
*       5.5585999622E+02               0
GRID*              13873               01.0127767456E+028.2580261413E+01+
*       5.5533150618E+02               0
GRID*              13874               01.0040129843E+028.2668395996E+01+
*       5.5583204819E+02               0
GRID*              13875               01.0127658803E+028.2557130224E+01+
*       5.5636226798E+02               0
GRID*              13876               01.0288950013E+028.1884364936E+01+
*       5.5842359041E+02               0
GRID*              13877               01.0214117069E+028.2294168353E+01+
*       5.5792193626E+02               0
GRID*              13878               01.0409584228E+028.0579656164E+01+
*       5.2749005015E+02               0
GRID*              13879               01.0408780380E+028.0588810963E+01+
*       5.2646109722E+02               0
GRID*              13880               01.0358006293E+028.1239418932E+01+
*       5.2801702117E+02               0
GRID*              13881               01.0359085446E+028.1235411186E+01+
*       5.2696732981E+02               0
GRID*              13882               01.0285956627E+028.1820931007E+01+
*       5.2646218517E+02               0
GRID*              13883               01.0359055704E+028.1235418945E+01+
*       5.2595639319E+02               0
GRID*              13884               09.7244655837E+017.5575533932E+01+
*       5.5532958207E+02               0
GRID*              13885               09.6756215596E+017.6305715842E+01+
*       5.5481415742E+02               0
GRID*              13886               09.7244541542E+017.5575648085E+01+
*       5.5429864446E+02               0
GRID*              13887               09.7244682512E+017.5575495162E+01+
*       5.5739167760E+02               0
GRID*              13888               09.6756225461E+017.6305744539E+01+
*       5.5687619998E+02               0
GRID*              13889               09.6756079165E+017.6305927509E+01+
*       5.5790717598E+02               0
GRID*              13890               09.6756262991E+017.6305656378E+01+
*       5.5584525207E+02               0
GRID*              13891               09.7244703232E+017.5575474468E+01+
*       5.5636067671E+02               0
GRID*              13892               09.7940210735E+017.5021595022E+01+
*       5.5584420018E+02               0
GRID*              13893               09.7940096441E+017.5021709175E+01+
*       5.5481326258E+02               0
GRID*              13894               09.7940642762E+017.5021291709E+01+
*       5.0945210062E+02               0
GRID*              13895               09.7940589042E+017.5021317424E+01+
*       5.0842142333E+02               0
GRID*              13896               09.7245090496E+017.5575038361E+01+
*       5.0996683966E+02               0
GRID*              13897               09.7245017165E+017.5575129673E+01+
*       5.0893639777E+02               0
GRID*              13898               09.7940804639E+017.5021257410E+01+
*       5.1151338318E+02               0
GRID*              13899               09.7245006659E+017.5575122073E+01+
*       5.1099751072E+02               0
GRID*              13900               09.7940558925E+017.5021375421E+01+
*       5.1048277168E+02               0
GRID*              13901               09.7940263214E+017.5021579463E+01+
*       5.5790622091E+02               0
GRID*              13902               01.0358276040E+028.1238199556E+01+
*       5.3420484029E+02               0
GRID*              13903               09.6757739674E+017.6302922004E+01+
*       4.8367814156E+02               0
GRID*              13904               09.6196421497E+017.8854005303E+01+
*       4.8213145112E+02               0
GRID*              13905               09.7246391097E+017.5573594218E+01+
*       4.8110052684E+02               0
GRID*              13906               09.7941754354E+017.5020368228E+01+
*       4.8058541097E+02               0
GRID*              13907               01.0127603903E+028.2580705846E+01+
*       5.3058762091E+02               0
GRID*              13908               01.0039975395E+028.2668341642E+01+
*       5.3108881181E+02               0
GRID*              13909               01.0359421895E+028.1233790983E+01+
*       5.3315444849E+02               0
GRID*              13910               09.7246330776E+017.5573654390E+01+
*       4.8213132211E+02               0
GRID*              13911               09.7941559249E+017.5020493404E+01+
*       4.8264727477E+02               0
GRID*              13912               09.7246256201E+017.5573747811E+01+
*       4.8316251319E+02               0
GRID*              13913               09.6356813662E+017.7159101314E+01+
*       5.8627564751E+02               0
GRID*              13914               09.6354127581E+017.7165825993E+01+
*       5.8730875071E+02               0
GRID*              13915               09.6203323113E+017.8057926402E+01+
*       5.8680191895E+02               0
GRID*              13916               09.6202660912E+017.8107648399E+01+
*       5.8890094174E+02               0
GRID*              13917               09.6198922359E+017.8120259415E+01+
*       5.8995578180E+02               0
GRID*              13918               01.0359216208E+028.1233694718E+01+
*       5.3626865428E+02               0
GRID*              13919               01.0459650798E+027.8852157575E+01+
*       5.1718005401E+02               0
GRID*              13920               09.6366898251E+017.9716518143E+01+
*       5.1357524811E+02               0
GRID*              13921               09.6196313220E+017.8855354125E+01+
*       5.1408855346E+02               0
GRID*              13922               09.6370225141E+017.7105477427E+01+
*       5.1305835275E+02               0
GRID*              13923               09.6370277205E+017.7105307743E+01+
*       5.1408885844E+02               0
GRID*              13924               09.6198454359E+017.7966327484E+01+
*       5.1357375404E+02               0
GRID*              13925               09.6198402295E+017.7966497168E+01+
*       5.1254324835E+02               0
GRID*              13926               01.0442590369E+027.7112276694E+01+
*       4.2954852250E+02               0
GRID*              13927               01.0403956945E+027.6307190261E+01+
*       4.3006472663E+02               0
GRID*              13928               01.0404202418E+027.6310279010E+01+
*       4.2903273274E+02               0
GRID*              13929               01.0442601759E+027.7112554614E+01+
*       4.3058108574E+02               0
GRID*              13930               01.0403968335E+027.6307468181E+01+
*       4.3109728987E+02               0
GRID*              13931               09.6756835436E+017.6304656444E+01+
*       5.1460512097E+02               0
GRID*              13932               09.6370208802E+017.7105486617E+01+
*       5.1511940723E+02               0
GRID*              13933               09.6756767033E+017.6304835317E+01+
*       5.1563566976E+02               0
GRID*              13934               09.6196403718E+017.8855740793E+01+
*       5.1305806201E+02               0
GRID*              13935               01.0355096902E+027.5577376162E+01+
*       4.3058236286E+02               0
GRID*              13936               09.9536859526E+017.4336904259E+01+
*       4.3316189628E+02               0
GRID*              13937               09.8670387736E+017.4534364918E+01+
*       4.3367702352E+02               0
GRID*              13938               09.8670464540E+017.4534327897E+01+
*       4.3264571653E+02               0
GRID*              13939               09.7941091981E+017.5020971160E+01+
*       4.3316091249E+02               0
GRID*              13940               09.7941168785E+017.5020934138E+01+
*       4.3212960550E+02               0
GRID*              13941               09.6370442475E+017.7104870509E+01+
*       5.1821202447E+02               0
GRID*              13942               09.6370359629E+017.7105172962E+01+
*       5.1718083575E+02               0
GRID*              13943               09.6757145617E+017.6304373496E+01+
*       5.1769707782E+02               0
GRID*              13944               01.0442120754E+027.7103942757E+01+
*       5.8627451560E+02               0
GRID*              13945               09.6198608396E+017.7965770102E+01+
*       5.1872742635E+02               0
GRID*              13946               09.7941633789E+017.5020455823E+01+
*       4.4553237806E+02               0
GRID*              13947               01.0212341189E+027.4534180186E+01+
*       5.1718234357E+02               0
GRID*              13948               09.7246088113E+017.5573958627E+01+
*       4.4398613635E+02               0
GRID*              13949               09.7941401444E+017.5020567302E+01+
*       4.4450139233E+02               0
GRID*              13950               01.0285259125E+027.5020338479E+01+
*       5.1975969050E+02               0
GRID*              13951               01.0212356935E+027.4534248331E+01+
*       5.1924443008E+02               0
GRID*              13952               01.0212368070E+027.4534297294E+01+
*       5.2233745317E+02               0
GRID*              13953               09.6197943962E+017.7964496870E+01+
*       4.4450064730E+02               0
GRID*              13954               01.0125688248E+027.4336686010E+01+
*       5.1666756476E+02               0
GRID*              13955               01.0125699430E+027.4336732290E+01+
*       5.1769849787E+02               0
GRID*              13956               01.0354808526E+027.5573901782E+01+
*       5.1511920967E+02               0
GRID*              13957               01.0354811557E+027.5573939400E+01+
*       5.1615043612E+02               0
GRID*              13958               01.0285245432E+027.5020245361E+01+
*       5.1563562467E+02               0
GRID*              13959               09.6757577128E+017.6303138402E+01+
*       4.4346994855E+02               0
GRID*              13960               09.7246133026E+017.5573913824E+01+
*       4.4295517578E+02               0
GRID*              13961               01.0358861112E+028.1240066680E+01+
*       4.5067343235E+02               0
GRID*              13962               01.0357592508E+028.1244311549E+01+
*       4.4966161375E+02               0
GRID*              13963               01.0442649690E+027.9719231254E+01+
*       4.4759316701E+02               0
GRID*              13964               01.0459735652E+027.8857523153E+01+
*       4.4810842293E+02               0
GRID*              13965               01.0459737878E+027.8857432692E+01+
*       4.4707814830E+02               0
GRID*              13966               01.0459651183E+027.7967374807E+01+
*       4.4759322831E+02               0
GRID*              13967               01.0459734551E+027.8857676306E+01+
*       4.5016919549E+02               0
GRID*              13968               01.0459735178E+027.8857657302E+01+
*       4.4913915195E+02               0
GRID*              13969               01.0408297528E+028.0594477671E+01+
*       4.4810838214E+02               0
GRID*              13970               01.0358639452E+028.1240467874E+01+
*       4.4861328997E+02               0
GRID*              13971               09.7906129179E+018.1884927886E+01+
*       4.7800700920E+02               0
GRID*              13972               09.7215198094E+018.1240721995E+01+
*       4.7853135388E+02               0
GRID*              13973               09.7935611206E+018.1821420957E+01+
*       4.7904016090E+02               0
GRID*              13974               09.8655411579E+018.2295239522E+01+
*       4.7850971407E+02               0
GRID*              13975               09.6366039206E+017.9714195356E+01+
*       4.7749269190E+02               0
GRID*              13976               09.6701391244E+018.0582595181E+01+
*       4.7800479525E+02               0
GRID*              13977               09.6708592395E+018.0589796269E+01+
*       4.7697638244E+02               0
GRID*              13978               09.9516237037E+018.2580418265E+01+
*       4.6047354843E+02               0
GRID*              13979               09.7200390979E+018.1234135643E+01+
*       4.6203132768E+02               0
GRID*              13980               09.7903934628E+018.1883250504E+01+
*       4.6150511174E+02               0
GRID*              13981               09.7213897415E+018.1239010644E+01+
*       4.6098207741E+02               0
GRID*              13982               09.8656866701E+018.2295957215E+01+
*       4.9088379865E+02               0
GRID*              13983               09.9522138306E+018.2557752881E+01+
*       4.9038162929E+02               0
GRID*              13984               09.8657144639E+018.2296069486E+01+
*       4.8987953018E+02               0
GRID*              13985               01.0459519025E+027.8851915293E+01+
*       5.2233610947E+02               0
GRID*              13986               01.0459602803E+027.7963031039E+01+
*       5.2285216106E+02               0
GRID*              13987               01.0459516992E+027.8851907861E+01+
*       5.2130508918E+02               0
GRID*              13988               01.0125705163E+027.4336755714E+01+
*       4.7440008193E+02               0
GRID*              13989               01.0125714620E+027.4336794841E+01+
*       4.7336909112E+02               0
GRID*              13990               01.0039713287E+027.4165916443E+01+
*       4.7285331364E+02               0
GRID*              13991               01.0039713287E+027.4165916443E+01+
*       4.7594609715E+02               0
GRID*              13992               01.0125705163E+027.4336755714E+01+
*       4.7543100976E+02               0
GRID*              13993               01.0442018204E+027.9708659076E+01+
*       5.5379348606E+02               0
GRID*              13994               01.0409759131E+028.0576883483E+01+
*       5.5429549518E+02               0
GRID*              13995               01.0442016458E+027.9708691512E+01+
*       5.5482466177E+02               0
GRID*              13996               01.0409023586E+028.0581199569E+01+
*       5.5532988610E+02               0
GRID*              13997               01.0358152607E+028.1237673998E+01+
*       5.5482300202E+02               0
GRID*              13998               01.0359312111E+028.1233251125E+01+
*       5.5377349569E+02               0
GRID*              13999               01.0288942103E+028.1884217242E+01+
*       5.5429970631E+02               0
GRID*              14000               09.6758279988E+017.6301873087E+01+
*       4.7439949909E+02               0
GRID*              14001               09.6371020528E+017.7102518759E+01+
*       4.7388345391E+02               0
GRID*              14002               09.6758303166E+017.6301818085E+01+
*       4.7336812814E+02               0
GRID*              14003               09.7246772708E+017.5573177874E+01+
*       4.7388353432E+02               0
GRID*              14004               01.0214128772E+028.2294178206E+01+
*       5.5379813698E+02               0
GRID*              14005               01.0214058636E+028.2294542452E+01+
*       5.5480184087E+02               0
GRID*              14006               09.8671156895E+017.4534041544E+01+
*       4.7182170085E+02               0
GRID*              14007               09.9537489235E+017.4336644021E+01+
*       4.7130684101E+02               0
GRID*              14008               09.9537327075E+017.4336711068E+01+
*       4.7233796765E+02               0
GRID*              14009               01.0039713287E+027.4165916443E+01+
*       4.7182238581E+02               0
GRID*              14010               01.0214073832E+028.2294447997E+01+
*       5.3830762162E+02               0
GRID*              14011               01.0214114310E+028.2294292905E+01+
*       5.3730376485E+02               0
GRID*              14012               01.0127607785E+028.2556738750E+01+
*       5.3780576658E+02               0
GRID*              14013               01.0039713287E+027.4165916443E+01+
*       4.7079145797E+02               0
GRID*              14014               01.0125701685E+027.4336741337E+01+
*       4.7130717165E+02               0
GRID*              14015               01.0127733397E+028.2580648417E+01+
*       5.3883675144E+02               0
GRID*              14016               01.0040133680E+028.2668344931E+01+
*       5.3833613882E+02               0
GRID*              14017               01.0040099982E+028.2668342619E+01+
*       5.3727549049E+02               0
GRID*              14018               09.9524553152E+018.2582039506E+01+
*       5.3677481727E+02               0
GRID*              14019               09.8660362713E+018.2297566391E+01+
*       5.3830770212E+02               0
GRID*              14020               09.9525005813E+018.2582119310E+01+
*       5.3883702420E+02               0
GRID*              14021               09.9525652880E+018.2558611687E+01+
*       5.3780559977E+02               0
GRID*              14022               09.8671405700E+017.4533921784E+01+
*       4.7079073908E+02               0
GRID*              14023               09.9537489235E+017.4336644021E+01+
*       4.7027591317E+02               0
GRID*              14024               09.8669682896E+017.4534699045E+01+
*       5.6563810116E+02               0
GRID*              14025               09.8669638863E+017.4534717278E+01+
*       5.6666898094E+02               0
GRID*              14026               09.8669982887E+017.4534561153E+01+
*       5.6873086072E+02               0
GRID*              14027               09.9536800928E+017.4336928300E+01+
*       5.6821433390E+02               0
GRID*              14028               09.8669835192E+017.4534622268E+01+
*       5.6769993339E+02               0
GRID*              14029               01.0125714620E+027.4336794841E+01+
*       4.7233816329E+02               0
GRID*              14030               09.9536806354E+017.4336926025E+01+
*       5.5996691974E+02               0
GRID*              14031               09.9536756928E+017.4336946489E+01+
*       5.6099786144E+02               0
GRID*              14032               09.8670012982E+017.4534548208E+01+
*       5.5739059839E+02               0
GRID*              14033               09.8669910979E+017.4534590431E+01+
*       5.5842155648E+02               0
GRID*              14034               09.7940049654E+017.5021723249E+01+
*       5.5996811691E+02               0
GRID*              14035               09.8669778898E+017.4534652838E+01+
*       5.5945249768E+02               0
GRID*              14036               09.8669729473E+017.4534673302E+01+
*       5.6048343939E+02               0
GRID*              14037               09.7940131132E+017.5021641870E+01+
*       5.5893716210E+02               0
GRID*              14038               01.0459636172E+027.7966055903E+01+
*       4.7130547823E+02               0
GRID*              14039               01.0040109031E+028.2668300702E+01+
*       5.6101654896E+02               0
GRID*              14040               09.9526140187E+018.2558352717E+01+
*       5.6048640876E+02               0
GRID*              14041               09.9524823593E+018.2582368543E+01+
*       5.6151792029E+02               0
GRID*              14042               09.8660244234E+018.2297542222E+01+
*       5.6305047950E+02               0
GRID*              14043               09.9524661703E+018.2582330226E+01+
*       5.6358004304E+02               0
GRID*              14044               01.0040085562E+028.2668301317E+01+
*       5.6307862745E+02               0
GRID*              14045               09.9525887219E+018.2558338249E+01+
*       5.6254850742E+02               0
GRID*              14046               09.8660729541E+018.2297659081E+01+
*       5.5998445780E+02               0
GRID*              14047               01.0459735194E+027.8856551148E+01+
*       4.7078920554E+02               0
GRID*              14048               01.0408274605E+028.0590093688E+01+
*       4.6872365759E+02               0
GRID*              14049               01.0354857311E+027.5574383131E+01+
*       4.8625631066E+02               0
GRID*              14050               01.0125711009E+027.4336779881E+01+
*       4.8367831759E+02               0
GRID*              14051               01.0212384815E+027.4534370336E+01+
*       4.8316285034E+02               0
GRID*              14052               01.0212365334E+027.4534277327E+01+
*       4.8419388529E+02               0
GRID*              14053               01.0285251741E+027.5020378765E+01+
*       5.3522522976E+02               0
GRID*              14054               01.0403653633E+027.6302975734E+01+
*       5.3213263268E+02               0
GRID*              14055               01.0403629247E+027.6302670208E+01+
*       5.3316362842E+02               0
GRID*              14056               01.0354818561E+027.5573947249E+01+
*       5.3264801708E+02               0
GRID*              14057               01.0285319683E+027.5020854402E+01+
*       4.8367857742E+02               0
GRID*              14058               01.0403583220E+027.6302768386E+01+
*       5.3419477001E+02               0
GRID*              14059               01.0354784208E+027.5573542294E+01+
*       5.3471007449E+02               0
GRID*              14060               01.0212359422E+027.4534258175E+01+
*       4.8625590886E+02               0
GRID*              14061               01.0212352383E+027.4534223753E+01+
*       4.8522486459E+02               0
GRID*              14062               01.0285301856E+027.5020777906E+01+
*       4.8574065420E+02               0
GRID*              14063               01.0285308894E+027.5020812328E+01+
*       4.8677169847E+02               0
GRID*              14064               01.0039713287E+027.4165916443E+01+
*       4.4192547859E+02               0
GRID*              14065               01.0039713287E+027.4165916443E+01+
*       4.4295640643E+02               0
GRID*              14066               09.9537217568E+017.4336756182E+01+
*       4.4244006772E+02               0
GRID*              14067               01.0125740418E+027.4336901731E+01+
*       4.4244010968E+02               0
GRID*              14068               09.9522927145E+018.2582147743E+01+
*       5.2233651724E+02               0
GRID*              14069               09.8658460747E+018.2296679346E+01+
*       5.2286600317E+02               0
GRID*              14070               01.0039713287E+027.4165916443E+01+
*       4.4398733426E+02               0
GRID*              14071               01.0039713287E+027.4165916443E+01+
*       4.4501826210E+02               0
GRID*              14072               09.9537160573E+017.4336779765E+01+
*       4.4450195016E+02               0
GRID*              14073               01.0125729287E+027.4336855665E+01+
*       4.4450183542E+02               0
GRID*              14074               01.0125729287E+027.4336855665E+01+
*       4.4347090759E+02               0
GRID*              14075               01.0212381750E+027.4534335920E+01+
*       4.4295630686E+02               0
GRID*              14076               01.0212408742E+027.4534465327E+01+
*       4.4398711163E+02               0
GRID*              14077               09.8027574167E+018.1978877588E+01+
*       5.8833037514E+02               0
GRID*              14078               09.7246070602E+017.5573992109E+01+
*       4.4192409754E+02               0
GRID*              14079               09.9537130616E+017.4336792135E+01+
*       4.4037825720E+02               0
GRID*              14080               01.0373063236E+028.1040885099E+01+
*       5.9511327265E+02               0
GRID*              14081               01.0380924933E+028.0921910648E+01+
*       5.9442844588E+02               0
GRID*              14082               09.7940215983E+017.5021585924E+01+
*       5.6718465202E+02               0
GRID*              14083               09.7473789361E+018.1467225261E+01+
*       5.9090537141E+02               0
GRID*              14084               09.7398672123E+018.1404679441E+01+
*       5.8993057237E+02               0
GRID*              14085               01.0212392881E+027.4534381986E+01+
*       4.4192550895E+02               0
GRID*              14086               09.7574599143E+018.1553284472E+01+
*       5.9290095664E+02               0
GRID*              14087               01.0039713287E+027.4165916443E+01+
*       4.3986362292E+02               0
GRID*              14088               01.0039713287E+027.4165916443E+01+
*       4.4089455076E+02               0
GRID*              14089               01.0445371562E+027.9681637763E+01+
*       5.9364737969E+02               0
GRID*              14090               01.0410715607E+028.0366719462E+01+
*       5.9327439816E+02               0
GRID*              14091               01.0421882800E+028.0202190423E+01+
*       5.9401096579E+02               0
GRID*              14092               01.0125728643E+027.4336853017E+01+
*       4.3934736458E+02               0
GRID*              14093               01.0039713287E+027.4165916443E+01+
*       4.4604918993E+02               0
GRID*              14094               01.0125744397E+027.4336918178E+01+
*       4.4553273145E+02               0
GRID*              14095               09.7909885112E+018.1888175800E+01+
*       5.7492783784E+02               0
GRID*              14096               09.7201971848E+018.1236564809E+01+
*       5.7545218204E+02               0
GRID*              14097               09.7940956558E+018.1823541416E+01+
*       5.7595517738E+02               0
GRID*              14098               09.9537256616E+017.4336740056E+01+
*       4.4553283995E+02               0
GRID*              14099               01.0127741709E+028.2579653367E+01+
*       5.7596153865E+02               0
GRID*              14100               01.0127563184E+028.2558058822E+01+
*       5.7492931033E+02               0
GRID*              14101               01.0212423851E+027.4534527841E+01+
*       4.4501800766E+02               0
GRID*              14102               01.0038936411E+027.4165731222E+01+
*       6.1305537281E+02               0
GRID*              14103               01.0117179375E+027.4213842426E+01+
*       6.1344479248E+02               0
GRID*              14104               01.0442434630E+027.7105532229E+01+
*       4.3676986215E+02               0
GRID*              14105               01.0459641669E+027.7966342403E+01+
*       4.3625353944E+02               0
GRID*              14106               01.0459639506E+027.7966256327E+01+
*       4.3728496207E+02               0
GRID*              14107               09.8670599629E+017.4534290475E+01+
*       4.4501763608E+02               0
GRID*              14108               01.0207469593E+027.4483803795E+01+
*       6.1186008105E+02               0
GRID*              14109               09.8670818697E+017.4534192801E+01+
*       4.4811041301E+02               0
GRID*              14110               09.7941766812E+017.5020260782E+01+
*       4.4862504937E+02               0
GRID*              14111               09.9537256616E+017.4336740056E+01+
*       4.4656376778E+02               0
GRID*              14112               01.0039713287E+027.4165916443E+01+
*       4.4708011777E+02               0
GRID*              14113               09.9537364356E+017.4336695517E+01+
*       4.4759467370E+02               0
GRID*              14114               01.0212441462E+027.4534611433E+01+
*       4.5120287805E+02               0
GRID*              14115               09.9489677769E+017.4357059490E+01+
*       6.0013813520E+02               0
GRID*              14116               09.8622029969E+017.4555083194E+01+
*       5.9962504550E+02               0
GRID*              14117               09.7870693086E+017.5093785986E+01+
*       5.9907896781E+02               0
GRID*              14118               09.7195683809E+017.5622926959E+01+
*       5.9864355474E+02               0
GRID*              14119               09.7954329673E+018.1818870284E+01+
*       4.2754394440E+02               0
GRID*              14120               09.8659773037E+018.2297283521E+01+
*       4.3009404042E+02               0
GRID*              14121               09.7942161603E+018.1820161587E+01+
*       4.2956123447E+02               0
GRID*              14122               09.9519487448E+018.2582655336E+01+
*       4.2956336110E+02               0
GRID*              14123               01.0038191115E+028.2668854897E+01+
*       4.2908418501E+02               0
GRID*              14124               09.9507257189E+018.2550237985E+01+
*       4.2854832741E+02               0
GRID*              14125               09.7853547916E+017.5051517399E+01+
*       5.9596871772E+02               0
GRID*              14126               09.8523688639E+017.4608516744E+01+
*       5.9549175218E+02               0
GRID*              14127               01.0036743821E+028.2667184686E+01+
*       4.2802405692E+02               0
GRID*              14128               09.8670286571E+017.4534401540E+01+
*       4.3161482635E+02               0
GRID*              14129               09.9536681557E+017.4336977902E+01+
*       4.3213100610E+02               0
GRID*              14130               09.9536859526E+017.4336904259E+01+
*       4.3419282411E+02               0
GRID*              14131               01.0410349009E+028.0562477511E+01+
*       5.8113401850E+02               0
GRID*              14132               01.0409402075E+028.0566445053E+01+
*       5.8216346789E+02               0
GRID*              14133               01.0039713287E+027.4165916443E+01+
*       4.3264712808E+02               0
GRID*              14134               01.0039713287E+027.4165916443E+01+
*       4.3161620024E+02               0
GRID*              14135               01.0442998340E+027.9708899911E+01+
*       5.8064740831E+02               0
GRID*              14136               01.0459515596E+027.8844946725E+01+
*       5.8009425011E+02               0
GRID*              14137               01.0125681951E+027.4336659937E+01+
*       4.3006858585E+02               0
GRID*              14138               01.0125681951E+027.4336659937E+01+
*       4.2903765802E+02               0
GRID*              14139               01.0212594998E+027.4535396901E+01+
*       4.2955250063E+02               0
GRID*              14140               09.7976163835E+018.1944154049E+01+
*       5.8525747626E+02               0
GRID*              14141               09.6734725810E+018.0632131091E+01+
*       5.8421818819E+02               0
GRID*              14142               01.0359453516E+028.1232364291E+01+
*       5.5995854134E+02               0
GRID*              14143               09.6209418778E+017.7970651634E+01+
*       5.7750063407E+02               0
GRID*              14144               09.6209392883E+017.7974698730E+01+
*       5.7853223122E+02               0
GRID*              14145               01.0285358706E+027.5021174588E+01+
*       4.3625413101E+02               0
GRID*              14146               01.0285349043E+027.5021127764E+01+
*       4.3728525842E+02               0
GRID*              14147               01.0212411599E+027.4534476081E+01+
*       4.3780144987E+02               0
GRID*              14148               01.0212421263E+027.4534522905E+01+
*       4.3677032246E+02               0
GRID*              14149               01.0212410103E+027.4534476742E+01+
*       4.3573935792E+02               0
GRID*              14150               01.0127784683E+028.2580389661E+01+
*       5.4502255719E+02               0
GRID*              14151               01.0214115041E+028.2294294086E+01+
*       5.4449333760E+02               0
GRID*              14152               01.0212631558E+027.4535548099E+01+
*       4.3058367100E+02               0
GRID*              14153               01.0286105722E+028.1819387306E+01+
*       5.4502218732E+02               0
GRID*              14154               01.0213961538E+028.2294993596E+01+
*       5.2699149816E+02               0
GRID*              14155               01.0411467431E+028.0379626584E+01+
*       5.9716187545E+02               0
GRID*              14156               01.0412781049E+028.0360833087E+01+
*       5.9638443248E+02               0
GRID*              14157               01.0442170253E+027.9709329789E+01+
*       5.6204560763E+02               0
GRID*              14158               01.0409139693E+028.0581407984E+01+
*       5.6151877844E+02               0
GRID*              14159               01.0409917274E+028.0580541267E+01+
*       5.6254197668E+02               0
GRID*              14160               01.0412779012E+028.0360863344E+01+
*       5.9563262412E+02               0
GRID*              14161               01.0373031765E+028.1041240164E+01+
*       5.9601088848E+02               0
GRID*              14162               01.0461684229E+027.8006733819E+01+
*       6.0106754666E+02               0
GRID*              14163               01.0463021876E+027.7856029954E+01+
*       6.0008524035E+02               0
GRID*              14164               01.0460786591E+027.9012264064E+01+
*       6.0049598303E+02               0
GRID*              14165               01.0462834751E+027.8836661637E+01+
*       5.9950692098E+02               0
GRID*              14166               09.7938768451E+018.1822838052E+01+
*       5.2646229767E+02               0
GRID*              14167               01.0461615253E+027.7849361324E+01+
*       5.9905022278E+02               0
GRID*              14168               01.0444724454E+027.7124549388E+01+
*       6.0064753298E+02               0
GRID*              14169               09.7909548728E+018.1887603244E+01+
*       5.2543052510E+02               0
GRID*              14170               09.7213758938E+018.1241538479E+01+
*       5.2595525777E+02               0
GRID*              14171               09.7205053214E+018.1237551715E+01+
*       5.2490506074E+02               0
GRID*              14172               09.7938360895E+018.1822225996E+01+
*       5.2439942856E+02               0
GRID*              14173               09.8658342670E+018.2296673291E+01+
*       5.2492887105E+02               0
GRID*              14174               01.0409379955E+028.0580740919E+01+
*       5.1717721305E+02               0
GRID*              14175               01.0446817218E+027.7218573049E+01+
*       6.0165574085E+02               0
GRID*              14176               01.0359023555E+028.1235930413E+01+
*       5.1564387093E+02               0
GRID*              14177               01.0288783037E+028.1884977481E+01+
*       5.1511827061E+02               0
GRID*              14178               09.7900704521E+017.5065889170E+01+
*       5.9193780969E+02               0
GRID*              14179               09.7893485671E+017.5069345008E+01+
*       5.9092661581E+02               0
GRID*              14180               09.8649864753E+017.4542657475E+01+
*       5.9140461546E+02               0
GRID*              14181               09.8642645902E+017.4546113313E+01+
*       5.9039342157E+02               0
GRID*              14182               01.0285262260E+027.5020410521E+01+
*       5.0635894677E+02               0
GRID*              14183               01.0212340044E+027.4534172958E+01+
*       5.0584310258E+02               0
GRID*              14184               01.0039713287E+027.4165916443E+01+
*       5.9244094251E+02               0
GRID*              14185               01.0039713287E+027.4165916443E+01+
*       5.9141001467E+02               0
GRID*              14186               09.9502761187E+017.4351343402E+01+
*       5.9194369434E+02               0
GRID*              14187               09.8642443445E+017.4545856290E+01+
*       5.9244133007E+02               0
GRID*              14188               09.9510182495E+017.4348144586E+01+
*       5.9090697973E+02               0
GRID*              14189               01.0039713287E+027.4165916443E+01+
*       5.9037908684E+02               0
GRID*              14190               01.0358202012E+028.1239451157E+01+
*       5.2490636499E+02               0
GRID*              14191               01.0127007599E+027.4342190257E+01+
*       5.9086611884E+02               0
GRID*              14192               01.0460611780E+027.8011744754E+01+
*       4.2170190701E+02               0
GRID*              14193               01.0442472404E+027.7127954153E+01+
*       4.2120027010E+02               0
GRID*              14194               01.0460587793E+027.7980075948E+01+
*       4.2059844706E+02               0
GRID*              14195               01.0459204462E+027.8848185904E+01+
*       4.2007342525E+02               0
GRID*              14196               01.0458828404E+027.8863646419E+01+
*       4.1900621035E+02               0
GRID*              14197               09.6207476797E+017.9087689360E+01+
*       4.2341184952E+02               0
GRID*              14198               09.6211611831E+017.9105878996E+01+
*       4.2234175925E+02               0
GRID*              14199               09.6457410855E+017.9905064203E+01+
*       4.2395977231E+02               0
GRID*              14200               09.6461545889E+017.9923253838E+01+
*       4.2288968204E+02               0
GRID*              14201               09.6380278069E+017.9743151937E+01+
*       4.2698421174E+02               0
GRID*              14202               09.6407973947E+017.9804434848E+01+
*       4.2599387493E+02               0
GRID*              14203               09.6751819351E+018.0688302452E+01+
*       4.2651313758E+02               0
GRID*              14204               09.7246095026E+017.5573908612E+01+
*       4.8419339081E+02               0
GRID*              14205               09.7941485450E+017.5020612454E+01+
*       4.8470920296E+02               0
GRID*              14206               09.7246002586E+017.5574024430E+01+
*       4.8522458167E+02               0
GRID*              14207               09.6757530953E+017.6303316926E+01+
*       4.8574028187E+02               0
GRID*              14208               09.9487545464E+018.2540101922E+01+
*       4.2656831080E+02               0
GRID*              14209               01.0034494260E+028.2665557278E+01+
*       4.2606818307E+02               0
GRID*              14210               09.6370505871E+017.7104413752E+01+
*       4.8625584601E+02               0
GRID*              14211               09.7246019820E+017.5574007235E+01+
*       4.8625553309E+02               0
GRID*              14212               09.6928714301E+018.0856184384E+01+
*       4.2244423301E+02               0
GRID*              14213               01.0286091161E+028.1820076771E+01+
*       5.5945654343E+02               0
GRID*              14214               09.6368465853E+017.7108716113E+01+
*       4.3161443227E+02               0
GRID*              14215               01.0285397112E+027.5021507772E+01+
*       4.5274790038E+02               0
GRID*              14216               01.0212432681E+027.4534574032E+01+
*       4.5326440597E+02               0
GRID*              14217               01.0212424118E+027.4534539668E+01+
*       4.5017186242E+02               0
GRID*              14218               01.0285384272E+027.5021372602E+01+
*       4.5068622959E+02               0
GRID*              14219               01.0358001957E+028.1238697578E+01+
*       5.6100876004E+02               0
GRID*              14220               01.0288939409E+028.1884285623E+01+
*       5.6048582900E+02               0
GRID*              14221               01.0214021159E+028.2294714018E+01+
*       5.6098789204E+02               0
GRID*              14222               01.0286078428E+028.1819897969E+01+
*       5.6151850637E+02               0
GRID*              14223               01.0354939488E+027.5575271232E+01+
*       4.5326292616E+02               0
GRID*              14224               01.0354954585E+027.5575460006E+01+
*       4.5223256668E+02               0
GRID*              14225               01.0125727535E+027.4336848382E+01+
*       4.5068711547E+02               0
GRID*              14226               09.7934556090E+018.1820946498E+01+
*       4.5222862800E+02               0
GRID*              14227               09.8653823324E+018.2294583190E+01+
*       4.5170156387E+02               0
GRID*              14228               09.7905339895E+018.1884098435E+01+
*       4.5120064995E+02               0
GRID*              14229               09.7201931938E+018.1235806882E+01+
*       4.5172572254E+02               0
GRID*              14230               01.0039387436E+028.2668319491E+01+
*       4.5172871948E+02               0
GRID*              14231               01.0125735327E+027.4336880683E+01+
*       4.3728554445E+02               0
GRID*              14232               01.0459643970E+027.7966740999E+01+
*       4.4243978350E+02               0
GRID*              14233               01.0442443736E+027.7105854346E+01+
*       4.4295605163E+02               0
GRID*              14234               01.0442446151E+027.7105949389E+01+
*       4.4192489963E+02               0
GRID*              14235               01.0039713287E+027.4165916443E+01+
*       5.7491516931E+02               0
GRID*              14236               01.0213470655E+028.2297182889E+01+
*       4.4964013058E+02               0
GRID*              14237               01.0127064505E+028.2582080877E+01+
*       4.5016910828E+02               0
GRID*              14238               01.0039424826E+028.2668416386E+01+
*       4.5066946821E+02               0
GRID*              14239               01.0354947032E+027.5575409848E+01+
*       4.5738562032E+02               0
GRID*              14240               01.0354929053E+027.5575184623E+01+
*       4.5635516048E+02               0
GRID*              14241               01.0403767698E+027.6305051997E+01+
*       4.5583889287E+02               0
GRID*              14242               01.0403785677E+027.6305277221E+01+
*       4.5686935271E+02               0
GRID*              14243               01.0285445577E+028.1824122847E+01+
*       4.5017058622E+02               0
GRID*              14244               01.0288405302E+028.1887777380E+01+
*       4.5119903055E+02               0
GRID*              14245               01.0403763620E+027.6304945518E+01+
*       4.5480768671E+02               0
GRID*              14246               01.0442466225E+027.7106820910E+01+
*       4.5429210722E+02               0
GRID*              14247               01.0442463012E+027.7106694397E+01+
*       4.5532218447E+02               0
GRID*              14248               09.6370247935E+017.7105349824E+01+
*       5.0378406218E+02               0
GRID*              14249               09.6756991716E+017.6304348173E+01+
*       5.0429916693E+02               0
GRID*              14250               09.6370178985E+017.7105704605E+01+
*       5.0481431338E+02               0
GRID*              14251               01.0125737837E+027.4336890971E+01+
*       4.5790385769E+02               0
GRID*              14252               09.6371143961E+017.7101886710E+01+
*       4.6769518851E+02               0
GRID*              14253               01.0212406224E+027.4534455772E+01+
*       4.5532593337E+02               0
GRID*              14254               01.0212419686E+027.4534511489E+01+
*       4.5429502080E+02               0
GRID*              14255               01.0285368655E+027.5021164212E+01+
*       4.3316095578E+02               0
GRID*              14256               01.0285457714E+027.5021593149E+01+
*       4.3212976629E+02               0
GRID*              14257               09.9536440410E+017.4337077585E+01+
*       5.7543085826E+02               0
GRID*              14258               09.8669514850E+017.4534751168E+01+
*       5.7594810115E+02               0
GRID*              14259               09.8669408867E+017.4534802243E+01+
*       5.7491691998E+02               0
GRID*              14260               01.0409203540E+028.0583919858E+01+
*       4.8625422822E+02               0
GRID*              14261               01.0408453639E+028.0591493310E+01+
*       4.8522557527E+02               0
GRID*              14262               01.0357803715E+028.1241947911E+01+
*       4.8678068932E+02               0
GRID*              14263               01.0358833808E+028.1238217237E+01+
*       4.8573102661E+02               0
GRID*              14264               01.0442794552E+027.9715713859E+01+
*       4.8677318685E+02               0
GRID*              14265               01.0442814422E+027.9715681971E+01+
*       4.8780456526E+02               0
GRID*              14266               01.0459801322E+027.8854332756E+01+
*       4.8625676819E+02               0
GRID*              14267               01.0408438116E+028.0582808880E+01+
*       4.8935077578E+02               0
GRID*              14268               01.0442388879E+027.7104596826E+01+
*       4.8831913170E+02               0
GRID*              14269               01.0459621628E+027.7964693641E+01+
*       4.8883488552E+02               0
GRID*              14270               01.0442391150E+027.7104655800E+01+
*       4.8935026525E+02               0
GRID*              14271               01.0403686478E+027.6303533295E+01+
*       4.8883443789E+02               0
GRID*              14272               09.6365544104E+017.9712272556E+01+
*       4.6099078913E+02               0
GRID*              14273               09.6196028383E+017.8851317186E+01+
*       4.6047558005E+02               0
GRID*              14274               01.0403680194E+027.6303454784E+01+
*       4.8986566984E+02               0
GRID*              14275               01.0442383901E+027.7104359926E+01+
*       4.9038167531E+02               0
GRID*              14276               01.0442392192E+027.7104559174E+01+
*       4.9141270853E+02               0
GRID*              14277               01.0403688485E+027.6303654032E+01+
*       4.9089670306E+02               0
GRID*              14278               09.6365700817E+017.9712926115E+01+
*       4.5789913088E+02               0
GRID*              14279               09.6196172785E+017.8851851975E+01+
*       4.5738398804E+02               0
GRID*              14280               09.6196173506E+017.8851943049E+01+
*       4.5841507853E+02               0
GRID*              14281               01.0039713287E+027.4165916443E+01+
*       5.7594609715E+02               0
GRID*              14282               09.9536440410E+017.4337077585E+01+
*       5.7646178609E+02               0
GRID*              14283               01.0125706102E+027.4336760011E+01+
*       5.7336883209E+02               0
GRID*              14284               09.7214953979E+018.1240181948E+01+
*       4.5273770992E+02               0
GRID*              14285               09.6365940011E+017.9713835308E+01+
*       4.5377727889E+02               0
GRID*              14286               09.6701097875E+018.0582926477E+01+
*       4.5326472477E+02               0
GRID*              14287               01.0408976019E+028.0588134658E+01+
*       4.5943986881E+02               0
GRID*              14288               01.0408209095E+028.0591159579E+01+
*       4.6047605861E+02               0
GRID*              14289               01.0442633601E+027.9719915183E+01+
*       4.5996009150E+02               0
GRID*              14290               09.6203397937E+017.8853856931E+01+
*       5.7698685227E+02               0
GRID*              14291               09.6200757803E+017.8854626230E+01+
*       5.7595388011E+02               0
GRID*              14292               09.7939676078E+017.5022425575E+01+
*       4.3109938344E+02               0
GRID*              14293               01.0285392080E+028.1824689746E+01+
*       4.5841209730E+02               0
GRID*              14294               01.0213365954E+028.2297627271E+01+
*       4.5894051614E+02               0
GRID*              14295               01.0358560915E+028.1241265557E+01+
*       4.5891773562E+02               0
GRID*              14296               01.0288322741E+028.1888459321E+01+
*       4.5944234878E+02               0
GRID*              14297               09.7860369662E+017.5103094319E+01+
*       4.2181289577E+02               0
GRID*              14298               01.0213335132E+028.2297736698E+01+
*       4.5994500903E+02               0
GRID*              14299               09.6292936590E+017.7320315461E+01+
*       4.2127112397E+02               0
GRID*              14300               01.0039713287E+027.4165916443E+01+
*       5.8006980849E+02               0
GRID*              14301               09.6211343033E+017.8201735193E+01+
*       4.2182951602E+02               0
GRID*              14302               01.0409353624E+028.0580835590E+01+
*       5.1305350410E+02               0
GRID*              14303               01.0408247152E+028.0595306689E+01+
*       4.5841233866E+02               0
GRID*              14304               09.6223886438E+017.9275278602E+01+
*       4.2021925757E+02               0
GRID*              14305               01.0409012151E+028.0588206999E+01+
*       4.6150206853E+02               0
GRID*              14306               01.0408225626E+028.0590875169E+01+
*       4.6253835152E+02               0
GRID*              14307               09.7215237219E+018.1240506401E+01+
*       4.5067703423E+02               0
GRID*              14308               09.6701323630E+018.0582437109E+01+
*       4.7387972443E+02               0
GRID*              14309               09.6365710822E+017.9713107346E+01+
*       4.7336797576E+02               0
GRID*              14310               09.6365840730E+017.9713422797E+01+
*       4.7439931278E+02               0
GRID*              14311               09.6709031410E+018.0581859106E+01+
*       4.7491405267E+02               0
GRID*              14312               09.6708048887E+018.0588940334E+01+
*       4.7285140495E+02               0
GRID*              14313               01.0417429980E+027.6477883902E+01+
*       4.1680729035E+02               0
GRID*              14314               01.0439269066E+027.7035421616E+01+
*       4.1749836069E+02               0
GRID*              14315               01.0454125737E+027.7473194051E+01+
*       4.1684335306E+02               0
GRID*              14316               09.8653688464E+018.2294530451E+01+
*       4.7131758958E+02               0
GRID*              14317               09.8652823954E+018.2294075310E+01+
*       4.7025909095E+02               0
GRID*              14318               09.7934150736E+018.1820164412E+01+
*       4.7078689976E+02               0
GRID*              14319               09.8653275633E+018.2294356262E+01+
*       4.6925419221E+02               0
GRID*              14320               09.7904415072E+018.1883601642E+01+
*       4.6975655056E+02               0
GRID*              14321               09.7204119400E+018.1235901511E+01+
*       4.7335730529E+02               0
GRID*              14322               09.8654675651E+018.2294959342E+01+
*       4.7544340580E+02               0
GRID*              14323               09.7905713504E+018.1884475178E+01+
*       4.7594564313E+02               0
GRID*              14324               09.8654465479E+018.2294856070E+01+
*       4.7644743258E+02               0
GRID*              14325               09.6196220065E+017.8851955261E+01+
*       4.7388318435E+02               0
GRID*              14326               01.0039713287E+027.4165916443E+01+
*       5.7697702498E+02               0
GRID*              14327               01.0442412020E+027.7105347954E+01+
*       4.7903905710E+02               0
GRID*              14328               01.0403701643E+027.6304001853E+01+
*       4.8161675118E+02               0
GRID*              14329               01.0403698526E+027.6304003406E+01+
*       4.8264768069E+02               0
GRID*              14330               01.0403690554E+027.6303903794E+01+
*       4.8367880994E+02               0
GRID*              14331               09.6196406101E+017.8854435517E+01+
*       4.8831841875E+02               0
GRID*              14332               09.6196407996E+017.8854432260E+01+
*       4.8728704977E+02               0
GRID*              14333               01.0459071877E+027.7797934857E+01+
*       4.1770153829E+02               0
GRID*              14334               01.0459906166E+027.7836475192E+01+
*       4.1854604102E+02               0
GRID*              14335               09.6370477521E+017.7104480585E+01+
*       4.8831808429E+02               0
GRID*              14336               09.6370410004E+017.7104824853E+01+
*       4.8934935515E+02               0
GRID*              14337               09.6198172901E+017.7965434852E+01+
*       4.8883396635E+02               0
GRID*              14338               09.6196405775E+017.8854242112E+01+
*       4.8625588949E+02               0
GRID*              14339               09.6366448070E+017.9715319330E+01+
*       4.8677224862E+02               0
GRID*              14340               09.6370019837E+017.7105200201E+01+
*       4.3470605641E+02               0
GRID*              14341               09.8653879789E+018.2294558609E+01+
*       4.5275824297E+02               0
GRID*              14342               09.7938815870E+018.1822652417E+01+
*       5.2233643177E+02               0
GRID*              14343               09.8658362218E+018.2296616801E+01+
*       5.2180711836E+02               0
GRID*              14344               09.7909262642E+018.1887436725E+01+
*       5.2130460374E+02               0
GRID*              14345               09.7213758820E+018.1241466243E+01+
*       5.2182961332E+02               0
GRID*              14346               01.0285384117E+027.5021445229E+01+
*       4.5377851521E+02               0
GRID*              14347               09.7205190160E+018.1237636628E+01+
*       5.2077912155E+02               0
GRID*              14348               09.7938348900E+018.1822131362E+01+
*       5.2027354933E+02               0
GRID*              14349               01.0039881502E+028.2668328705E+01+
*       5.2077453477E+02               0
GRID*              14350               01.0039879997E+028.2668366765E+01+
*       5.1977304917E+02               0
GRID*              14351               09.9522882136E+018.2582143203E+01+
*       5.2027378168E+02               0
GRID*              14352               01.0127461525E+028.2557722067E+01+
*       5.2130508975E+02               0
GRID*              14353               01.0213921714E+028.2295203829E+01+
*       5.2286591339E+02               0
GRID*              14354               01.0127529623E+028.2580598757E+01+
*       5.2233634876E+02               0
GRID*              14355               01.0127539784E+028.2580559588E+01+
*       5.2027343795E+02               0
GRID*              14356               09.9536864648E+017.4336901956E+01+
*       5.7439988129E+02               0
GRID*              14357               09.8669833105E+017.4534626613E+01+
*       5.7388594302E+02               0
GRID*              14358               09.9536864648E+017.4336901956E+01+
*       5.7336895346E+02               0
GRID*              14359               01.0357641098E+028.1243514284E+01+
*       4.3522998274E+02               0
GRID*              14360               01.0442666737E+027.9718858840E+01+
*       4.3419086739E+02               0
GRID*              14361               01.0409082115E+028.0587077710E+01+
*       4.3470375168E+02               0
GRID*              14362               01.0358878978E+028.1239827831E+01+
*       4.3417935350E+02               0
GRID*              14363               01.0288498060E+028.1886913064E+01+
*       4.3470548029E+02               0
GRID*              14364               01.0285598114E+028.1823424905E+01+
*       4.3573928661E+02               0
GRID*              14365               01.0288578120E+028.1886442090E+01+
*       4.3676829969E+02               0
GRID*              14366               01.0213704300E+028.2296056422E+01+
*       4.3626639521E+02               0
GRID*              14367               09.6366841982E+017.9716502965E+01+
*       5.0636221198E+02               0
GRID*              14368               09.6366833268E+017.9716451467E+01+
*       5.0533205676E+02               0
GRID*              14369               09.6196471278E+017.8855798821E+01+
*       5.0584572014E+02               0
GRID*              14370               09.6198326667E+017.7966563461E+01+
*       5.0945192596E+02               0
GRID*              14371               09.6370232687E+017.7105539578E+01+
*       5.0893634220E+02               0
GRID*              14372               09.6370141781E+017.7105757935E+01+
*       5.0996688292E+02               0
GRID*              14373               09.7941190129E+017.5020884998E+01+
*       5.0120603964E+02               0
GRID*              14374               09.7941010750E+017.5020971036E+01+
*       5.0017509310E+02               0
GRID*              14375               09.8670334347E+017.4534393501E+01+
*       5.0068961336E+02               0
GRID*              14376               09.8670154969E+017.4534479540E+01+
*       4.9965866682E+02               0
GRID*              14377               09.6148569956E+017.8495910378E+01+
*       6.1511339476E+02               0
GRID*              14378               09.6700144955E+018.0581410659E+01+
*       4.6769660019E+02               0
GRID*              14379               09.6708122055E+018.0584317844E+01+
*       4.6872322542E+02               0
GRID*              14380               09.7200813122E+018.1234576580E+01+
*       4.6822022557E+02               0
GRID*              14381               09.7213868156E+018.1238955606E+01+
*       4.6716990573E+02               0
GRID*              14382               01.0455084627E+027.9273271618E+01+
*       5.9876762821E+02               0
GRID*              14383               01.0465705755E+027.8516020592E+01+
*       5.9853041069E+02               0
GRID*              14384               01.0417164627E+028.0350954799E+01+
*       5.9871104433E+02               0
GRID*              14385               01.0431949866E+027.9857961693E+01+
*       5.9924460509E+02               0
GRID*              14386               01.0441724760E+027.9813989121E+01+
*       5.9823726759E+02               0
GRID*              14387               01.0221470642E+027.4572539373E+01+
*       5.9663023628E+02               0
GRID*              14388               01.0300155920E+027.5077403501E+01+
*       5.9718631753E+02               0
GRID*              14389               09.6370073902E+017.9716789624E+01+
*       5.4554456486E+02               0
GRID*              14390               09.6367327683E+017.9717832365E+01+
*       5.4451317254E+02               0
GRID*              14391               09.7940382915E+018.1824125885E+01+
*       5.4914549448E+02               0
GRID*              14392               09.7911618943E+018.1889159814E+01+
*       5.5017656714E+02               0
GRID*              14393               09.7206769752E+018.1239167725E+01+
*       5.4965066135E+02               0
GRID*              14394               09.6202224681E+017.8168312952E+01+
*       5.9111217846E+02               0
GRID*              14395               09.6335877302E+017.7216537564E+01+
*       5.9046446487E+02               0
GRID*              14396               09.6341511503E+017.7201497835E+01+
*       5.9146089494E+02               0
GRID*              14397               09.6719375516E+017.6392469216E+01+
*       5.8992344641E+02               0
GRID*              14398               09.6724974230E+017.6377522479E+01+
*       5.8887076095E+02               0
GRID*              14399               09.6341476016E+017.7201590827E+01+
*       5.8941177941E+02               0
GRID*              14400               09.7215072772E+018.1243067391E+01+
*       5.4451526373E+02               0
GRID*              14401               01.0039713287E+027.4165916443E+01+
*       5.7285331364E+02               0
GRID*              14402               01.0039713287E+027.4165916443E+01+
*       5.7388424148E+02               0
GRID*              14403               09.6724699067E+017.6385774143E+01+
*       5.9096396663E+02               0
GRID*              14404               09.6730333268E+017.6370734414E+01+
*       5.9196039670E+02               0
GRID*              14405               09.7911783122E+018.1889061630E+01+
*       5.4399113727E+02               0
GRID*              14406               09.7940450783E+018.1824533728E+01+
*       5.4502194832E+02               0
GRID*              14407               09.7206554349E+018.1239260667E+01+
*       5.4245512986E+02               0
GRID*              14408               09.6710144978E+018.0590993451E+01+
*       5.4295908485E+02               0
GRID*              14409               09.7206586175E+018.1239402971E+01+
*       5.4346537255E+02               0
GRID*              14410               09.9526571815E+018.2558596140E+01+
*       5.4605328787E+02               0
GRID*              14411               09.6199776164E+017.8855989757E+01+
*       5.4605259358E+02               0
GRID*              14412               09.6198574959E+017.7967530527E+01+
*       5.4656766494E+02               0
GRID*              14413               09.7244547171E+017.5575692166E+01+
*       5.4295860349E+02               0
GRID*              14414               09.7204487777E+017.5617847628E+01+
*       5.8937846148E+02               0
GRID*              14415               09.7209811328E+017.5611152555E+01+
*       5.9041898170E+02               0
GRID*              14416               09.7198323936E+017.5623231733E+01+
*       5.9145957895E+02               0
GRID*              14417               09.7235571669E+017.5577965537E+01+
*       5.9242052118E+02               0
GRID*              14418               09.6767581001E+017.6325468217E+01+
*       5.9292133893E+02               0
GRID*              14419               09.6335625191E+017.7221754066E+01+
*       5.9260301891E+02               0
GRID*              14420               01.0127091189E+028.2558208146E+01+
*       4.3470630017E+02               0
GRID*              14421               01.0039654584E+028.2668333476E+01+
*       4.3523653843E+02               0
GRID*              14422               01.0127264380E+028.2581484914E+01+
*       4.3573716334E+02               0
GRID*              14423               01.0213530232E+028.2296879331E+01+
*       4.3520771594E+02               0
GRID*              14424               01.0213588711E+028.2296590680E+01+
*       4.3420419977E+02               0
GRID*              14425               01.0127760886E+028.2580303304E+01+
*       5.5945548229E+02               0
GRID*              14426               01.0214033599E+028.2294622649E+01+
*       5.5892576006E+02               0
GRID*              14427               01.0040131243E+028.2668302613E+01+
*       5.5895455659E+02               0
GRID*              14428               01.0127661560E+028.2557131602E+01+
*       5.5842422023E+02               0
GRID*              14429               09.9536050941E+017.4337238908E+01+
*       5.7749280277E+02               0
GRID*              14430               09.8669125380E+017.4534912491E+01+
*       5.7697911783E+02               0
GRID*              14431               09.6366414694E+017.9715344020E+01+
*       4.4656259946E+02               0
GRID*              14432               09.6366446819E+017.9715478745E+01+
*       4.4553165311E+02               0
GRID*              14433               09.6196564222E+017.8854165060E+01+
*       4.4604744472E+02               0
GRID*              14434               09.6366216776E+017.9714767452E+01+
*       4.4965499412E+02               0
GRID*              14435               01.0040131786E+028.2668395591E+01+
*       5.5789402754E+02               0
GRID*              14436               01.0127759901E+028.2580295633E+01+
*       5.5739348561E+02               0
GRID*              14437               01.0127114440E+028.2581990330E+01+
*       4.4810852112E+02               0
GRID*              14438               01.0213558893E+028.2296833356E+01+
*       4.4757939428E+02               0
GRID*              14439               01.0126998555E+028.2557960775E+01+
*       4.4707809436E+02               0
GRID*              14440               01.0039491427E+028.2668300632E+01+
*       4.4760745400E+02               0
GRID*              14441               01.0213543844E+028.2296729423E+01+
*       4.4657568762E+02               0
GRID*              14442               01.0214043540E+028.2294597070E+01+
*       5.5686380069E+02               0
GRID*              14443               01.0040126057E+028.2668299996E+01+
*       5.5689261189E+02               0
GRID*              14444               01.0408938779E+028.0585579400E+01+
*       5.5326630050E+02               0
GRID*              14445               01.0359282072E+028.1233136932E+01+
*       5.5276324094E+02               0
GRID*              14446               01.0286139440E+028.1819509056E+01+
*       5.5326879118E+02               0
GRID*              14447               09.7942409447E+017.5019861263E+01+
*       4.7027506576E+02               0
GRID*              14448               09.8671334084E+017.4533951380E+01+
*       4.6975962430E+02               0
GRID*              14449               09.8671292023E+017.4533971336E+01+
*       4.6872856993E+02               0
GRID*              14450               01.0285945994E+028.1821274649E+01+
*       5.2027203838E+02               0
GRID*              14451               01.0285947386E+028.1820887984E+01+
*       5.2852664198E+02               0
GRID*              14452               01.0213896667E+028.2295255597E+01+
*       5.2799582726E+02               0
GRID*              14453               01.0127671285E+028.2557121755E+01+
*       5.5430031963E+02               0
GRID*              14454               01.0040114674E+028.2668401814E+01+
*       5.5995607228E+02               0
GRID*              14455               01.0040092321E+028.2668403072E+01+
*       5.6201810600E+02               0
GRID*              14456               01.0125690557E+027.4336695813E+01+
*       5.5790435701E+02               0
GRID*              14457               01.0212346171E+027.4534199287E+01+
*       5.5738983228E+02               0
GRID*              14458               01.0125702384E+027.4336744707E+01+
*       5.5893534957E+02               0
GRID*              14459               01.0212357998E+027.4534248182E+01+
*       5.5842082485E+02               0
GRID*              14460               01.0039713287E+027.4165916443E+01+
*       5.5945125179E+02               0
GRID*              14461               01.0039713287E+027.4165916443E+01+
*       5.5842032395E+02               0
GRID*              14462               09.9536806354E+017.4336926025E+01+
*       5.5893599190E+02               0
GRID*              14463               09.7247050796E+017.5572862730E+01+
*       4.7078992683E+02               0
GRID*              14464               09.6758556809E+017.6301590803E+01+
*       4.7027454924E+02               0
GRID*              14465               09.6758375931E+017.6301816771E+01+
*       4.7130563210E+02               0
GRID*              14466               09.7939544333E+017.5022276754E+01+
*       5.7646389063E+02               0
GRID*              14467               01.0039713287E+027.4165916443E+01+
*       5.5738939612E+02               0
GRID*              14468               01.0125690557E+027.4336695813E+01+
*       5.5687342917E+02               0
GRID*              14469               09.9536908357E+017.4336883802E+01+
*       5.5790503381E+02               0
GRID*              14470               09.9536908357E+017.4336883802E+01+
*       5.5687410598E+02               0
GRID*              14471               01.0127640722E+028.2557142966E+01+
*       5.6048629509E+02               0
GRID*              14472               09.7940112551E+018.1823761386E+01+
*       5.5739314574E+02               0
GRID*              14473               09.8660638927E+018.2297706071E+01+
*       5.5686428897E+02               0
GRID*              14474               09.7911406429E+018.1889251499E+01+
*       5.5636361112E+02               0
GRID*              14475               01.0214117859E+028.2294168750E+01+
*       5.5998392670E+02               0
GRID*              14476               01.0285266792E+027.5020414943E+01+
*       5.2079066158E+02               0
GRID*              14477               01.0403661347E+027.6302879981E+01+
*       5.1769661642E+02               0
GRID*              14478               01.0354824324E+027.5574066728E+01+
*       5.1718133832E+02               0
GRID*              14479               01.0354828207E+027.5574114961E+01+
*       5.1821266420E+02               0
GRID*              14480               09.7904135036E+018.1883408902E+01+
*       4.6769324309E+02               0
GRID*              14481               09.8652964443E+018.2294213919E+01+
*       4.6719084942E+02               0
GRID*              14482               09.7933803041E+018.1819825857E+01+
*       4.6666040995E+02               0
GRID*              14483               01.0442345447E+027.7103610046E+01+
*       5.1821161738E+02               0
GRID*              14484               09.6709586898E+018.0582591637E+01+
*       4.8110039883E+02               0
GRID*              14485               09.7213618881E+018.1240619079E+01+
*       4.8059377488E+02               0
GRID*              14486               09.6701750189E+018.0583725477E+01+
*       4.8006664430E+02               0
GRID*              14487               09.7202602605E+018.1236374962E+01+
*       4.7954339418E+02               0
GRID*              14488               09.6709300645E+018.0586151363E+01+
*       4.7904019303E+02               0
GRID*              14489               01.0039713287E+027.4165916443E+01+
*       5.2749248890E+02               0
GRID*              14490               01.0039713287E+027.4165916443E+01+
*       5.2646156107E+02               0
GRID*              14491               09.6196338369E+017.8188569183E+01+
*       5.9225430243E+02               0
GRID*              14492               09.6153781087E+017.8244572453E+01+
*       5.9401048431E+02               0
GRID*              14493               09.6196374683E+017.7847447557E+01+
*       5.9305137749E+02               0
GRID*              14494               09.6303515535E+017.7485100065E+01+
*       5.9381046481E+02               0
GRID*              14495               09.6709525637E+018.0586511650E+01+
*       4.8522277605E+02               0
GRID*              14496               09.6366358120E+017.9715101104E+01+
*       4.8574109449E+02               0
GRID*              14497               09.6701591311E+018.0583784186E+01+
*       4.8625864540E+02               0
GRID*              14498               09.7244771394E+017.5575401828E+01+
*       5.7388739055E+02               0
GRID*              14499               09.6873074513E+017.6152826030E+01+
*       5.9393789382E+02               0
GRID*              14500               09.6416974220E+017.6931357936E+01+
*       5.9416550143E+02               0
GRID*              14501               09.6442766044E+017.6859406575E+01+
*       5.9336210623E+02               0
GRID*              14502               09.8656902172E+018.2295978855E+01+
*       4.8781687859E+02               0
GRID*              14503               09.7936788364E+018.1822155211E+01+
*       4.8728568813E+02               0
GRID*              14504               09.7907659216E+018.1885916331E+01+
*       4.8831923712E+02               0
GRID*              14505               09.7216298804E+018.1241721615E+01+
*       4.8779484680E+02               0
GRID*              14506               09.7907408628E+018.1885725094E+01+
*       4.8625660972E+02               0
GRID*              14507               09.7216000510E+018.1241390770E+01+
*       4.8573222913E+02               0
GRID*              14508               09.7202961335E+018.1237056593E+01+
*       4.8678266360E+02               0
GRID*              14509               09.7197889470E+017.5618887673E+01+
*       5.9349712652E+02               0
GRID*              14510               09.6708094048E+018.0584292413E+01+
*       4.6666010866E+02               0
GRID*              14511               09.6564206492E+017.6629008595E+01+
*       5.9517189669E+02               0
GRID*              14512               09.6606271023E+017.6517771088E+01+
*       5.9459793236E+02               0
GRID*              14513               09.6920691954E+017.5996194921E+01+
*       5.9497352899E+02               0
GRID*              14514               09.6709765172E+018.0586895053E+01+
*       4.8728535281E+02               0
GRID*              14515               09.6392453189E+017.7007598703E+01+
*       5.9482611976E+02               0
GRID*              14516               09.6296871137E+017.7656444056E+01+
*       5.9445226321E+02               0
GRID*              14517               01.0039713287E+027.4165916443E+01+
*       5.8728630333E+02               0
GRID*              14518               01.0125735552E+027.4336881759E+01+
*       5.8676423696E+02               0
GRID*              14519               01.0126105213E+027.4338415011E+01+
*       5.8778674537E+02               0
GRID*              14520               09.8656280478E+018.2295666278E+01+
*       4.8675844254E+02               0
GRID*              14521               01.0039690561E+028.2668361764E+01+
*       4.8678702838E+02               0
GRID*              14522               09.9521526044E+018.2557662627E+01+
*       4.8625633712E+02               0
GRID*              14523               09.9520665816E+018.2581265261E+01+
*       4.8728772960E+02               0
GRID*              14524               09.8652336578E+018.2293854713E+01+
*       4.6613255336E+02               0
GRID*              14525               09.6366450660E+017.9715334420E+01+
*       4.8883489347E+02               0
GRID*              14526               09.6709795771E+018.0586910762E+01+
*       4.8934798392E+02               0
GRID*              14527               09.6701733711E+018.0583958788E+01+
*       4.8832136809E+02               0
GRID*              14528               01.0212405321E+027.4534457789E+01+
*       4.6460420060E+02               0
GRID*              14529               01.0442672450E+027.9718648442E+01+
*       4.6717883261E+02               0
GRID*              14530               01.0408248079E+028.0586678347E+01+
*       4.6666214725E+02               0
GRID*              14531               01.0409022883E+028.0587778872E+01+
*       4.6769694735E+02               0
GRID*              14532               01.0442674969E+027.9718587687E+01+
*       4.6821061105E+02               0
GRID*              14533               01.0147049862E+028.2543451048E+01+
*       5.8934783573E+02               0
GRID*              14534               01.0455135611E+027.8974202780E+01+
*       5.9324197862E+02               0
GRID*              14535               01.0357756129E+028.1244097515E+01+
*       4.6716950157E+02               0
GRID*              14536               01.0358837665E+028.1239993600E+01+
*       4.6822028722E+02               0
GRID*              14537               01.0288373176E+028.1887782511E+01+
*       4.6769372478E+02               0
GRID*              14538               01.0213442119E+028.2297260512E+01+
*       4.6819589300E+02               0
GRID*              14539               01.0439760153E+027.6986489307E+01+
*       5.9415008029E+02               0
GRID*              14540               01.0457627580E+027.8882247982E+01+
*       5.9223468225E+02               0
GRID*              14541               01.0298768936E+027.5024977033E+01+
*       5.9285233889E+02               0
GRID*              14542               01.0363764660E+027.5672608803E+01+
*       5.9241034052E+02               0
GRID*              14543               09.6203372042E+017.8857904028E+01+
*       5.7801844942E+02               0
GRID*              14544               09.6375731983E+017.9719031378E+01+
*       5.7752958715E+02               0
GRID*              14545               01.0285291399E+027.5020687693E+01+
*       4.9192708002E+02               0
GRID*              14546               01.0212350632E+027.4534216445E+01+
*       4.9244205634E+02               0
GRID*              14547               01.0442350981E+027.7104072666E+01+
*       5.0790392771E+02               0
GRID*              14548               01.0442360779E+027.7104216369E+01+
*       5.0584349011E+02               0
GRID*              14549               01.0459609161E+027.7963749607E+01+
*       5.0635908925E+02               0
GRID*              14550               01.0442360662E+027.7104473702E+01+
*       5.0687402143E+02               0
GRID*              14551               09.6374135871E+017.7124109147E+01+
*       5.8111212713E+02               0
GRID*              14552               01.0213815163E+028.2295490758E+01+
*       5.7442633530E+02               0
GRID*              14553               01.0408628173E+028.0579536731E+01+
*       5.1821062360E+02               0
GRID*              14554               01.0358122286E+028.1238225106E+01+
*       5.7647027717E+02               0
GRID*              14555               01.0039888648E+028.2668320140E+01+
*       5.1871205218E+02               0
GRID*              14556               01.0127459323E+028.2557719330E+01+
*       5.1924242498E+02               0
GRID*              14557               01.0127535587E+028.2580584228E+01+
*       5.1821102448E+02               0
GRID*              14558               01.0040190786E+028.2668474949E+01+
*       5.7646194596E+02               0
GRID*              14559               01.0040138466E+028.2668214857E+01+
*       5.7752704605E+02               0
GRID*              14560               01.0127794515E+028.2558281961E+01+
*       5.7699692220E+02               0
GRID*              14561               01.0040564601E+028.2668533430E+01+
*       5.7852952093E+02               0
GRID*              14562               01.0128240558E+028.2558427150E+01+
*       5.7906594340E+02               0
GRID*              14563               01.0214172909E+028.2293817978E+01+
*       5.7856190422E+02               0
GRID*              14564               01.0128108172E+028.2578209952E+01+
*       5.7802917409E+02               0
GRID*              14565               01.0213853667E+028.2295468432E+01+
*       5.0431267486E+02               0
GRID*              14566               01.0288756911E+028.1885215845E+01+
*       5.0481467299E+02               0
GRID*              14567               01.0213897788E+028.2295321882E+01+
*       5.7336505277E+02               0
GRID*              14568               01.0285957592E+028.1821522423E+01+
*       5.7389385324E+02               0
GRID*              14569               01.0359399437E+028.1234254720E+01+
*       5.7339055614E+02               0
GRID*              14570               01.0288753367E+028.1885208778E+01+
*       5.7286428698E+02               0
GRID*              14571               01.0127567757E+028.2580634387E+01+
*       5.7183037131E+02               0
GRID*              14572               01.0213838073E+028.2295412339E+01+
*       5.7236070172E+02               0
GRID*              14573               01.0039932029E+028.2668428618E+01+
*       5.7233083655E+02               0
GRID*              14574               01.0127438968E+028.2557863979E+01+
*       5.7286329073E+02               0
GRID*              14575               01.0408384090E+028.0584097565E+01+
*       4.8316326312E+02               0
GRID*              14576               01.0442727178E+027.9716703654E+01+
*       4.8161755550E+02               0
GRID*              14577               01.0409137724E+028.0585158822E+01+
*       4.8212947740E+02               0
GRID*              14578               09.7939107160E+018.1822887079E+01+
*       5.7389049014E+02               0
GRID*              14579               09.7216201126E+018.1242060664E+01+
*       5.7439972076E+02               0
GRID*              14580               01.0409244786E+028.0582669723E+01+
*       4.9450441102E+02               0
GRID*              14581               01.0442866239E+027.9715271879E+01+
*       4.9399241932E+02               0
GRID*              14582               01.0408498869E+028.0590077451E+01+
*       4.9347594891E+02               0
GRID*              14583               01.0373441856E+028.1064128439E+01+
*       5.9767930498E+02               0
GRID*              14584               01.0442487892E+027.9774473128E+01+
*       5.9748338956E+02               0
GRID*              14585               01.0409836673E+028.0480241690E+01+
*       5.9799883865E+02               0
GRID*              14586               09.6428546321E+017.9847506472E+01+
*       5.8784317317E+02               0
GRID*              14587               09.6817784549E+018.0652952049E+01+
*       5.8836034206E+02               0
GRID*              14588               01.0039713287E+027.4165916443E+01+
*       6.0790486003E+02               0
GRID*              14589               01.0129017921E+027.4350767459E+01+
*       6.0742606239E+02               0
GRID*              14590               01.0126724837E+027.4341002517E+01+
*       6.0845910226E+02               0
GRID*              14591               01.0442394958E+027.7104915134E+01+
*       4.8419423067E+02               0
GRID*              14592               01.0459622564E+027.7965274804E+01+
*       4.8367888084E+02               0
GRID*              14593               01.0214459697E+027.4543727939E+01+
*       6.1001786118E+02               0
GRID*              14594               01.0459624955E+027.7965397935E+01+
*       4.8471008551E+02               0
GRID*              14595               01.0285212342E+027.5019156319E+01+
*       5.8059379267E+02               0
GRID*              14596               01.0285253274E+027.5019353273E+01+
*       5.8162747161E+02               0
GRID*              14597               01.0212425875E+027.4534648565E+01+
*       5.8214223551E+02               0
GRID*              14598               01.0212384943E+027.4534451610E+01+
*       5.8110855657E+02               0
GRID*              14599               01.0213734799E+028.2295986772E+01+
*       4.8987988660E+02               0
GRID*              14600               01.0288653851E+028.1885866154E+01+
*       4.9038247175E+02               0
GRID*              14601               01.0125633556E+027.4336460102E+01+
*       5.8058564968E+02               0
GRID*              14602               09.7744426654E+017.5075332520E+01+
*       4.1868678795E+02               0
GRID*              14603               01.0354816219E+027.5574452553E+01+
*       5.8111950430E+02               0
GRID*              14604               01.0285151578E+027.5018342028E+01+
*       5.8265588069E+02               0
GRID*              14605               01.0354714523E+027.5573441307E+01+
*       5.8214791339E+02               0
GRID*              14606               09.6707691992E+018.0582574186E+01+
*       5.5120640860E+02               0
GRID*              14607               09.6376202324E+017.9714475959E+01+
*       5.4966935000E+02               0
GRID*              14608               09.6699848198E+018.0584594291E+01+
*       5.5017318076E+02               0
GRID*              14609               09.6707869960E+018.0593593649E+01+
*       5.4914387430E+02               0
GRID*              14610               01.0443019229E+027.7086847385E+01+
*       5.9483514383E+02               0
GRID*              14611               01.0212408788E+027.4534578005E+01+
*       5.8317081744E+02               0
GRID*              14612               01.0125572504E+027.4336207934E+01+
*       5.8367527476E+02               0
GRID*              14613               09.8660932435E+018.2297810940E+01+
*       5.5892628298E+02               0
GRID*              14614               09.8660471353E+018.2297581570E+01+
*       5.5792244643E+02               0
GRID*              14615               09.7911459134E+018.1889039366E+01+
*       5.5842448078E+02               0
GRID*              14616               01.0354864963E+027.5574590262E+01+
*       5.7492329943E+02               0
GRID*              14617               01.0212389643E+027.4534398237E+01+
*       5.7182474114E+02               0
GRID*              14618               09.7214777640E+018.1242500968E+01+
*       5.5996193812E+02               0
GRID*              14619               01.0410978599E+028.0548590387E+01+
*       5.8319724426E+02               0
GRID*              14620               01.0288432861E+028.1813197483E+01+
*       5.8217010947E+02               0
GRID*              14621               01.0215972721E+028.2286196049E+01+
*       5.8163601374E+02               0
GRID*              14622               01.0215820445E+028.2286163220E+01+
*       5.8269758977E+02               0
GRID*              14623               01.0043715425E+028.2668380309E+01+
*       5.8266598808E+02               0
GRID*              14624               01.0043689941E+028.2667993246E+01+
*       5.8372705080E+02               0
GRID*              14625               01.0131975908E+028.2557224445E+01+
*       5.8320392529E+02               0
GRID*              14626               01.0403647609E+027.6302857129E+01+
*       5.1563446874E+02               0
GRID*              14627               01.0403648369E+027.6303121716E+01+
*       5.1460386648E+02               0
GRID*              14628               01.0403650640E+027.6302894747E+01+
*       5.1666569520E+02               0
GRID*              14629               01.0285243118E+027.5020234263E+01+
*       5.1460456588E+02               0
GRID*              14630               01.0285258865E+027.5020391323E+01+
*       5.1357395189E+02               0
GRID*              14631               01.0354824274E+027.5574058843E+01+
*       5.1408859568E+02               0
GRID*              14632               01.0046503809E+028.2668025347E+01+
*       5.8472724397E+02               0
GRID*              14633               01.0133130398E+028.2558477773E+01+
*       5.8422336056E+02               0
GRID*              14634               09.8684422213E+018.2308209110E+01+
*       5.8269291208E+02               0
GRID*              14635               09.9553231861E+018.2592941821E+01+
*       5.8216961675E+02               0
GRID*              14636               01.0403583532E+027.6298631453E+01+
*       5.8163379135E+02               0
GRID*              14637               09.8186926639E+018.2010706713E+01+
*       5.9237824236E+02               0
GRID*              14638               01.0442148640E+027.7100339507E+01+
*       5.8112207994E+02               0
GRID*              14639               09.9005770104E+018.2415466447E+01+
*       5.9284746336E+02               0
GRID*              14640               01.0292175962E+028.1862463632E+01+
*       6.1163893192E+02               0
GRID*              14641               01.0312367743E+028.1728249867E+01+
*       6.1290905324E+02               0
GRID*              14642               01.0364765162E+028.1173958505E+01+
*       6.1175416869E+02               0
GRID*              14643               01.0214714382E+028.2291807105E+01+
*       5.7956710774E+02               0
GRID*              14644               09.8089498940E+018.2025571186E+01+
*       5.8937217211E+02               0
GRID*              14645               09.8098178034E+018.1944449474E+01+
*       5.9042311415E+02               0
GRID*              14646               09.7943591338E+018.1915439736E+01+
*       5.8319980385E+02               0
GRID*              14647               09.7227762039E+018.1267886717E+01+
*       5.8371815911E+02               0
GRID*              14648               09.7996422124E+018.1846582075E+01+
*       5.8421783990E+02               0
GRID*              14649               09.8707531242E+018.2318327203E+01+
*       5.8369767356E+02               0
GRID*              14650               01.0128753034E+028.2575538414E+01+
*       5.8009740906E+02               0
GRID*              14651               01.0129585192E+028.2558146527E+01+
*       5.8113684837E+02               0
GRID*              14652               01.0041709081E+028.2668472573E+01+
*       5.8059833799E+02               0
GRID*              14653               01.0125589590E+027.4336278495E+01+
*       5.8264669282E+02               0
GRID*              14654               01.0125589590E+027.4336278495E+01+
*       5.8161576498E+02               0
GRID*              14655               01.0212428908E+027.4534633218E+01+
*       5.8007844126E+02               0
GRID*              14656               01.0283337586E+027.5053001216E+01+
*       5.9819730179E+02               0
GRID*              14657               01.0357175797E+027.5590327191E+01+
*       5.9964695526E+02               0
GRID*              14658               01.0282027826E+027.5038222609E+01+
*       5.9915381247E+02               0
GRID*              14659               01.0359158166E+027.5612842996E+01+
*       5.9866286715E+02               0
GRID*              14660               09.7201791723E+018.1236479876E+01+
*       5.7338774569E+02               0
GRID*              14661               09.7909906845E+018.1888009228E+01+
*       5.7286279410E+02               0
GRID*              14662               01.0457556865E+027.8132365037E+01+
*       6.0430029664E+02               0
GRID*              14663               09.8659123664E+018.2297010021E+01+
*       5.7129985973E+02               0
GRID*              14664               09.9523124451E+018.2582131320E+01+
*       5.7183059464E+02               0
GRID*              14665               01.0039912966E+028.2668289583E+01+
*       5.7132913915E+02               0
GRID*              14666               09.9524663688E+018.2558027364E+01+
*       5.7079793812E+02               0
GRID*              14667               09.6708906510E+018.0583234774E+01+
*       5.7182374282E+02               0
GRID*              14668               01.0212348076E+027.4534202613E+01+
*       5.5120438291E+02               0
GRID*              14669               01.0285257695E+027.5020372078E+01+
*       5.5068889813E+02               0
GRID*              14670               01.0125700361E+027.4336736365E+01+
*       5.5068806451E+02               0
GRID*              14671               01.0212343314E+027.4534179971E+01+
*       5.5017346545E+02               0
GRID*              14672               01.0212338793E+027.4534164226E+01+
*       5.5223516325E+02               0
GRID*              14673               01.0125691078E+027.4336697978E+01+
*       5.5274977268E+02               0
GRID*              14674               01.0125700361E+027.4336736365E+01+
*       5.5171899234E+02               0
GRID*              14675               01.0410443415E+028.0580857957E+01+
*       5.6048391020E+02               0
GRID*              14676               01.0214013287E+028.2294738159E+01+
*       5.6305001634E+02               0
GRID*              14677               01.0214099023E+028.2294302814E+01+
*       5.6204604059E+02               0
GRID*              14678               01.0127715381E+028.2580446023E+01+
*       5.6357954785E+02               0
GRID*              14679               01.0127614700E+028.2557167299E+01+
*       5.6254839497E+02               0
GRID*              14680               09.6376916550E+017.7108160260E+01+
*       5.6873324115E+02               0
GRID*              14681               09.6205301545E+017.7968053897E+01+
*       5.6924862740E+02               0
GRID*              14682               09.6196587438E+017.8855360038E+01+
*       5.6873403949E+02               0
GRID*              14683               09.6196625894E+017.8855555666E+01+
*       5.6770291183E+02               0
GRID*              14684               09.6201693437E+017.7967396726E+01+
*       5.6821752091E+02               0
GRID*              14685               09.6367903283E+017.9716646799E+01+
*       5.6720490300E+02               0
GRID*              14686               09.6701265277E+018.0581412866E+01+
*       5.6666912180E+02               0
GRID*              14687               01.0127609383E+028.2580627102E+01+
*       5.6976677490E+02               0
GRID*              14688               01.0213945920E+028.2294970656E+01+
*       5.7029630317E+02               0
GRID*              14689               01.0127469592E+028.2557623881E+01+
*       5.7079869849E+02               0
GRID*              14690               01.0039966763E+028.2668414817E+01+
*       5.7026732036E+02               0
GRID*              14691               01.0039967449E+028.2668299176E+01+
*       5.6926565329E+02               0
GRID*              14692               01.0127507134E+028.2557458469E+01+
*       5.6873534552E+02               0
GRID*              14693               01.0040006159E+028.2668407817E+01+
*       5.6820452629E+02               0
GRID*              14694               01.0442122504E+027.9709053405E+01+
*       5.6101379622E+02               0
GRID*              14695               09.8606857858E+017.4561949172E+01+
*       4.2128932175E+02               0
GRID*              14696               09.9525001956E+018.2558165893E+01+
*       5.6873495071E+02               0
GRID*              14697               01.0442045927E+027.9708754730E+01+
*       5.5585627551E+02               0
GRID*              14698               01.0409945943E+028.0579412231E+01+
*       5.5635626638E+02               0
GRID*              14699               09.9477791875E+017.4362337968E+01+
*       4.2080770880E+02               0
GRID*              14700               09.6709745123E+018.0585547714E+01+
*       5.2852278039E+02               0
GRID*              14701               09.6366685138E+017.9716013590E+01+
*       5.2801318573E+02               0
GRID*              14702               09.6366756775E+017.9716348074E+01+
*       5.2904454735E+02               0
GRID*              14703               09.6196359026E+017.8855436489E+01+
*       5.2749389314E+02               0
GRID*              14704               09.6196360434E+017.8855447849E+01+
*       5.2852527029E+02               0
GRID*              14705               01.0403659310E+027.6302751799E+01+
*       5.2903936323E+02               0
GRID*              14706               01.0442358917E+027.7103442066E+01+
*       5.2955509100E+02               0
GRID*              14707               01.0403661680E+027.6302953871E+01+
*       5.3007054121E+02               0
GRID*              14708               01.0442361287E+027.7103644138E+01+
*       5.3058626898E+02               0
GRID*              14709               01.0459601939E+027.7963177987E+01+
*       5.2800853570E+02               0
GRID*              14710               01.0459237293E+027.8850230975E+01+
*       5.2852410628E+02               0
GRID*              14711               01.0459239063E+027.8850389937E+01+
*       5.2955529236E+02               0
GRID*              14712               01.0459603708E+027.7963336949E+01+
*       5.2903972178E+02               0
GRID*              14713               01.0459599409E+027.7963049020E+01+
*       5.2697737912E+02               0
GRID*              14714               01.0459302336E+027.8850860859E+01+
*       5.2749284640E+02               0
GRID*              14715               01.0359370181E+028.1234469403E+01+
*       5.2902939669E+02               0
GRID*              14716               09.7940283094E+018.1824043077E+01+
*       5.5945511361E+02               0
GRID*              14717               09.7940214662E+017.5021570196E+01+
*       5.4656610884E+02               0
GRID*              14718               09.7244517515E+017.5575720313E+01+
*       5.4605115260E+02               0
GRID*              14719               09.6199114363E+017.7967538953E+01+
*       5.5069120414E+02               0
GRID*              14720               09.6199034227E+017.7967843141E+01+
*       5.4966002311E+02               0
GRID*              14721               09.6370051785E+017.7106665832E+01+
*       5.5120652071E+02               0
GRID*              14722               09.6369971648E+017.7106970020E+01+
*       5.5017533968E+02               0
GRID*              14723               09.6756193212E+017.6305650678E+01+
*       5.4862848785E+02               0
GRID*              14724               09.6370054721E+017.7106726075E+01+
*       5.4811351934E+02               0
GRID*              14725               09.6756146460E+017.6305765046E+01+
*       5.4759780633E+02               0
GRID*              14726               09.6370007969E+017.7106840443E+01+
*       5.4708283782E+02               0
GRID*              14727               09.6370496104E+017.7105086073E+01+
*       5.2130532739E+02               0
GRID*              14728               09.6198568506E+017.7966018069E+01+
*       5.2078992091E+02               0
GRID*              14729               09.6370383406E+017.7105275591E+01+
*       5.2027446751E+02               0
GRID*              14730               09.6198816080E+017.7967551517E+01+
*       5.4759829185E+02               0
GRID*              14731               09.6206029227E+017.8853556837E+01+
*       5.4914547415E+02               0
GRID*              14732               09.6203496025E+017.8854630026E+01+
*       5.4811433062E+02               0
GRID*              14733               09.6198816479E+017.7967596015E+01+
*       5.4862941228E+02               0
GRID*              14734               09.6757141347E+017.6304522692E+01+
*       5.2079055382E+02               0
GRID*              14735               09.6756123686E+017.6305832555E+01+
*       5.5069027107E+02               0
GRID*              14736               09.7244512049E+017.5575727239E+01+
*       5.4502008139E+02               0
GRID*              14737               01.0212338118E+027.4534150635E+01+
*       5.4295738377E+02               0
GRID*              14738               01.0285245006E+027.5020337023E+01+
*       5.4347300480E+02               0
GRID*              14739               01.0212344303E+027.4534176211E+01+
*       5.4398819982E+02               0
GRID*              14740               01.0285241863E+027.5020293189E+01+
*       5.4141120133E+02               0
GRID*              14741               01.0285239406E+027.5020281164E+01+
*       5.4244224441E+02               0
GRID*              14742               01.0212340576E+027.4534162659E+01+
*       5.4192634069E+02               0
GRID*              14743               01.0286109695E+028.1819071781E+01+
*       5.4296042019E+02               0
GRID*              14744               01.0125714110E+027.4336793222E+01+
*       5.4450293788E+02               0
GRID*              14745               01.0408412982E+028.0578865250E+01+
*       5.4295945074E+02               0
GRID*              14746               01.0354771384E+027.5573398331E+01+
*       5.4192736608E+02               0
GRID*              14747               01.0354776984E+027.5573454190E+01+
*       5.4295812648E+02               0
GRID*              14748               01.0442386481E+027.7104649551E+01+
*       5.0069087449E+02               0
GRID*              14749               01.0403692403E+027.6303471494E+01+
*       5.0120641512E+02               0
GRID*              14750               01.0442388268E+027.7104678431E+01+
*       5.0172170663E+02               0
GRID*              14751               01.0409131967E+028.0573218130E+01+
*       5.4398767223E+02               0
GRID*              14752               01.0441978303E+027.9708815670E+01+
*       5.4348194850E+02               0
GRID*              14753               09.6709327940E+018.0590289706E+01+
*       5.3058709640E+02               0
GRID*              14754               01.0459621901E+027.7964525210E+01+
*       5.0120673174E+02               0
GRID*              14755               01.0459612338E+027.7964053721E+01+
*       5.0326768756E+02               0
GRID*              14756               01.0442372347E+027.7104211176E+01+
*       5.0378270646E+02               0
GRID*              14757               01.0442381237E+027.7104392460E+01+
*       5.0275183217E+02               0
GRID*              14758               01.0459814711E+027.8853595657E+01+
*       5.0172193654E+02               0
GRID*              14759               01.0459827546E+027.8853783366E+01+
*       5.0069181210E+02               0
GRID*              14760               09.7214546248E+018.1242341977E+01+
*       5.3214311625E+02               0
GRID*              14761               01.0403695627E+027.6303441697E+01+
*       5.0326757448E+02               0
GRID*              14762               01.0403704516E+027.6303622981E+01+
*       5.0223670019E+02               0
GRID*              14763               01.0442494105E+027.7109958758E+01+
*       4.2851436910E+02               0
GRID*              14764               01.0442678705E+027.7118204811E+01+
*       4.2748158273E+02               0
GRID*              14765               01.0459793459E+027.7974464619E+01+
*       4.2903070463E+02               0
GRID*              14766               09.6198563204E+017.7966210113E+01+
*       5.2904082646E+02               0
GRID*              14767               09.6198511822E+017.7966488827E+01+
*       5.3007191285E+02               0
GRID*              14768               09.7941433146E+017.5020612268E+01+
*       4.8883336097E+02               0
GRID*              14769               09.6196493551E+017.8855898724E+01+
*       5.3161906079E+02               0
GRID*              14770               09.6198512809E+017.7966319267E+01+
*       5.3110335652E+02               0
GRID*              14771               09.6366470481E+017.9716963471E+01+
*       5.3317013998E+02               0
GRID*              14772               09.6196564673E+017.8856232190E+01+
*       5.3265009944E+02               0
GRID*              14773               09.6196565031E+017.8856257720E+01+
*       5.3368123225E+02               0
GRID*              14774               09.6757573870E+017.6303212942E+01+
*       4.8677130419E+02               0
GRID*              14775               09.9536969938E+017.4336858789E+01+
*       4.8780205895E+02               0
GRID*              14776               09.8670451382E+017.4534347699E+01+
*       4.8831754319E+02               0
GRID*              14777               09.8670377853E+017.4534382811E+01+
*       4.8728649519E+02               0
GRID*              14778               01.0408886276E+028.0577826753E+01+
*       5.3471103958E+02               0
GRID*              14779               01.0127290673E+028.2557610288E+01+
*       4.9450719318E+02               0
GRID*              14780               09.6370388303E+017.7105440615E+01+
*       5.3058744125E+02               0
GRID*              14781               09.6370307202E+017.7105597547E+01+
*       5.3161854828E+02               0
GRID*              14782               01.0213827252E+028.2295586712E+01+
*       4.9606744533E+02               0
GRID*              14783               01.0039779093E+028.2668342732E+01+
*       4.9397684364E+02               0
GRID*              14784               09.6198452184E+017.7966637780E+01+
*       5.3213436588E+02               0
GRID*              14785               09.6370246577E+017.7105916059E+01+
*       5.3264955764E+02               0
GRID*              14786               09.7909347470E+018.1887491285E+01+
*       5.2336868977E+02               0
GRID*              14787               09.6198457369E+017.7966397141E+01+
*       5.1460423269E+02               0
GRID*              14788               09.6370271272E+017.7105272127E+01+
*       5.1615021378E+02               0
GRID*              14789               01.0354911590E+027.5575039969E+01+
*       4.6357143025E+02               0
GRID*              14790               01.0403745366E+027.6304419187E+01+
*       4.6408681398E+02               0
GRID*              14791               09.7245173005E+017.5574925044E+01+
*       5.1305870208E+02               0
GRID*              14792               09.7940775306E+017.5021249674E+01+
*       5.1357491614E+02               0
GRID*              14793               09.7245148046E+017.5574956605E+01+
*       5.1408951750E+02               0
GRID*              14794               09.6756860395E+017.6304624883E+01+
*       5.1357430556E+02               0
GRID*              14795               09.6757057260E+017.6304472662E+01+
*       5.1666645585E+02               0
GRID*              14796               01.0126820964E+028.2558695045E+01+
*       4.6356697132E+02               0
GRID*              14797               01.0126934725E+028.2582094484E+01+
*       4.6459815607E+02               0
GRID*              14798               01.0213350568E+028.2297668885E+01+
*       4.6406976124E+02               0
GRID*              14799               01.0213405757E+028.2297491773E+01+
*       4.6512754506E+02               0
GRID*              14800               01.0285412336E+028.1824781871E+01+
*       4.6460040367E+02               0
GRID*              14801               01.0357512815E+028.1244871712E+01+
*       4.6409135992E+02               0
GRID*              14802               01.0288342438E+028.1888147698E+01+
*       4.6356693975E+02               0
GRID*              14803               01.0126927371E+028.2582135459E+01+
*       4.6253566717E+02               0
GRID*              14804               01.0213384228E+028.2297555849E+01+
*       4.6306493063E+02               0
GRID*              14805               01.0408487405E+028.0585464298E+01+
*       4.9966346549E+02               0
GRID*              14806               01.0358823395E+028.1240428347E+01+
*       4.6304144837E+02               0
GRID*              14807               01.0213845497E+028.2295506080E+01+
*       4.9812951597E+02               0
GRID*              14808               01.0409302368E+028.0582330771E+01+
*       5.0068909286E+02               0
GRID*              14809               01.0357873923E+028.1240932239E+01+
*       5.0121571352E+02               0
GRID*              14810               01.0359189761E+028.1236418030E+01+
*       5.0016654162E+02               0
GRID*              14811               09.7941827957E+017.5020293816E+01+
*       4.7749262573E+02               0
GRID*              14812               09.7246344035E+017.5573671708E+01+
*       4.7800760866E+02               0
GRID*              14813               09.6198224482E+017.7965806899E+01+
*       4.9605266993E+02               0
GRID*              14814               09.6198193577E+017.7965994468E+01+
*       4.9708369444E+02               0
GRID*              14815               09.9537324424E+017.4336712179E+01+
*       4.7749284796E+02               0
GRID*              14816               09.8670859817E+017.4534173991E+01+
*       4.7800777866E+02               0
GRID*              14817               09.7942032792E+017.5020089538E+01+
*       4.7646167951E+02               0
GRID*              14818               01.0442871168E+027.9714975404E+01+
*       4.9914755499E+02               0
GRID*              14819               01.0442856669E+027.9715012385E+01+
*       5.0017792243E+02               0
GRID*              14820               01.0459829794E+027.8853931581E+01+
*       4.9966091659E+02               0
GRID*              14821               01.0039885626E+028.2668385340E+01+
*       5.1564876036E+02               0
GRID*              14822               09.9524165022E+018.2557724478E+01+
*       5.1511804774E+02               0
GRID*              14823               09.8658212306E+018.2296557296E+01+
*       5.1562028087E+02               0
GRID*              14824               09.9522928078E+018.2582088273E+01+
*       5.1614918363E+02               0
GRID*              14825               01.0459844190E+027.8853897168E+01+
*       4.9863059113E+02               0
GRID*              14826               09.9521849372E+018.2557714212E+01+
*       4.8831897177E+02               0
GRID*              14827               01.0127198105E+028.2557699049E+01+
*       4.8625666971E+02               0
GRID*              14828               01.0213705093E+028.2296105857E+01+
*       4.8675883910E+02               0
GRID*              14829               01.0442373986E+027.7103876104E+01+
*       5.2543027770E+02               0
GRID*              14830               01.0442372152E+027.7103884996E+01+
*       5.2439924701E+02               0
GRID*              14831               01.0459602926E+027.7963259261E+01+
*       5.2491481809E+02               0
GRID*              14832               01.0442453008E+027.9712165809E+01+
*       5.2594935500E+02               0
GRID*              14833               01.0409502766E+028.0580541537E+01+
*       5.2543316933E+02               0
GRID*              14834               09.7938907214E+018.1822990738E+01+
*       5.1408760582E+02               0
GRID*              14835               09.8658601497E+018.2296790425E+01+
*       5.1461682273E+02               0
GRID*              14836               01.0288790387E+028.1884950428E+01+
*       5.1305559631E+02               0
GRID*              14837               01.0359035296E+028.1235848230E+01+
*       5.1253111877E+02               0
GRID*              14838               01.0213942711E+028.2295063660E+01+
*       5.1149736864E+02               0
GRID*              14839               01.0213925017E+028.2295220333E+01+
*       5.1255503607E+02               0
GRID*              14840               01.0285928929E+028.1821094049E+01+
*       5.1202599456E+02               0
GRID*              14841               01.0213897379E+028.2295217204E+01+
*       5.1355845979E+02               0
GRID*              14842               01.0127542342E+028.2580644829E+01+
*       5.1408717383E+02               0
GRID*              14843               01.0213879376E+028.2295367925E+01+
*       5.1461644165E+02               0
GRID*              14844               01.0442803028E+027.9713885581E+01+
*       5.1151253272E+02               0
GRID*              14845               01.0442798851E+027.9713986445E+01+
*       5.1048209070E+02               0
GRID*              14846               01.0459594023E+027.7962923459E+01+
*       5.1254133982E+02               0
GRID*              14847               01.0459728536E+027.8852544749E+01+
*       5.1202568805E+02               0
GRID*              14848               09.6672464585E+018.0456643829E+01+
*       4.1851938411E+02               0
GRID*              14849               01.0127550257E+028.2580678796E+01+
*       5.1202583395E+02               0
GRID*              14850               01.0288787944E+028.1884980650E+01+
*       5.1099572283E+02               0
GRID*              14851               01.0442795371E+027.9713952220E+01+
*       5.1254340818E+02               0
GRID*              14852               09.6518017727E+018.0207434872E+01+
*       4.1981633523E+02               0
GRID*              14853               01.0039895116E+028.2668393429E+01+
*       5.0946543495E+02               0
GRID*              14854               09.9522938832E+018.2581963626E+01+
*       5.0996571978E+02               0
GRID*              14855               01.0039909061E+028.2668300294E+01+
*       5.1046643335E+02               0
GRID*              14856               01.0127435030E+028.2557510211E+01+
*       5.0893505841E+02               0
GRID*              14857               01.0213888975E+028.2295267148E+01+
*       5.0943694165E+02               0
GRID*              14858               01.0127537903E+028.2580732503E+01+
*       5.0996536146E+02               0
GRID*              14859               09.6564919292E+018.0183375441E+01+
*       5.9302362992E+02               0
GRID*              14860               09.6247655740E+017.9190500395E+01+
*       5.9264361698E+02               0
GRID*              14861               01.0127450032E+028.2557510859E+01+
*       5.1099556061E+02               0
GRID*              14862               01.0213887688E+028.2295333857E+01+
*       5.1049397358E+02               0
GRID*              14863               01.0357957831E+028.1242098909E+01+
*       4.8265642726E+02               0
GRID*              14864               01.0288569261E+028.1886639057E+01+
*       4.8213141942E+02               0
GRID*              14865               01.0285635614E+028.1822894044E+01+
*       4.8316341363E+02               0
GRID*              14866               01.0213649281E+028.2296328172E+01+
*       4.8263415167E+02               0
GRID*              14867               01.0039713287E+027.4165916443E+01+
*       5.1718321055E+02               0
GRID*              14868               01.0039713287E+027.4165916443E+01+
*       5.1615228271E+02               0
GRID*              14869               01.0125688248E+027.4336686010E+01+
*       5.1563663692E+02               0
GRID*              14870               01.0459773396E+027.8064334343E+01+
*       6.1064486514E+02               0
GRID*              14871               01.0458872116E+027.8971881963E+01+
*       6.1119763177E+02               0
GRID*              14872               01.0393675988E+028.0778190080E+01+
*       6.1097868454E+02               0
GRID*              14873               01.0448763509E+027.9716784235E+01+
*       6.1163925824E+02               0
GRID*              14874               01.0288600652E+028.1886417094E+01+
*       4.8419484416E+02               0
GRID*              14875               01.0357970994E+028.1241954536E+01+
*       4.8367040258E+02               0
GRID*              14876               01.0212351566E+027.4534226163E+01+
*       5.2027534212E+02               0
GRID*              14877               01.0459795666E+027.8992189048E+01+
*       6.0587312525E+02               0
GRID*              14878               09.6757152018E+017.6304000624E+01+
*       5.0017602346E+02               0
GRID*              14879               09.7245444778E+017.5574633868E+01+
*       4.9965977144E+02               0
GRID*              14880               09.7245422228E+017.5574661417E+01+
*       4.9862882399E+02               0
GRID*              14881               09.6198251995E+017.7966003970E+01+
*       4.9914572128E+02               0
GRID*              14882               09.7940898392E+017.5021083188E+01+
*       4.9914395571E+02               0
GRID*              14883               09.7245526624E+017.5574557212E+01+
*       4.9759783167E+02               0
GRID*              14884               09.7941180617E+017.5020893337E+01+
*       4.9708203370E+02               0
GRID*              14885               09.7941076221E+017.5020997542E+01+
*       4.9811302602E+02               0
GRID*              14886               01.0445176090E+027.7179848263E+01+
*       6.1010167103E+02               0
GRID*              14887               01.0459714491E+027.8062239863E+01+
*       6.0956868566E+02               0
GRID*              14888               09.6196446046E+017.8855010429E+01+
*       4.9656856686E+02               0
GRID*              14889               09.6366748468E+017.9716175834E+01+
*       4.9914734461E+02               0
GRID*              14890               09.6366630607E+017.9715882263E+01+
*       4.9605403437E+02               0
GRID*              14891               09.7937851060E+018.1822725633E+01+
*       4.9759827582E+02               0
GRID*              14892               09.7203632120E+018.1237704573E+01+
*       4.9709507261E+02               0
GRID*              14893               09.8657929541E+018.2296448379E+01+
*       4.9812932983E+02               0
GRID*              14894               09.8657450035E+018.2296225043E+01+
*       4.9707135774E+02               0
GRID*              14895               01.0128208426E+027.4347286191E+01+
*       4.1863581827E+02               0
GRID*              14896               09.7214491496E+018.1241718752E+01+
*       4.9503079968E+02               0
GRID*              14897               09.7937748563E+018.1822781556E+01+
*       4.9553776965E+02               0
GRID*              14898               09.6702265586E+018.0584632210E+01+
*       4.9450343641E+02               0
GRID*              14899               09.8639294381E+017.4547311628E+01+
*       4.2336425038E+02               0
GRID*              14900               09.8615454061E+017.4557817485E+01+
*       4.2233941917E+02               0
GRID*              14901               09.8657741468E+018.2296342579E+01+
*       4.9606711157E+02               0
GRID*              14902               09.8657702993E+018.2296310436E+01+
*       4.9500903652E+02               0
GRID*              14903               01.0285791509E+028.1821914672E+01+
*       4.9760237380E+02               0
GRID*              14904               01.0288698542E+028.1885662213E+01+
*       4.9656899528E+02               0
GRID*              14905               01.0409239757E+028.0582805575E+01+
*       4.9244750183E+02               0
GRID*              14906               01.0442859999E+027.9715300233E+01+
*       4.9296109652E+02               0
GRID*              14907               01.0039779977E+028.2668355472E+01+
*       4.9503747623E+02               0
GRID*              14908               09.6371089605E+017.7101887749E+01+
*       4.6460138500E+02               0
GRID*              14909               01.0459718631E+027.8857335103E+01+
*       4.6563166616E+02               0
GRID*              14910               01.0459719060E+027.8857154810E+01+
*       4.6666343962E+02               0
GRID*              14911               01.0459654981E+027.7967303583E+01+
*       4.6511703369E+02               0
GRID*              14912               01.0357743043E+028.1244225865E+01+
*       4.6615463085E+02               0
GRID*              14913               01.0285427446E+028.1824751950E+01+
*       4.6666170384E+02               0
GRID*              14914               01.0459736549E+027.8857067766E+01+
*       4.3573763938E+02               0
GRID*              14915               01.0459736801E+027.8857061852E+01+
*       4.3470663302E+02               0
GRID*              14916               01.0408239408E+028.0590689676E+01+
*       4.3367674505E+02               0
GRID*              14917               01.0442678509E+027.9718554572E+01+
*       4.6924218963E+02               0
GRID*              14918               01.0039573970E+028.2668368299E+01+
*       4.3317527500E+02               0
GRID*              14919               01.0039534058E+028.2668367726E+01+
*       4.3417539069E+02               0
GRID*              14920               01.0127173589E+028.2581406642E+01+
*       4.3367480759E+02               0
GRID*              14921               01.0358654950E+028.1240131315E+01+
*       4.7129438434E+02               0
GRID*              14922               01.0285498727E+028.1823961656E+01+
*       4.7078837242E+02               0
GRID*              14923               01.0459634877E+027.7966259582E+01+
*       4.7027393689E+02               0
GRID*              14924               01.0213629627E+028.2296459592E+01+
*       4.3727025407E+02               0
GRID*              14925               01.0442405747E+027.7105180649E+01+
*       4.6975819580E+02               0
GRID*              14926               01.0442663000E+027.9719076333E+01+
*       4.6614775189E+02               0
GRID*              14927               01.0358748542E+028.1238949587E+01+
*       4.8059597235E+02               0
GRID*              14928               01.0357910521E+028.1242611545E+01+
*       4.7954609445E+02               0
GRID*              14929               01.0288540041E+028.1886833939E+01+
*       4.8007037107E+02               0
GRID*              14930               01.0357897639E+028.1242739891E+01+
*       4.7853224766E+02               0
GRID*              14931               01.0285572062E+028.1823417441E+01+
*       4.7903910248E+02               0
GRID*              14932               09.6370395387E+017.7104407152E+01+
*       4.4707856137E+02               0
GRID*              14933               09.7246435087E+017.5573588594E+01+
*       4.4810989411E+02               0
GRID*              14934               09.7246547812E+017.5573447428E+01+
*       4.4914075972E+02               0
GRID*              14935               09.6757839079E+017.6302744075E+01+
*       4.4862461585E+02               0
GRID*              14936               01.0288510611E+028.1887039215E+01+
*       4.7800707727E+02               0
GRID*              14937               01.0213594613E+028.2296676307E+01+
*       4.7750613157E+02               0
GRID*              14938               01.0213574275E+028.2296647496E+01+
*       4.7850985661E+02               0
GRID*              14939               01.0127046492E+028.2558031645E+01+
*       4.7800775753E+02               0
GRID*              14940               01.0039556785E+028.2668320167E+01+
*       4.7953958635E+02               0
GRID*              14941               01.0039584162E+028.2668382898E+01+
*       4.8060036921E+02               0
GRID*              14942               01.0127086941E+028.2557926994E+01+
*       4.8007003664E+02               0
GRID*              14943               09.8654776810E+018.2294937284E+01+
*       4.4863682317E+02               0
GRID*              14944               09.8654611960E+018.2294972845E+01+
*       4.4757930628E+02               0
GRID*              14945               09.7935191093E+018.1821535689E+01+
*       4.4810669180E+02               0
GRID*              14946               09.7202737000E+018.1236514798E+01+
*       4.4760348166E+02               0
GRID*              14947               09.7215594481E+018.1240933089E+01+
*       4.4861560143E+02               0
GRID*              14948               09.9519097989E+018.2580906806E+01+
*       4.7903871972E+02               0
GRID*              14949               09.8655202446E+018.2295234190E+01+
*       4.7956800665E+02               0
GRID*              14950               09.9520508296E+018.2557486748E+01+
*       4.8006957301E+02               0
GRID*              14951               01.0459743416E+027.8856751625E+01+
*       4.3676919561E+02               0
GRID*              14952               01.0459634528E+027.7966313656E+01+
*       4.4037815799E+02               0
GRID*              14953               01.0459754244E+027.8856482861E+01+
*       4.3986258613E+02               0
GRID*              14954               01.0459749820E+027.8856728212E+01+
*       4.4089376046E+02               0
GRID*              14955               09.6370966623E+017.7102649717E+01+
*       4.7182061339E+02               0
GRID*              14956               09.6370959042E+017.7102608761E+01+
*       4.7078940743E+02               0
GRID*              14957               09.6371076394E+017.7102327433E+01+
*       4.6975786504E+02               0
GRID*              14958               09.6198291760E+017.7962699762E+01+
*       4.7130529977E+02               0
GRID*              14959               01.0442681686E+027.9718115328E+01+
*       4.3934698260E+02               0
GRID*              14960               01.0442677258E+027.9718360841E+01+
*       4.4037816038E+02               0
GRID*              14961               01.0039713287E+027.4165916443E+01+
*       4.6976053014E+02               0
GRID*              14962               09.9537417619E+017.4336673616E+01+
*       4.6924479840E+02               0
GRID*              14963               09.8669988041E+017.4534552311E+01+
*       5.7285473899E+02               0
GRID*              14964               09.7940430365E+017.5021417232E+01+
*       5.7233941451E+02               0
GRID*              14965               09.8669933876E+017.4534574719E+01+
*       5.7182380023E+02               0
GRID*              14966               01.0213610774E+028.2296549526E+01+
*       4.3933250411E+02               0
GRID*              14967               01.0288565654E+028.1886565683E+01+
*       4.3883068966E+02               0
GRID*              14968               01.0213682369E+028.2296141856E+01+
*       4.3832866696E+02               0
GRID*              14969               01.0358970868E+028.1238887437E+01+
*       4.3830453025E+02               0
GRID*              14970               01.0285601677E+028.1823142974E+01+
*       4.3780171331E+02               0
GRID*              14971               01.0442675847E+027.9718395042E+01+
*       4.4140887442E+02               0
GRID*              14972               01.0459749455E+027.8856718712E+01+
*       4.4192443107E+02               0
GRID*              14973               09.6198565883E+017.7966011099E+01+
*       5.1975908704E+02               0
GRID*              14974               09.6370425919E+017.7105034593E+01+
*       5.1924280682E+02               0
GRID*              14975               01.0408280433E+028.0586225055E+01+
*       4.4192452089E+02               0
GRID*              14976               01.0403628301E+027.6302386322E+01+
*       5.4553585418E+02               0
GRID*              14977               01.0442336937E+027.7102984769E+01+
*       5.4605200445E+02               0
GRID*              14978               01.0403630263E+027.6302431260E+01+
*       5.4656641818E+02               0
GRID*              14979               01.0442338898E+027.7103029706E+01+
*       5.4708256845E+02               0
GRID*              14980               01.0240402207E+028.2149157583E+01+
*       4.1806464514E+02               0
GRID*              14981               01.0307618595E+028.1758310479E+01+
*       4.1864464886E+02               0
GRID*              14982               01.0331153889E+028.1518977098E+01+
*       4.1787197945E+02               0
GRID*              14983               01.0392923636E+028.0678481556E+01+
*       4.2101269588E+02               0
GRID*              14984               01.0439904828E+027.9793320140E+01+
*       4.2058233292E+02               0
GRID*              14985               01.0411450135E+028.0442768607E+01+
*       4.2014061583E+02               0
GRID*              14986               09.6370158760E+017.7105638070E+01+
*       5.1202768107E+02               0
GRID*              14987               01.0306823209E+028.1733419573E+01+
*       4.1960654358E+02               0
GRID*              14988               01.0335450107E+028.1488661842E+01+
*       4.1885870182E+02               0
GRID*              14989               01.0411590223E+028.0439603047E+01+
*       4.1885757805E+02               0
GRID*              14990               01.0440045106E+027.9790150761E+01+
*       4.1929928474E+02               0
GRID*              14991               01.0443045893E+027.7139760956E+01+
*       4.2436147037E+02               0
GRID*              14992               01.0460238526E+027.7999400292E+01+
*       4.2486619131E+02               0
GRID*              14993               01.0460541091E+027.8013716480E+01+
*       4.2382394927E+02               0
GRID*              14994               01.0460541508E+027.8008345822E+01+
*       4.2274249243E+02               0
GRID*              14995               01.0458216119E+027.8920328909E+01+
*       4.2220580562E+02               0
GRID*              14996               01.0458215702E+027.8925699567E+01+
*       4.2328726245E+02               0
GRID*              14997               01.0442774177E+027.7133304560E+01+
*       4.2330575737E+02               0
GRID*              14998               01.0405330877E+027.6318453524E+01+
*       4.2278903020E+02               0
GRID*              14999               01.0442844449E+027.7136703493E+01+
*       4.2226517195E+02               0
GRID*              15000               09.6196013427E+017.8904651141E+01+
*       4.2750825893E+02               0
GRID*              15001               09.6199802596E+017.8014570856E+01+
*       4.2699154362E+02               0
GRID*              15002               09.6199310192E+017.7984905366E+01+
*       4.2800951595E+02               0
GRID*              15003               09.6195521023E+017.8874985650E+01+
*       4.2852623126E+02               0
GRID*              15004               09.6201118942E+017.8008940597E+01+
*       4.2594708642E+02               0
GRID*              15005               09.6348646667E+017.7156322507E+01+
*       4.2647177985E+02               0
GRID*              15006               01.0213846921E+028.2295477304E+01+
*       5.0325578930E+02               0
GRID*              15007               01.0213877125E+028.2295398649E+01+
*       5.0225197699E+02               0
GRID*              15008               01.0127372377E+028.2557561662E+01+
*       5.0275376176E+02               0
GRID*              15009               09.6408665639E+017.9807557493E+01+
*       4.2494327576E+02               0
GRID*              15010               09.6197737299E+017.8973007830E+01+
*       4.2546512862E+02               0
GRID*              15011               09.6198430828E+017.8976135495E+01+
*       4.2441455948E+02               0
GRID*              15012               09.6381480808E+017.9748568704E+01+
*       4.2802633521E+02               0
GRID*              15013               01.0358103480E+028.1240275626E+01+
*       5.0327702554E+02               0
GRID*              15014               01.0288740591E+028.1885177733E+01+
*       5.0275310104E+02               0
GRID*              15015               01.0285832635E+028.1821822065E+01+
*       5.0378395869E+02               0
GRID*              15016               01.0358970444E+028.1236488462E+01+
*       5.0533900544E+02               0
GRID*              15017               01.0358139321E+028.1240212271E+01+
*       5.0429071351E+02               0
GRID*              15018               01.0459605604E+027.7962197051E+01+
*       5.4656745811E+02               0
GRID*              15019               09.8092128836E+018.1996159929E+01+
*       6.1255457268E+02               0
GRID*              15020               09.7580420490E+018.1475640471E+01+
*       6.1256253496E+02               0
GRID*              15021               09.7777279957E+018.1768881439E+01+
*       6.1367179836E+02               0
GRID*              15022               09.7269289416E+018.1246592738E+01+
*       6.1369053868E+02               0
GRID*              15023               09.7781535253E+018.1721361267E+01+
*       6.1166139512E+02               0
GRID*              15024               09.6784107921E+018.0643651710E+01+
*       6.1298641486E+02               0
GRID*              15025               01.0356356238E+027.5592815913E+01+
*       6.1111815798E+02               0
GRID*              15026               01.0348455970E+027.5517939705E+01+
*       6.1214452971E+02               0
GRID*              15027               09.6196439298E+017.8855190819E+01+
*       4.9966146261E+02               0
GRID*              15028               09.6196445182E+017.8855420139E+01+
*       5.0172341582E+02               0
GRID*              15029               09.6196429944E+017.8855365321E+01+
*       5.0275404589E+02               0
GRID*              15030               09.6366745499E+017.9716153237E+01+
*       5.0224000980E+02               0
GRID*              15031               09.6196442180E+017.8855385546E+01+
*       5.0069241324E+02               0
GRID*              15032               09.6366742606E+017.9716162346E+01+
*       5.0017821895E+02               0
GRID*              15033               01.0459624987E+027.7964669746E+01+
*       4.9811493316E+02               0
GRID*              15034               01.0459626566E+027.7964895838E+01+
*       4.9708390582E+02               0
GRID*              15035               01.0126724837E+027.4341002517E+01+
*       6.0949003010E+02               0
GRID*              15036               01.0122520183E+027.4323866137E+01+
*       6.1049022258E+02               0
GRID*              15037               01.0442395188E+027.7104873862E+01+
*       4.9656800227E+02               0
GRID*              15038               01.0442388107E+027.7104545598E+01+
*       4.9553736472E+02               0
GRID*              15039               01.0459619485E+027.7964567574E+01+
*       4.9605326827E+02               0
GRID*              15040               01.0283160120E+027.4878873489E+01+
*       6.1271694452E+02               0
GRID*              15041               01.0208185976E+027.4504046078E+01+
*       6.1294904550E+02               0
GRID*              15042               01.0459619917E+027.7964469054E+01+
*       4.9914568530E+02               0
GRID*              15043               01.0459617669E+027.7964320839E+01+
*       5.0017658081E+02               0
GRID*              15044               09.9502761187E+017.4351343402E+01+
*       5.9297462217E+02               0
GRID*              15045               09.8629036977E+017.4552303590E+01+
*       5.9341876023E+02               0
GRID*              15046               01.0442390872E+027.7104685911E+01+
*       4.9347503536E+02               0
GRID*              15047               09.7849615855E+017.5113258605E+01+
*       5.9399184519E+02               0
GRID*              15048               09.7863022323E+017.5106811306E+01+
*       5.9301441503E+02               0
GRID*              15049               09.6196546145E+017.8856767681E+01+
*       4.3264406903E+02               0
GRID*              15050               09.6196592458E+017.8856976913E+01+
*       4.3367571254E+02               0
GRID*              15051               09.7547613576E+018.1539456146E+01+
*       4.2190234589E+02               0
GRID*              15052               01.0407328888E+028.0612319977E+01+
*       4.2851923058E+02               0
GRID*              15053               01.0406096285E+028.0623972060E+01+
*       4.2748151015E+02               0
GRID*              15054               01.0354888533E+028.1276280681E+01+
*       4.2799944746E+02               0
GRID*              15055               01.0354885311E+027.5574704515E+01+
*       4.8213202972E+02               0
GRID*              15056               01.0442137979E+027.9738584889E+01+
*       4.2903132497E+02               0
GRID*              15057               01.0441667588E+027.9749814107E+01+
*       4.2799841124E+02               0
GRID*              15058               09.8657300317E+018.2296108072E+01+
*       4.3420447823E+02               0
GRID*              15059               09.9520256087E+018.2581478825E+01+
*       4.3367526627E+02               0
GRID*              15060               09.8655211639E+018.2295188879E+01+
*       4.3314546836E+02               0
GRID*              15061               01.0442871225E+027.9715151358E+01+
*       4.9502360183E+02               0
GRID*              15062               09.9520610076E+018.2556651576E+01+
*       4.3264438873E+02               0
GRID*              15063               09.8658082123E+018.2296492304E+01+
*       4.3214722141E+02               0
GRID*              15064               09.6196588102E+017.8854536600E+01+
*       4.3986124895E+02               0
GRID*              15065               09.6366696481E+017.9716115313E+01+
*       4.3934565426E+02               0
GRID*              15066               09.6196587325E+017.8854886272E+01+
*       4.3883049765E+02               0
GRID*              15067               09.9525461064E+018.2582326571E+01+
*       5.4502275472E+02               0
GRID*              15068               09.6197883602E+017.7965440732E+01+
*       4.3728381222E+02               0
GRID*              15069               09.6370155377E+017.7104980221E+01+
*       4.3779960075E+02               0
GRID*              15070               09.6197883996E+017.7965335923E+01+
*       4.3831470134E+02               0
GRID*              15071               09.6366696050E+017.9716119435E+01+
*       4.4037695719E+02               0
GRID*              15072               09.6702671396E+018.0585533177E+01+
*       4.4088972621E+02               0
GRID*              15073               09.6710250421E+018.0588036925E+01+
*       4.3986326373E+02               0
GRID*              15074               09.6699159337E+018.0585255355E+01+
*       5.5224096878E+02               0
GRID*              15075               09.7215919588E+018.1243229041E+01+
*       5.5171397901E+02               0
GRID*              15076               01.0358635932E+028.1240262896E+01+
*       4.4760280857E+02               0
GRID*              15077               09.8661012431E+018.2297861065E+01+
*       5.4861679907E+02               0
GRID*              15078               01.0459648639E+027.7967596356E+01+
*       4.5068512984E+02               0
GRID*              15079               01.0459734036E+027.8857819469E+01+
*       4.5120007287E+02               0
GRID*              15080               01.0459653235E+027.7967809552E+01+
*       4.5171518404E+02               0
GRID*              15081               01.0459655698E+027.7967841914E+01+
*       4.5377602396E+02               0
GRID*              15082               01.0459725865E+027.8858029921E+01+
*       4.5326073869E+02               0
GRID*              15083               01.0459724309E+027.8858087205E+01+
*       4.5429062715E+02               0
GRID*              15084               01.0459733460E+027.8857705924E+01+
*       4.5223085018E+02               0
GRID*              15085               09.6701087139E+018.0582355198E+01+
*       5.6048916412E+02               0
GRID*              15086               01.0442340437E+027.7102960271E+01+
*       5.4192788442E+02               0
GRID*              15087               01.0442321170E+027.7102896105E+01+
*       5.4089714106E+02               0
GRID*              15088               09.7911385240E+018.1888813479E+01+
*       5.6048774467E+02               0
GRID*              15089               01.0442004927E+027.9708822641E+01+
*       5.4038804551E+02               0
GRID*              15090               09.6709633833E+018.0586877476E+01+
*       4.4810695185E+02               0
GRID*              15091               09.6702173500E+018.0584660435E+01+
*       4.4708105404E+02               0
GRID*              15092               09.6709997683E+018.0583686136E+01+
*       4.4604717015E+02               0
GRID*              15093               09.7213849692E+018.1240868019E+01+
*       4.4655365259E+02               0
GRID*              15094               09.7213640551E+018.1240961486E+01+
*       4.4553985823E+02               0
GRID*              15095               01.0039713287E+027.4165916443E+01+
*       5.2336877756E+02               0
GRID*              15096               01.0039713287E+027.4165916443E+01+
*       5.2439970540E+02               0
GRID*              15097               09.9536945724E+017.4336868439E+01+
*       5.2388437604E+02               0
GRID*              15098               09.9536921790E+017.4336878321E+01+
*       5.2697731654E+02               0
GRID*              15099               09.6702546512E+018.0584614797E+01+
*       4.4501338870E+02               0
GRID*              15100               01.0459590281E+027.7962083370E+01+
*       5.4244403560E+02               0
GRID*              15101               09.6365995730E+017.9713991845E+01+
*       4.7646166433E+02               0
GRID*              15102               09.6196311681E+017.8852749855E+01+
*       4.7594549763E+02               0
GRID*              15103               09.6196312989E+017.8853107045E+01+
*       4.7697640319E+02               0
GRID*              15104               09.6196402155E+017.8853795386E+01+
*       4.8006942024E+02               0
GRID*              15105               09.6366281232E+017.9714883098E+01+
*       4.8058548614E+02               0
GRID*              15106               09.6366223226E+017.9714742295E+01+
*       4.7955468402E+02               0
GRID*              15107               01.0459759106E+027.7954588923E+01+
*       5.8371048368E+02               0
GRID*              15108               01.0459572654E+027.8842415110E+01+
*       5.8319658719E+02               0
GRID*              15109               01.0459753679E+027.7945338311E+01+
*       5.8473178531E+02               0
GRID*              15110               01.0459567227E+027.8833164498E+01+
*       5.8421788883E+02               0
GRID*              15111               09.8670629282E+017.4534266826E+01+
*       4.8522443371E+02               0
GRID*              15112               09.8670587182E+017.4534284238E+01+
*       4.8419352820E+02               0
GRID*              15113               01.0459523470E+027.8837019779E+01+
*       5.8525391471E+02               0
GRID*              15114               01.0443833492E+027.9692798355E+01+
*       5.8478172790E+02               0
GRID*              15115               01.0443885230E+027.9689281585E+01+
*       5.8374421731E+02               0
GRID*              15116               09.7911777142E+018.1888977139E+01+
*       5.4605410202E+02               0
GRID*              15117               09.8661121795E+018.2297877267E+01+
*       5.4555149476E+02               0
GRID*              15118               09.6757371343E+017.6303530320E+01+
*       4.9089615161E+02               0
GRID*              15119               09.6370425146E+017.7104787710E+01+
*       4.9038066267E+02               0
GRID*              15120               09.6757356201E+017.6303567463E+01+
*       4.8986484410E+02               0
GRID*              15121               09.6366463277E+017.9715402032E+01+
*       4.8986624987E+02               0
GRID*              15122               09.6196420814E+017.8854455879E+01+
*       4.9038105227E+02               0
GRID*              15123               09.6196408616E+017.8854390119E+01+
*       4.8934971799E+02               0
GRID*              15124               09.7206586251E+018.1239046668E+01+
*       5.4864053375E+02               0
GRID*              15125               01.0420640710E+028.0241888893E+01+
*       5.9494779735E+02               0
GRID*              15126               09.6196431565E+017.8854515359E+01+
*       4.9141234294E+02               0
GRID*              15127               09.6198222356E+017.7965236527E+01+
*       4.9089648988E+02               0
GRID*              15128               09.7247104601E+017.5572809086E+01+
*       4.7182124526E+02               0
GRID*              15129               01.0212388613E+027.4534439450E+01+
*       5.7904565234E+02               0
GRID*              15130               01.0212420936E+027.4534573034E+01+
*       5.7801470108E+02               0
GRID*              15131               01.0212376841E+027.4534324900E+01+
*       4.7285294502E+02               0
GRID*              15132               01.0212393156E+027.4534404497E+01+
*       4.7388406238E+02               0
GRID*              15133               09.7942463253E+017.5019807618E+01+
*       4.7130638419E+02               0
GRID*              15134               09.7940641825E+017.5021231268E+01+
*       5.3625724763E+02               0
GRID*              15135               01.0354827397E+027.5574077582E+01+
*       5.1099601513E+02               0
GRID*              15136               01.0403648691E+027.6303310374E+01+
*       5.1151140458E+02               0
GRID*              15137               01.0442339404E+027.7104035749E+01+
*       5.1305690394E+02               0
GRID*              15138               09.8670219946E+017.4534447887E+01+
*       5.1305912240E+02               0
GRID*              15139               09.9536779218E+017.4336937526E+01+
*       5.1254456514E+02               0
GRID*              15140               09.9536723077E+017.4336960728E+01+
*       5.1357533493E+02               0
GRID*              15141               09.8670163805E+017.4534471089E+01+
*       5.1408989220E+02               0
GRID*              15142               09.8670291572E+017.4534413392E+01+
*       5.1202829374E+02               0
GRID*              15143               09.9536779218E+017.4336937526E+01+
*       5.1151363730E+02               0
GRID*              15144               01.0330861936E+027.5298268169E+01+
*       6.1316300734E+02               0
GRID*              15145               09.8670294810E+017.4534412079E+01+
*       5.1099750612E+02               0
GRID*              15146               09.8670049096E+017.4534530090E+01+
*       5.0996689462E+02               0
GRID*              15147               01.0125699975E+027.4336734281E+01+
*       5.0017351852E+02               0
GRID*              15148               01.0125699975E+027.4336734281E+01+
*       4.9914259069E+02               0
GRID*              15149               01.0212365959E+027.4534290587E+01+
*       4.9965860844E+02               0
GRID*              15150               09.7940846932E+017.5021215179E+01+
*       5.1254408749E+02               0
GRID*              15151               09.6370211247E+017.7105512257E+01+
*       5.1099710975E+02               0
GRID*              15152               09.6756722447E+017.6304814511E+01+
*       5.1048257550E+02               0
GRID*              15153               09.6198399225E+017.7966508866E+01+
*       5.1151265357E+02               0
GRID*              15154               09.6366925164E+017.9716685031E+01+
*       5.1151444089E+02               0
GRID*              15155               09.6700606685E+018.0585464132E+01+
*       5.1100034344E+02               0
GRID*              15156               09.6366884411E+017.9716585856E+01+
*       5.1048384069E+02               0
GRID*              15157               01.0255481134E+027.4757236381E+01+
*       6.1371584123E+02               0
GRID*              15158               01.0442399715E+027.7104906356E+01+
*       4.9244386689E+02               0
GRID*              15159               01.0354871631E+027.5574567992E+01+
*       4.8110111452E+02               0
GRID*              15160               01.0466378184E+027.8878345165E+01+
*       5.9029601459E+02               0
GRID*              15161               01.0460152505E+027.7950297442E+01+
*       5.9085897846E+02               0
GRID*              15162               01.0460982635E+027.7990892486E+01+
*       5.9193691421E+02               0
GRID*              15163               01.0443852048E+027.7170382397E+01+
*       5.9131360045E+02               0
GRID*              15164               09.8656559956E+018.2295799676E+01+
*       4.8882112818E+02               0
GRID*              15165               09.7216169695E+018.1241865558E+01+
*       4.8985762853E+02               0
GRID*              15166               09.7907869206E+018.1886232952E+01+
*       4.9038203592E+02               0
GRID*              15167               09.7936973523E+018.1822248578E+01+
*       4.8934837725E+02               0
GRID*              15168               09.7203094960E+018.1237170575E+01+
*       4.8884519765E+02               0
GRID*              15169               01.0040077045E+028.2668402610E+01+
*       5.6408016845E+02               0
GRID*              15170               01.0127597245E+028.2557206673E+01+
*       5.6461058775E+02               0
GRID*              15171               01.0214031285E+028.2294556995E+01+
*       5.6410817757E+02               0
GRID*              15172               01.0288896687E+028.1884518767E+01+
*       5.6461117596E+02               0
GRID*              15173               01.0358346785E+028.1237663792E+01+
*       5.6408498615E+02               0
GRID*              15174               01.0286046966E+028.1820209192E+01+
*       5.6357875628E+02               0
GRID*              15175               01.0286070743E+028.1819920614E+01+
*       5.6564088156E+02               0
GRID*              15176               01.0214038202E+028.2294664517E+01+
*       5.6511213634E+02               0
GRID*              15177               01.0214030241E+028.2294599156E+01+
*       5.6617037625E+02               0
GRID*              15178               01.0354854225E+027.5574381062E+01+
*       4.9656731289E+02               0
GRID*              15179               01.0403700180E+027.6303691850E+01+
*       4.9605224116E+02               0
GRID*              15180               01.0127687795E+028.2580507017E+01+
*       5.6564157412E+02               0
GRID*              15181               01.0040059218E+028.2668303843E+01+
*       5.6514063415E+02               0
GRID*              15182               09.6366547843E+017.9715607187E+01+
*       4.9089755976E+02               0
GRID*              15183               09.6709577411E+018.0591382467E+01+
*       4.9141246813E+02               0
GRID*              15184               09.6702034497E+018.0583814502E+01+
*       4.9038404310E+02               0
GRID*              15185               09.6366559053E+017.9715668695E+01+
*       4.9192887464E+02               0
GRID*              15186               09.6702117983E+018.0583843129E+01+
*       4.9244102794E+02               0
GRID*              15187               01.0359256796E+028.1233422948E+01+
*       5.6513532159E+02               0
GRID*              15188               01.0039713287E+027.4165916443E+01+
*       4.9965743735E+02               0
GRID*              15189               01.0039713287E+027.4165916443E+01+
*       4.9862650952E+02               0
GRID*              15190               01.0127733163E+028.2580389131E+01+
*       5.6151752025E+02               0
GRID*              15191               09.6370472086E+017.7104634783E+01+
*       4.9141188695E+02               0
GRID*              15192               09.6198224742E+017.7965540873E+01+
*       4.9192772958E+02               0
GRID*              15193               09.6196433951E+017.8854819705E+01+
*       4.9244358264E+02               0
GRID*              15194               09.6366586434E+017.9715735280E+01+
*       4.9296026317E+02               0
GRID*              15195               09.7908674902E+018.1886724965E+01+
*       4.9863174033E+02               0
GRID*              15196               09.8657590906E+018.2296270998E+01+
*       4.9913345399E+02               0
GRID*              15197               09.6198329759E+017.7966754544E+01+
*       5.1048242675E+02               0
GRID*              15198               09.6702608714E+018.0583007311E+01+
*       5.4398799761E+02               0
GRID*              15199               09.6367265933E+017.9717695161E+01+
*       5.4348228365E+02               0
GRID*              15200               09.8661014288E+018.2297822084E+01+
*       5.4142789079E+02               0
GRID*              15201               09.7911629646E+018.1888925179E+01+
*       5.4193050176E+02               0
GRID*              15202               09.8660873318E+018.2297819340E+01+
*       5.4243143363E+02               0
GRID*              15203               09.6370069226E+017.7106730551E+01+
*       5.5842350181E+02               0
GRID*              15204               09.6370106518E+017.7106598266E+01+
*       5.5945462847E+02               0
GRID*              15205               09.6199114880E+017.7967421230E+01+
*       5.5893901864E+02               0
GRID*              15206               09.6370010524E+017.7106874612E+01+
*       5.5739246288E+02               0
GRID*              15207               09.6370092742E+017.7106483088E+01+
*       5.5636150825E+02               0
GRID*              15208               09.6756639883E+017.6304896254E+01+
*       5.3316482139E+02               0
GRID*              15209               09.6756583055E+017.6304967331E+01+
*       5.3213386293E+02               0
GRID*              15210               09.6756649116E+017.6304905824E+01+
*       5.0945213360E+02               0
GRID*              15211               09.6709178784E+018.0586979120E+01+
*       5.4708027611E+02               0
GRID*              15212               09.7203951535E+018.1238399624E+01+
*       5.4657928965E+02               0
GRID*              15213               09.6757020251E+017.6304893755E+01+
*       5.3419604376E+02               0
GRID*              15214               01.0214119705E+028.2294315174E+01+
*       5.5274002584E+02               0
GRID*              15215               01.0214089103E+028.2294333220E+01+
*       5.5173642926E+02               0
GRID*              15216               01.0127667275E+028.2557098621E+01+
*       5.5223863007E+02               0
GRID*              15217               09.6196459681E+017.8855999991E+01+
*       5.1099721724E+02               0
GRID*              15218               01.0441995642E+027.9708627233E+01+
*       5.5173096130E+02               0
GRID*              15219               01.0408883453E+028.0575089155E+01+
*       5.5120611084E+02               0
GRID*              15220               01.0441996504E+027.9708598094E+01+
*       5.5276197803E+02               0
GRID*              15221               01.0409684168E+028.0576422315E+01+
*       5.5223984514E+02               0
GRID*              15222               09.6367103670E+017.9717747310E+01+
*       5.4245084233E+02               0
GRID*              15223               09.6702566008E+018.0583137402E+01+
*       5.4193176306E+02               0
GRID*              15224               09.6367022383E+017.9717560446E+01+
*       5.4141989243E+02               0
GRID*              15225               09.6710375805E+018.0582016035E+01+
*       5.4089773087E+02               0
GRID*              15226               09.7215092392E+018.1243158589E+01+
*       5.4140515398E+02               0
GRID*              15227               01.0458914480E+027.8847687430E+01+
*       5.5223672948E+02               0
GRID*              15228               01.0458912555E+027.8847710170E+01+
*       5.5120608164E+02               0
GRID*              15229               09.6196428343E+017.8855847921E+01+
*       5.0996702845E+02               0
GRID*              15230               09.7940046725E+018.1824217203E+01+
*       5.4296019678E+02               0
GRID*              15231               09.6196625319E+017.8856664127E+01+
*       5.3986723915E+02               0
GRID*              15232               09.6196622037E+017.8856862402E+01+
*       5.4089782476E+02               0
GRID*              15233               09.6831603130E+018.0669820039E+01+
*       5.8938296148E+02               0
GRID*              15234               01.0212337521E+027.4534148147E+01+
*       5.2852364121E+02               0
GRID*              15235               09.6196632668E+017.8856934126E+01+
*       5.4192902503E+02               0
GRID*              15236               01.0459596024E+027.7963021652E+01+
*       5.3007086026E+02               0
GRID*              15237               01.0403664491E+027.6302785416E+01+
*       5.2697724904E+02               0
GRID*              15238               01.0403660216E+027.6302763742E+01+
*       5.2800830764E+02               0
GRID*              15239               01.0403686044E+027.6303055480E+01+
*       5.2594597890E+02               0
GRID*              15240               01.0354833661E+027.5574147023E+01+
*       5.2646153496E+02               0
GRID*              15241               01.0285274880E+027.5020523518E+01+
*       5.2697704109E+02               0
GRID*              15242               09.6196628189E+017.8856970008E+01+
*       5.4295970954E+02               0
GRID*              15243               01.0459760682E+027.8855224837E+01+
*       4.8110138042E+02               0
GRID*              15244               01.0125698246E+027.4336727243E+01+
*       5.0945146971E+02               0
GRID*              15245               09.6756740022E+017.6304687467E+01+
*       5.0842159288E+02               0
GRID*              15246               09.6756453739E+017.6305432386E+01+
*       5.3935093411E+02               0
GRID*              15247               09.6756555172E+017.6305305415E+01+
*       5.3831987580E+02               0
GRID*              15248               09.8658884144E+018.2296824151E+01+
*       5.7235944692E+02               0
GRID*              15249               09.8658078910E+018.2296561467E+01+
*       5.0431325208E+02               0
GRID*              15250               09.6367893959E+017.9716376145E+01+
*       5.7339722379E+02               0
GRID*              15251               09.6708378027E+018.0583767723E+01+
*       5.7388718365E+02               0
GRID*              15252               09.6699729699E+018.0580398393E+01+
*       5.7286175634E+02               0
GRID*              15253               09.7938732173E+018.1823281825E+01+
*       5.0584524122E+02               0
GRID*              15254               09.7909187702E+018.1887217921E+01+
*       5.0481424990E+02               0
GRID*              15255               09.7215290513E+018.1242358909E+01+
*       5.0533865267E+02               0
GRID*              15256               09.9522462110E+018.2581786481E+01+
*       5.0378447663E+02               0
GRID*              15257               01.0039870679E+028.2668320892E+01+
*       5.0428522366E+02               0
GRID*              15258               01.0039854317E+028.2668371974E+01+
*       5.0328381802E+02               0
GRID*              15259               01.0285907257E+028.1821472046E+01+
*       5.1408734967E+02               0
GRID*              15260               01.0442334621E+027.7103831325E+01+
*       5.1511865573E+02               0
GRID*              15261               09.7206526103E+018.1238696043E+01+
*       5.0428999228E+02               0
GRID*              15262               01.0354866242E+027.5574520500E+01+
*       4.9862895474E+02               0
GRID*              15263               01.0459596447E+027.7962744244E+01+
*       5.1769610187E+02               0
GRID*              15264               01.0459597686E+027.7962914916E+01+
*       5.1872707166E+02               0
GRID*              15265               01.0039906835E+028.2668304614E+01+
*       5.1458822495E+02               0
GRID*              15266               01.0127456652E+028.2557629405E+01+
*       5.1511809024E+02               0
GRID*              15267               01.0442819591E+027.9713771118E+01+
*       5.0945147713E+02               0
GRID*              15268               09.7206212523E+018.1238608011E+01+
*       5.1152232933E+02               0
GRID*              15269               09.7214403200E+018.1242109401E+01+
*       5.1358122733E+02               0
GRID*              15270               01.0039902397E+028.2668395695E+01+
*       5.1152591440E+02               0
GRID*              15271               01.0039917580E+028.2668295869E+01+
*       5.1252692684E+02               0
GRID*              15272               01.0039894254E+028.2668395404E+01+
*       5.1358720085E+02               0
GRID*              15273               01.0127455194E+028.2557564346E+01+
*       5.1305653737E+02               0
GRID*              15274               09.9522999730E+018.2582051249E+01+
*       5.1408754109E+02               0
GRID*              15275               09.9524225402E+018.2557813675E+01+
*       5.1305663325E+02               0
GRID*              15276               09.6370626945E+017.7105913560E+01+
*       5.3368078001E+02               0
GRID*              15277               09.7938706222E+018.1822666174E+01+
*       5.1614756535E+02               0
GRID*              15278               09.8658480548E+018.2296742164E+01+
*       5.1667856757E+02               0
GRID*              15279               09.6198452543E+017.7966663309E+01+
*       5.3316549870E+02               0
GRID*              15280               09.7909511079E+018.1887370141E+01+
*       5.1511886452E+02               0
GRID*              15281               09.7203176296E+018.1237497309E+01+
*       5.1564505009E+02               0
GRID*              15282               09.9518726693E+018.2557259939E+01+
*       4.5119972763E+02               0
GRID*              15283               09.8748035610E+018.2336457699E+01+
*       5.8680786956E+02               0
GRID*              15284               09.9629507614E+018.2614290953E+01+
*       5.8629605184E+02               0
GRID*              15285               09.8728241365E+018.2335015491E+01+
*       5.8576012535E+02               0
GRID*              15286               09.9517374368E+018.2580467745E+01+
*       4.5222998498E+02               0
GRID*              15287               01.0039713287E+027.4165916443E+01+
*       5.8934815900E+02               0
GRID*              15288               01.0039713287E+027.4165916443E+01+
*       5.8831723117E+02               0
GRID*              15289               01.0126105213E+027.4338415011E+01+
*       5.8881767321E+02               0
GRID*              15290               09.6701224716E+018.0583172523E+01+
*       4.5120385658E+02               0
GRID*              15291               09.6709089771E+018.0585914308E+01+
*       4.5222898193E+02               0
GRID*              15292               09.9518505764E+017.4344594331E+01+
*       5.8883779483E+02               0
GRID*              15293               09.9518505764E+017.4344594331E+01+
*       5.8780686699E+02               0
GRID*              15294               01.0039713287E+027.4165916443E+01+
*       5.8522444766E+02               0
GRID*              15295               01.0039713287E+027.4165916443E+01+
*       5.8625537550E+02               0
GRID*              15296               09.9523169041E+017.4342622429E+01+
*       5.8574340731E+02               0
GRID*              15297               09.8654251747E+018.2294786274E+01+
*       4.4964073901E+02               0
GRID*              15298               09.8654402093E+018.2294778271E+01+
*       4.5069765133E+02               0
GRID*              15299               09.9517815460E+018.2580528206E+01+
*       4.5016936589E+02               0
GRID*              15300               09.7934815642E+018.1821170567E+01+
*       4.5016797459E+02               0
GRID*              15301               01.0039713287E+027.4165916443E+01+
*       5.8419351983E+02               0
GRID*              15302               09.9528880713E+017.4340223928E+01+
*       5.8367916390E+02               0
GRID*              15303               09.6702946699E+018.0592534489E+01+
*       5.7905636102E+02               0
GRID*              15304               09.7221115300E+018.1247311184E+01+
*       5.7853039618E+02               0
GRID*              15305               09.6709555214E+018.0589614640E+01+
*       5.7801738733E+02               0
GRID*              15306               09.7207059356E+018.1242740946E+01+
*       5.7958468426E+02               0
GRID*              15307               09.6198426248E+017.7962109411E+01+
*       4.5996110644E+02               0
GRID*              15308               09.6198281497E+017.7962750143E+01+
*       4.5893086371E+02               0
GRID*              15309               09.6371015676E+017.7102111273E+01+
*       4.6047720323E+02               0
GRID*              15310               09.6370870925E+017.7102752005E+01+
*       4.5944696050E+02               0
GRID*              15311               01.0398254529E+028.0658468005E+01+
*       6.0692104665E+02               0
GRID*              15312               01.0344549169E+028.1348941643E+01+
*       6.0755296346E+02               0
GRID*              15313               01.0439375169E+027.9899311817E+01+
*       6.0118152509E+02               0
GRID*              15314               01.0461335064E+027.8954752835E+01+
*       6.0163180125E+02               0
GRID*              15315               09.6198280776E+017.7962659069E+01+
*       4.5789977321E+02               0
GRID*              15316               09.6198274669E+017.7962669786E+01+
*       4.5686955444E+02               0
GRID*              15317               09.6370919844E+017.7102631737E+01+
*       4.5635465537E+02               0
GRID*              15318               09.6758360426E+017.6301876532E+01+
*       4.5687036650E+02               0
GRID*              15319               09.6370897130E+017.7102685695E+01+
*       4.5738567843E+02               0
GRID*              15320               09.6758337712E+017.6301930489E+01+
*       4.5790138956E+02               0
GRID*              15321               01.0445998028E+027.9724570616E+01+
*       6.1048087056E+02               0
GRID*              15322               01.0459630650E+027.7965815709E+01+
*       4.7955468572E+02               0
GRID*              15323               01.0459631061E+027.7966034184E+01+
*       4.7852393970E+02               0
GRID*              15324               09.7047015589E+018.1024581232E+01+
*       5.9703686903E+02               0
GRID*              15325               09.6678120742E+018.0377489126E+01+
*       5.9654000376E+02               0
GRID*              15326               09.7020702376E+018.0987273798E+01+
*       5.9790139508E+02               0
GRID*              15327               01.0039356183E+027.4166118918E+01+
*       6.1511752147E+02               0
GRID*              15328               09.7933919857E+018.1819930954E+01+
*       4.6872356933E+02               0
GRID*              15329               09.7213984313E+018.1239091709E+01+
*       4.6923307755E+02               0
GRID*              15330               09.6365503533E+017.9712267079E+01+
*       4.6924184278E+02               0
GRID*              15331               09.6700220047E+018.0581545849E+01+
*       4.6975971738E+02               0
GRID*              15332               09.9360041759E+017.4283427410E+01+
*       6.1552783452E+02               0
GRID*              15333               09.8652498271E+018.2293926818E+01+
*       4.6819572077E+02               0
GRID*              15334               09.6365455450E+017.9712043198E+01+
*       4.6821040662E+02               0
GRID*              15335               01.0126993089E+028.2581994393E+01+
*       4.6872481855E+02               0
GRID*              15336               01.0126898269E+028.2558494023E+01+
*       4.6975626267E+02               0
GRID*              15337               01.0039323691E+028.2668311793E+01+
*       4.6922623684E+02               0
GRID*              15338               01.0213470242E+028.2297133108E+01+
*       4.7025902285E+02               0
GRID*              15339               01.0213491607E+028.2297126909E+01+
*       4.7131765517E+02               0
GRID*              15340               01.0127030074E+028.2581943285E+01+
*       4.7078805107E+02               0
GRID*              15341               01.0039352262E+028.2668402371E+01+
*       4.7028716932E+02               0
GRID*              15342               01.0214987962E+027.4544987648E+01+
*       6.0688772577E+02               0
GRID*              15343               01.0459625115E+027.7965109647E+01+
*       4.8574113875E+02               0
GRID*              15344               01.0402239969E+028.0698479281E+01+
*       6.0898350206E+02               0
GRID*              15345               01.0454895129E+027.9073058138E+01+
*       5.9421013200E+02               0
GRID*              15346               01.0409151772E+028.0584715549E+01+
*       4.8419733129E+02               0
GRID*              15347               01.0039284008E+027.4190896573E+01+
*       6.1099567689E+02               0
GRID*              15348               01.0039713287E+027.4165916443E+01+
*       6.0996671570E+02               0
GRID*              15349               01.0124159165E+027.4222466360E+01+
*       6.1151696243E+02               0
GRID*              15350               09.6845037140E+018.0739333237E+01+
*       6.0338028311E+02               0
GRID*              15351               09.6880758583E+018.0786653182E+01+
*       6.0446480024E+02               0
GRID*              15352               09.7516143685E+018.1478829000E+01+
*       6.0390458708E+02               0
GRID*              15353               09.7537684064E+018.1493946389E+01+
*       6.0497832677E+02               0
GRID*              15354               01.0403706845E+027.6303948982E+01+
*       4.7749298229E+02               0
GRID*              15355               01.0442413486E+027.7105480913E+01+
*       4.7697700753E+02               0
GRID*              15356               01.0403712263E+027.6304097768E+01+
*       4.7852372959E+02               0
GRID*              15357               01.0442418904E+027.7105629699E+01+
*       4.7800775483E+02               0
GRID*              15358               01.0213576980E+028.2296684216E+01+
*       4.7644764263E+02               0
GRID*              15359               01.0285565852E+028.1823322840E+01+
*       4.7697691896E+02               0
GRID*              15360               01.0358704598E+028.1239432255E+01+
*       4.7748235346E+02               0
GRID*              15361               01.0354874356E+027.5574584053E+01+
*       4.7800806338E+02               0
GRID*              15362               01.0354884282E+027.5574683117E+01+
*       4.7697720946E+02               0
GRID*              15363               01.0408381103E+028.0593019776E+01+
*       4.7697670172E+02               0
GRID*              15364               01.0442707139E+027.9717553111E+01+
*       4.7646185139E+02               0
GRID*              15365               01.0442704443E+027.9717392297E+01+
*       4.7749328730E+02               0
GRID*              15366               01.0359406708E+027.5626608441E+01+
*       5.9140422611E+02               0
GRID*              15367               01.0406960546E+027.6355817562E+01+
*       5.9184958367E+02               0
GRID*              15368               09.6755950119E+017.6306048260E+01+
*       5.6306200275E+02               0
GRID*              15369               09.7244460997E+017.5575792846E+01+
*       5.6357746508E+02               0
GRID*              15370               09.7940202519E+017.5021563029E+01+
*       5.6409195823E+02               0
GRID*              15371               09.7244443471E+017.5575810347E+01+
*       5.6254653367E+02               0
GRID*              15372               09.8667098995E+017.4535723692E+01+
*       4.3058521697E+02               0
GRID*              15373               09.8667485475E+017.4535537942E+01+
*       4.2955376478E+02               0
GRID*              15374               01.0125702835E+027.4336746510E+01+
*       5.7130679945E+02               0
GRID*              15375               01.0212358718E+027.4534249819E+01+
*       5.7079318227E+02               0
GRID*              15376               09.7940062559E+017.5022239826E+01+
*       4.3006793126E+02               0
GRID*              15377               09.6756335297E+017.6305455454E+01+
*       5.7027873370E+02               0
GRID*              15378               09.6756233498E+017.6305583057E+01+
*       5.6924760378E+02               0
GRID*              15379               09.6756425248E+017.6305236669E+01+
*       5.7130965351E+02               0
GRID*              15380               01.0358665961E+028.1239972343E+01+
*       4.4449109693E+02               0
GRID*              15381               01.0288500873E+028.1887065010E+01+
*       4.4501625804E+02               0
GRID*              15382               01.0357851007E+028.1243422746E+01+
*       4.4554034413E+02               0
GRID*              15383               01.0213548956E+028.2296821066E+01+
*       4.4551797088E+02               0
GRID*              15384               01.0127150869E+028.2581909894E+01+
*       4.4604727465E+02               0
GRID*              15385               09.6379672205E+017.7108683914E+01+
*       5.7182644622E+02               0
GRID*              15386               09.6381390366E+017.7108890997E+01+
*       5.7285812464E+02               0
GRID*              15387               09.6209568221E+017.7968816262E+01+
*       5.7337361457E+02               0
GRID*              15388               09.6207850059E+017.7968609180E+01+
*       5.7234193615E+02               0
GRID*              15389               01.0316380405E+028.1589270631E+01+
*       5.9631095400E+02               0
GRID*              15390               01.0320209858E+028.1573796832E+01+
*       5.9527675405E+02               0
GRID*              15391               09.7244069550E+017.5576086951E+01+
*       5.7594995535E+02               0
GRID*              15392               01.0039542153E+028.2668422824E+01+
*       4.4448592518E+02               0
GRID*              15393               01.0127026971E+028.2557908972E+01+
*       4.4501655210E+02               0
GRID*              15394               01.0374409809E+028.1030340904E+01+
*       5.9679210318E+02               0
GRID*              15395               01.0039527194E+028.2668301903E+01+
*       4.4554619444E+02               0
GRID*              15396               09.7940275429E+017.5021491534E+01+
*       5.7337061854E+02               0
GRID*              15397               09.6755997685E+017.6306131688E+01+
*       5.7646637935E+02               0
GRID*              15398               01.0212349626E+027.4534216045E+01+
*       5.5326608812E+02               0
GRID*              15399               01.0212359922E+027.4534258609E+01+
*       5.5429704103E+02               0
GRID*              15400               01.0354983377E+027.5575922119E+01+
*       4.3264523887E+02               0
GRID*              15401               01.0355108592E+027.5577492827E+01+
*       4.3161370627E+02               0
GRID*              15402               01.0125691078E+027.4336697978E+01+
*       5.5378070051E+02               0
GRID*              15403               01.0125701373E+027.4336740541E+01+
*       5.5481165342E+02               0
GRID*              15404               09.9524829913E+018.2558223290E+01+
*       5.3161888455E+02               0
GRID*              15405               09.6209676198E+017.9106212073E+01+
*       6.0558831278E+02               0
GRID*              15406               09.6521242551E+018.0014214720E+01+
*       6.0609394934E+02               0
GRID*              15407               09.6213730176E+017.8225738719E+01+
*       6.0614411941E+02               0
GRID*              15408               09.6495109686E+017.9935447810E+01+
*       6.0396812839E+02               0
GRID*              15409               09.6506190579E+017.9989048189E+01+
*       6.0502726845E+02               0
GRID*              15410               09.8659639877E+018.2297244305E+01+
*       5.3418367898E+02               0
GRID*              15411               09.9525123876E+018.2558403534E+01+
*       5.3368128547E+02               0
GRID*              15412               01.0214032165E+028.2294660197E+01+
*       5.3111678359E+02               0
GRID*              15413               01.0127520214E+028.2557148299E+01+
*       5.3161909452E+02               0
GRID*              15414               09.6196554229E+017.8856230598E+01+
*       5.3471227398E+02               0
GRID*              15415               09.6198467406E+017.7966653684E+01+
*       5.3419647782E+02               0
GRID*              15416               09.6702122273E+018.0583018839E+01+
*       5.3368419080E+02               0
GRID*              15417               09.6194797171E+017.9017591518E+01+
*       6.0347643051E+02               0
GRID*              15418               09.6198595305E+017.9052611694E+01+
*       6.0452917273E+02               0
GRID*              15419               09.6825677631E+018.0705868752E+01+
*       6.0230096592E+02               0
GRID*              15420               09.6475750176E+017.9901983325E+01+
*       6.0288881121E+02               0
GRID*              15421               09.6366842032E+017.9716875238E+01+
*       5.3523252837E+02               0
GRID*              15422               09.6366849755E+017.9716888779E+01+
*       5.3420132369E+02               0
GRID*              15423               09.6222863149E+017.8188531930E+01+
*       6.0509496963E+02               0
GRID*              15424               09.6460968078E+017.9817924939E+01+
*       6.0182822344E+02               0
GRID*              15425               09.7245404644E+017.5574640280E+01+
*       5.2439974285E+02               0
GRID*              15426               09.7245507089E+017.5574537998E+01+
*       5.2543086420E+02               0
GRID*              15427               09.7940998373E+017.5021082243E+01+
*       5.2491535357E+02               0
GRID*              15428               09.7940982139E+017.5021089957E+01+
*       5.2594647109E+02               0
GRID*              15429               09.9536820080E+017.4336920458E+01+
*       5.2285339447E+02               0
GRID*              15430               09.8670367577E+017.4534379503E+01+
*       5.2336865790E+02               0
GRID*              15431               09.8670493221E+017.4534327484E+01+
*       5.2439963947E+02               0
GRID*              15432               01.0464027616E+027.8240217644E+01+
*       4.1701046794E+02               0
GRID*              15433               09.6366650692E+017.9715603865E+01+
*       5.2182370202E+02               0
GRID*              15434               09.8657920063E+018.2296502974E+01+
*       5.2080324567E+02               0
GRID*              15435               01.0166676482E+028.2456331282E+01+
*       4.2292508698E+02               0
GRID*              15436               01.0087493868E+028.2681431186E+01+
*       4.2259080266E+02               0
GRID*              15437               01.0101000557E+028.2637937725E+01+
*       4.2136514847E+02               0
GRID*              15438               01.0003297626E+028.2675071798E+01+
*       4.2182505969E+02               0
GRID*              15439               01.0458973852E+027.8848060891E+01+
*       5.3986646209E+02               0
GRID*              15440               01.0459591359E+027.7962234811E+01+
*       5.4038202589E+02               0
GRID*              15441               09.7245130712E+017.5574967275E+01+
*       5.1202799777E+02               0
GRID*              15442               09.7940832920E+017.5021192149E+01+
*       5.1460559268E+02               0
GRID*              15443               09.7245205660E+017.5574899079E+01+
*       5.1512019403E+02               0
GRID*              15444               09.6366762943E+017.9716195860E+01+
*       5.0327102073E+02               0
GRID*              15445               09.6366798966E+017.9716367995E+01+
*       5.0430130205E+02               0
GRID*              15446               09.6709111346E+018.0592671575E+01+
*       5.0378381183E+02               0
GRID*              15447               09.7941073599E+017.5020877892E+01+
*       4.9089555771E+02               0
GRID*              15448               09.8670373898E+017.4534392061E+01+
*       4.9037960884E+02               0
GRID*              15449               09.8670206242E+017.4534461406E+01+
*       4.9141066143E+02               0
GRID*              15450               09.9537072970E+017.4336816170E+01+
*       4.8986402761E+02               0
GRID*              15451               09.9536905314E+017.4336885515E+01+
*       4.9089508019E+02               0
GRID*              15452               09.7245726988E+017.5574337053E+01+
*       4.9038012456E+02               0
GRID*              15453               09.7245646593E+017.5574437999E+01+
*       4.9141124327E+02               0
GRID*              15454               01.0285562802E+027.5022039619E+01+
*       4.3006709666E+02               0
GRID*              15455               01.0285446025E+027.5021476484E+01+
*       4.3109842288E+02               0
GRID*              15456               09.7245710900E+017.5574373827E+01+
*       4.9244248861E+02               0
GRID*              15457               09.7941137905E+017.5020813720E+01+
*       4.9192680305E+02               0
GRID*              15458               09.7941254114E+017.5020790912E+01+
*       4.8986453289E+02               0
GRID*              15459               09.7245906019E+017.5574158410E+01+
*       4.8934895264E+02               0
GRID*              15460               09.8670554414E+017.4534305081E+01+
*       4.8934858401E+02               0
GRID*              15461               01.0125696803E+027.4336721198E+01+
*       5.0429716327E+02               0
GRID*              15462               01.0125696803E+027.4336721198E+01+
*       5.0326623544E+02               0
GRID*              15463               01.0212358936E+027.4534259344E+01+
*       5.0378170062E+02               0
GRID*              15464               01.0039713287E+027.4165916443E+01+
*       5.0378114869E+02               0
GRID*              15465               01.0039713287E+027.4165916443E+01+
*       5.0275022086E+02               0
GRID*              15466               09.9536850547E+017.4336908106E+01+
*       5.0429755600E+02               0
GRID*              15467               09.9536850547E+017.4336908106E+01+
*       5.0326662817E+02               0
GRID*              15468               01.0212346415E+027.4534199284E+01+
*       5.0481223660E+02               0
GRID*              15469               01.0442467089E+027.7106800876E+01+
*       4.5635339062E+02               0
GRID*              15470               09.8670247905E+017.4534438909E+01+
*       5.0481304679E+02               0
GRID*              15471               09.9536739679E+017.4336953961E+01+
*       5.0532836694E+02               0
GRID*              15472               09.8670270207E+017.4534433982E+01+
*       5.0275142214E+02               0
GRID*              15473               09.8670181797E+017.4534470541E+01+
*       5.0378228367E+02               0
GRID*              15474               09.7940843905E+017.5021123959E+01+
*       5.0326762854E+02               0
GRID*              15475               09.9536681557E+017.4336977902E+01+
*       4.3110007827E+02               0
GRID*              15476               09.7245283307E+017.5574804738E+01+
*       5.0481396015E+02               0
GRID*              15477               09.7940743188E+017.5021224508E+01+
*       5.0429842684E+02               0
GRID*              15478               09.9536938958E+017.4336871546E+01+
*       5.0223576664E+02               0
GRID*              15479               09.7245384023E+017.5574704190E+01+
*       5.0378316185E+02               0
GRID*              15480               01.0354926613E+027.5575189914E+01+
*       4.6254007101E+02               0
GRID*              15481               01.0354917106E+027.5575070731E+01+
*       4.6150916110E+02               0
GRID*              15482               01.0403750668E+027.6304646938E+01+
*       4.6202438669E+02               0
GRID*              15483               01.0403760176E+027.6304766120E+01+
*       4.6305529660E+02               0
GRID*              15484               09.6701587025E+018.0583731911E+01+
*       4.4914246130E+02               0
GRID*              15485               09.6709319772E+018.0586289730E+01+
*       4.5016825285E+02               0
GRID*              15486               09.7202128662E+018.1236032537E+01+
*       4.4966493879E+02               0
GRID*              15487               01.0285375674E+027.5021243958E+01+
*       4.6202580144E+02               0
GRID*              15488               01.0442454657E+027.7106715634E+01+
*       4.6356986382E+02               0
GRID*              15489               09.9537417619E+017.4336673616E+01+
*       4.6821387057E+02               0
GRID*              15490               09.9537328543E+017.4336710433E+01+
*       4.6718279964E+02               0
GRID*              15491               01.0285373012E+027.5021342790E+01+
*       4.5996375262E+02               0
GRID*              15492               01.0354934502E+027.5575233498E+01+
*       4.5944733962E+02               0
GRID*              15493               01.0354938740E+027.5575286718E+01+
*       4.6047800970E+02               0
GRID*              15494               01.0285351378E+027.5021126804E+01+
*       4.6099490402E+02               0
GRID*              15495               01.0403752623E+027.6304684724E+01+
*       4.6099283796E+02               0
GRID*              15496               01.0442455334E+027.7106666571E+01+
*       4.6047656781E+02               0
GRID*              15497               01.0442450674E+027.7106478367E+01+
*       4.6150718163E+02               0
GRID*              15498               09.7904667800E+018.1883912567E+01+
*       4.7181994361E+02               0
GRID*              15499               09.7203785154E+018.1235743066E+01+
*       4.7234609427E+02               0
GRID*              15500               09.6365627098E+017.9712725293E+01+
*       4.7233672832E+02               0
GRID*              15501               09.6700567068E+018.0581412994E+01+
*       4.7182288710E+02               0
GRID*              15502               09.6365617663E+017.9712702322E+01+
*       4.7130500477E+02               0
GRID*              15503               09.6708313958E+018.0584606080E+01+
*       4.7078645450E+02               0
GRID*              15504               01.0409008811E+028.0588206768E+01+
*       4.5325653920E+02               0
GRID*              15505               01.0442463038E+027.7106561135E+01+
*       4.5120111699E+02               0
GRID*              15506               09.9519078470E+018.2557091395E+01+
*       4.7388265658E+02               0
GRID*              15507               01.0039409280E+028.2668305238E+01+
*       4.7335249564E+02               0
GRID*              15508               09.9517689444E+018.2580697911E+01+
*       4.7285091752E+02               0
GRID*              15509               01.0442460134E+027.7106494839E+01+
*       4.4810911237E+02               0
GRID*              15510               01.0459650709E+027.7967508956E+01+
*       4.4862395733E+02               0
GRID*              15511               01.0127264783E+028.2581550093E+01+
*       4.8316295799E+02               0
GRID*              15512               01.0213669699E+028.2296331145E+01+
*       4.8163038831E+02               0
GRID*              15513               01.0127226975E+028.2581627851E+01+
*       4.8110072702E+02               0
GRID*              15514               01.0039604736E+028.2668326352E+01+
*       4.8160165080E+02               0
GRID*              15515               01.0127129741E+028.2557829312E+01+
*       4.8213207759E+02               0
GRID*              15516               01.0442467633E+027.7106774331E+01+
*       4.5223117119E+02               0
GRID*              15517               01.0403776287E+027.6305147369E+01+
*       4.5171615578E+02               0
GRID*              15518               01.0459652659E+027.7967696007E+01+
*       4.5274596135E+02               0
GRID*              15519               01.0408221112E+028.0591065667E+01+
*       4.5429217747E+02               0
GRID*              15520               01.0442629719E+027.9719915379E+01+
*       4.5480581555E+02               0
GRID*              15521               01.0442631283E+027.9719857769E+01+
*       4.5377592117E+02               0
GRID*              15522               01.0403703535E+027.6303781053E+01+
*       4.6924332532E+02               0
GRID*              15523               01.0442411717E+027.7105335139E+01+
*       4.7078957087E+02               0
GRID*              15524               01.0403709506E+027.6303935543E+01+
*       4.7027470039E+02               0
GRID*              15525               01.0354940374E+027.5575318109E+01+
*       4.5120152734E+02               0
GRID*              15526               01.0354920452E+027.5575068608E+01+
*       4.5017123507E+02               0
GRID*              15527               01.0212374662E+027.4534326040E+01+
*       4.8110087957E+02               0
GRID*              15528               01.0285316677E+027.5020835603E+01+
*       4.8058566528E+02               0
GRID*              15529               01.0285330357E+027.5020972126E+01+
*       4.8161658049E+02               0
GRID*              15530               01.0354877339E+027.5574604903E+01+
*       4.8316315898E+02               0
GRID*              15531               09.6371196271E+017.7101760323E+01+
*       4.6872663587E+02               0
GRID*              15532               09.7247406506E+017.5572415237E+01+
*       4.6563392356E+02               0
GRID*              15533               09.7213961207E+018.1239318272E+01+
*       4.7129642063E+02               0
GRID*              15534               01.0214091517E+028.2294404908E+01+
*       5.5067842735E+02               0
GRID*              15535               09.6198427346E+017.7962026146E+01+
*       4.6099221815E+02               0
GRID*              15536               09.6371053832E+017.7102132390E+01+
*       4.6253912918E+02               0
GRID*              15537               09.6758752021E+017.6301332126E+01+
*       4.6305554618E+02               0
GRID*              15538               09.6758707143E+017.6301439323E+01+
*       4.6408683884E+02               0
GRID*              15539               09.6371008954E+017.7102239586E+01+
*       4.6357042183E+02               0
GRID*              15540               09.7244490785E+017.5575762832E+01+
*       5.4192752044E+02               0
GRID*              15541               09.6755979991E+017.6305758779E+01+
*       5.4244322671E+02               0
GRID*              15542               01.0442821193E+027.9715518187E+01+
*       4.8883579655E+02               0
GRID*              15543               01.0459822462E+027.8854110757E+01+
*       4.8935045395E+02               0
GRID*              15544               01.0212341171E+027.4534170025E+01+
*       5.4708094465E+02               0
GRID*              15545               01.0285241512E+027.5020245970E+01+
*       5.4759629427E+02               0
GRID*              15546               01.0212351574E+027.4534213039E+01+
*       5.4811176852E+02               0
GRID*              15547               01.0213648912E+028.2296377508E+01+
*       4.8057198059E+02               0
GRID*              15548               01.0354786586E+027.5573609488E+01+
*       5.4811253299E+02               0
GRID*              15549               01.0403648203E+027.6302655342E+01+
*       5.4759733093E+02               0
GRID*              15550               01.0285243489E+027.5020255235E+01+
*       5.4862724129E+02               0
GRID*              15551               01.0285252934E+027.5020349436E+01+
*       5.4965798067E+02               0
GRID*              15552               01.0212353551E+027.4534222304E+01+
*       5.4914271554E+02               0
GRID*              15553               09.8655848657E+018.2295500345E+01+
*       4.3520768189E+02               0
GRID*              15554               09.7936985460E+018.1822437001E+01+
*       4.3573538665E+02               0
GRID*              15555               09.8656523453E+018.2295730050E+01+
*       4.3626620645E+02               0
GRID*              15556               09.8655593345E+018.2295406147E+01+
*       4.3726976867E+02               0
GRID*              15557               09.9520964320E+018.2557580412E+01+
*       4.3676831010E+02               0
GRID*              15558               09.7216284240E+018.1242002246E+01+
*       4.3624397177E+02               0
GRID*              15559               09.7906798764E+018.1885310946E+01+
*       4.3676854678E+02               0
GRID*              15560               09.9519575085E+018.2580982866E+01+
*       4.3779949577E+02               0
GRID*              15561               01.0039632491E+028.2668321135E+01+
*       4.3729864471E+02               0
GRID*              15562               09.8655678891E+018.2295366720E+01+
*       4.3832820464E+02               0
GRID*              15563               09.7936269243E+018.1822044321E+01+
*       4.3779907952E+02               0
GRID*              15564               09.7205898268E+018.1238131463E+01+
*       4.3729365048E+02               0
GRID*              15565               01.0285498429E+028.1823846697E+01+
*       4.4604735091E+02               0
GRID*              15566               09.9518916609E+018.2580749341E+01+
*       4.4398581813E+02               0
GRID*              15567               09.8655253849E+018.2295276425E+01+
*       4.4345607664E+02               0
GRID*              15568               09.8655111009E+018.2295111599E+01+
*       4.4451406452E+02               0
GRID*              15569               09.9536810483E+017.4336924363E+01+
*       5.7233801469E+02               0
GRID*              15570               09.9519928537E+018.2557563119E+01+
*       4.4501623326E+02               0
GRID*              15571               09.7205698129E+018.1237705751E+01+
*       4.4347972716E+02               0
GRID*              15572               09.6709501281E+018.0591474795E+01+
*       4.4398539471E+02               0
GRID*              15573               09.7205712535E+018.1237728170E+01+
*       4.4449042831E+02               0
GRID*              15574               09.6366497664E+017.9715602072E+01+
*       4.4450083243E+02               0
GRID*              15575               09.8655394777E+018.2295281911E+01+
*       4.4551783594E+02               0
GRID*              15576               09.7935664869E+018.1821983341E+01+
*       4.4604686908E+02               0
GRID*              15577               09.7906342179E+018.1884757165E+01+
*       4.4501598570E+02               0
GRID*              15578               09.9518611648E+018.2580673247E+01+
*       4.4604740246E+02               0
GRID*              15579               09.8655190732E+018.2295107397E+01+
*       4.4657555930E+02               0
GRID*              15580               01.0039713287E+027.4165916443E+01+
*       5.3367805591E+02               0
GRID*              15581               09.7129771948E+018.1147108998E+01+
*       4.1903856095E+02               0
GRID*              15582               09.7733107339E+018.1792081993E+01+
*       4.1852003966E+02               0
GRID*              15583               09.7202461467E+018.1224204950E+01+
*       4.1809550716E+02               0
GRID*              15584               01.0066817743E+028.2689848554E+01+
*       4.1901842635E+02               0
GRID*              15585               01.0075619276E+028.2669046920E+01+
*       4.2012961982E+02               0
GRID*              15586               01.0173712631E+028.2448437589E+01+
*       4.1961540061E+02               0
GRID*              15587               01.0160359854E+028.2495575589E+01+
*       4.1848811308E+02               0
GRID*              15588               01.0163198614E+028.2481737977E+01+
*       4.2072483780E+02               0
GRID*              15589               01.0053589869E+028.2612706991E+01+
*       4.2051363498E+02               0
GRID*              15590               01.0442334740E+027.7103624812E+01+
*       5.1718069616E+02               0
GRID*              15591               01.0285258199E+027.5020372689E+01+
*       5.1666652687E+02               0
GRID*              15592               09.7679164048E+018.1631051068E+01+
*       4.2088318031E+02               0
GRID*              15593               09.8681990534E+018.2360769311E+01+
*       4.2037540704E+02               0
GRID*              15594               09.7808107986E+018.1708194664E+01+
*       4.1984301849E+02               0
GRID*              15595               09.8838393535E+018.2420164647E+01+
*       4.1933032558E+02               0
GRID*              15596               01.0183047030E+028.2424005249E+01+
*       4.1720780835E+02               0
GRID*              15597               01.0288376074E+028.1891841463E+01+
*       4.1697883446E+02               0
GRID*              15598               09.8893394284E+018.2372269532E+01+
*       4.1696481925E+02               0
GRID*              15599               01.0027746554E+028.2662720271E+01+
*       4.1690615064E+02               0
GRID*              15600               09.9750010217E+018.2591917363E+01+
*       4.1771868854E+02               0
GRID*              15601               01.0235963344E+028.2207197254E+01+
*       4.1907227328E+02               0
GRID*              15602               09.7208177879E+018.1243474568E+01+
*       4.3111661234E+02               0
GRID*              15603               09.7912302665E+018.1889877913E+01+
*       4.3058881780E+02               0
GRID*              15604               09.7216163918E+018.1243931766E+01+
*       4.3006215455E+02               0
GRID*              15605               01.0040154650E+028.2668345079E+01+
*       5.3933760389E+02               0
GRID*              15606               01.0286050354E+028.1819444670E+01+
*       5.3677446641E+02               0
GRID*              15607               09.6704536180E+018.0587674779E+01+
*       4.3058353957E+02               0
GRID*              15608               09.6713084818E+018.0593399454E+01+
*       4.3161289681E+02               0
GRID*              15609               09.8660312722E+018.2297541999E+01+
*       5.3524181120E+02               0
GRID*              15610               09.9525324971E+018.2558497971E+01+
*       5.3574352958E+02               0
GRID*              15611               09.8660613766E+018.2297660548E+01+
*       5.3730387135E+02               0
GRID*              15612               09.6194810699E+017.8899234396E+01+
*       4.2646613745E+02               0
GRID*              15613               09.6790003126E+018.0610939091E+01+
*       4.2547475182E+02               0
GRID*              15614               09.6196180267E+017.8877926922E+01+
*       4.2956139025E+02               0
GRID*              15615               09.6198585126E+017.7988044654E+01+
*       4.2904539379E+02               0
GRID*              15616               09.6198483896E+017.7972502505E+01+
*       4.3006750688E+02               0
GRID*              15617               09.6196079037E+017.8862384773E+01+
*       4.3058350335E+02               0
GRID*              15618               01.0459617123E+027.7961786989E+01+
*       5.5378257264E+02               0
GRID*              15619               01.0459620599E+027.7961952191E+01+
*       5.5481358516E+02               0
GRID*              15620               01.0442333576E+027.7102989100E+01+
*       5.5326724271E+02               0
GRID*              15621               01.0442337051E+027.7103154302E+01+
*       5.5429825523E+02               0
GRID*              15622               01.0444129472E+027.9721336233E+01+
*       5.9458421125E+02               0
GRID*              15623               09.6373335009E+017.9729565288E+01+
*       4.2904286444E+02               0
GRID*              15624               01.0211206601E+028.2307020241E+01+
*       4.2903102396E+02               0
GRID*              15625               01.0212048948E+028.2303640249E+01+
*       4.3009008222E+02               0
GRID*              15626               01.0283978573E+028.1835841203E+01+
*       4.2956167531E+02               0
GRID*              15627               01.0287611922E+028.1893086030E+01+
*       4.3057932986E+02               0
GRID*              15628               01.0285281780E+027.5019041330E+01+
*       5.8471397741E+02               0
GRID*              15629               01.0357667620E+028.1251343340E+01+
*       4.3005465555E+02               0
GRID*              15630               01.0039279352E+028.2668475676E+01+
*       4.3111695036E+02               0
GRID*              15631               01.0126468055E+028.2560557278E+01+
*       4.3058647897E+02               0
GRID*              15632               01.0397894575E+028.0778561708E+01+
*       6.0796166438E+02               0
GRID*              15633               01.0346251346E+028.1385142813E+01+
*       6.0859772796E+02               0
GRID*              15634               01.0354827473E+027.5574823366E+01+
*       5.8420867194E+02               0
GRID*              15635               01.0354813469E+027.5574684194E+01+
*       5.8318273172E+02               0
GRID*              15636               01.0285267777E+027.5018902158E+01+
*       5.8368803718E+02               0
GRID*              15637               01.0285491982E+027.5020057106E+01+
*       5.8574593114E+02               0
GRID*              15638               01.0212898237E+027.4536827735E+01+
*       5.8626203419E+02               0
GRID*              15639               01.0285642517E+027.5021554718E+01+
*       5.8676424567E+02               0
GRID*              15640               01.0127576163E+028.2580418207E+01+
*       5.7389518741E+02               0
GRID*              15641               01.0040017158E+028.2668450391E+01+
*       5.7439573194E+02               0
GRID*              15642               01.0194400139E+028.2391469630E+01+
*       6.0963709999E+02               0
GRID*              15643               01.0131211061E+028.2569039092E+01+
*       6.1028538082E+02               0
GRID*              15644               01.0247086713E+028.2151895015E+01+
*       6.1047804451E+02               0
GRID*              15645               01.0180258187E+028.2416554143E+01+
*       6.1144539264E+02               0
GRID*              15646               09.6486471202E+017.9984091253E+01+
*       6.1253157859E+02               0
GRID*              15647               09.6489354744E+017.9995784247E+01+
*       6.1362078571E+02               0
GRID*              15648               09.9449445596E+018.2561914982E+01+
*       6.1417741282E+02               0
GRID*              15649               09.8690614042E+018.2322396523E+01+
*       6.1357405029E+02               0
GRID*              15650               09.8379380632E+018.2148155991E+01+
*       6.1435097507E+02               0
GRID*              15651               01.0417783908E+027.6485656376E+01+
*       6.1503972525E+02               0
GRID*              15652               09.8735949243E+018.2275330289E+01+
*       6.1198609875E+02               0
GRID*              15653               09.8826407242E+018.2359117229E+01+
*       6.1311991683E+02               0
GRID*              15654               09.6833624073E+018.0728646726E+01+
*       6.1190870498E+02               0
GRID*              15655               01.0212361142E+027.4534266799E+01+
*       5.6873081669E+02               0
GRID*              15656               01.0335105898E+028.1414731931E+01+
*       6.0432334234E+02               0
GRID*              15657               01.0265479008E+028.1996873100E+01+
*       6.0484839393E+02               0
GRID*              15658               01.0039292060E+027.4165130367E+01+
*       6.1202859640E+02               0
GRID*              15659               09.9410749003E+017.4262987132E+01+
*       6.1147078168E+02               0
GRID*              15660               01.0405920602E+027.6404483588E+01+
*       6.0433517258E+02               0
GRID*              15661               01.0406667711E+027.6425848322E+01+
*       6.0325000931E+02               0
GRID*              15662               01.0447162633E+027.7218683491E+01+
*       6.0372918053E+02               0
GRID*              15663               09.8534508656E+017.4591550205E+01+
*       6.1096436151E+02               0
GRID*              15664               09.9434264677E+017.4382377577E+01+
*       6.1043587363E+02               0
GRID*              15665               09.9369018839E+017.4294031052E+01+
*       6.1249597649E+02               0
GRID*              15666               01.0115306882E+027.4218894304E+01+
*       6.1235726292E+02               0
GRID*              15667               01.0039713287E+027.4165916443E+01+
*       6.0481207653E+02               0
GRID*              15668               01.0039713287E+027.4165916443E+01+
*       6.0584300436E+02               0
GRID*              15669               09.9480651193E+017.4361060867E+01+
*       6.0529169793E+02               0
GRID*              15670               09.9480651193E+017.4361060867E+01+
*       6.0426077009E+02               0
GRID*              15671               01.0039713287E+027.4165916443E+01+
*       6.0378114869E+02               0
GRID*              15672               01.0130224991E+027.4356028383E+01+
*       6.0432451610E+02               0
GRID*              15673               01.0354790989E+027.5573675892E+01+
*       5.6666967553E+02               0
GRID*              15674               09.7585483497E+018.1556340036E+01+
*       5.9848782573E+02               0
GRID*              15675               09.7627389867E+018.1584918193E+01+
*       5.9752305822E+02               0
GRID*              15676               09.6883861335E+018.0761694736E+01+
*       5.9891251354E+02               0
GRID*              15677               09.6739631102E+018.0569922759E+01+
*       5.9993330355E+02               0
GRID*              15678               01.0039713287E+027.4165916443E+01+
*       6.0275022086E+02               0
GRID*              15679               01.0130750878E+027.4358346604E+01+
*       6.0225716741E+02               0
GRID*              15680               09.9487170851E+017.4358166003E+01+
*       6.0322928271E+02               0
GRID*              15681               09.9487170851E+017.4358166003E+01+
*       6.0219835488E+02               0
GRID*              15682               09.8637653279E+017.4547426771E+01+
*       6.0371829884E+02               0
GRID*              15683               09.8644172936E+017.4544531907E+01+
*       6.0268681147E+02               0
GRID*              15684               09.7298530230E+017.5517807015E+01+
*       5.9662267146E+02               0
GRID*              15685               01.0406418868E+028.0358934167E+01+
*       5.9138650109E+02               0
GRID*              15686               01.0404769190E+028.0431386282E+01+
*       5.9224343393E+02               0
GRID*              15687               01.0443684579E+027.9735107361E+01+
*       5.9278792087E+02               0
GRID*              15688               09.6811818945E+017.6141339177E+01+
*       5.9614088757E+02               0
GRID*              15689               09.7305342686E+017.5509593783E+01+
*       5.9524417404E+02               0
GRID*              15690               09.7203587106E+017.5642520921E+01+
*       5.9589142512E+02               0
GRID*              15691               01.0369757741E+028.1086439687E+01+
*       5.9369187825E+02               0
GRID*              15692               01.0371800218E+028.1062998383E+01+
*       5.9272991122E+02               0
GRID*              15693               09.6913574525E+017.6008412040E+01+
*       5.9549363649E+02               0
GRID*              15694               01.0407542637E+028.0607211617E+01+
*       4.2954734760E+02               0
GRID*              15695               01.0443337210E+027.9703055225E+01+
*       5.8271787680E+02               0
GRID*              15696               01.0443319441E+027.9700971399E+01+
*       5.8167947460E+02               0
GRID*              15697               01.0403662593E+027.6302863979E+01+
*       5.6512279633E+02               0
GRID*              15698               01.0352631232E+028.1302035143E+01+
*       4.2699613177E+02               0
GRID*              15699               01.0459597025E+027.8864739750E+01+
*       4.2954622035E+02               0
GRID*              15700               01.0442361596E+027.9728986207E+01+
*       4.3006407980E+02               0
GRID*              15701               09.6198202798E+017.7964070491E+01+
*       4.7852325491E+02               0
GRID*              15702               09.6370678704E+017.7103804769E+01+
*       4.7903840027E+02               0
GRID*              15703               01.0459596856E+027.8864383514E+01+
*       4.3057997881E+02               0
GRID*              15704               09.7954655719E+018.1829055244E+01+
*       5.8008766772E+02               0
GRID*              15705               01.0403722043E+027.6304313760E+01+
*       4.4244013652E+02               0
GRID*              15706               01.0403755043E+027.6304839363E+01+
*       4.4450157810E+02               0
GRID*              15707               01.0125711861E+027.4336783917E+01+
*       5.4141030943E+02               0
GRID*              15708               01.0442452939E+027.7106082061E+01+
*       4.4398681166E+02               0
GRID*              15709               01.0459646755E+027.7967170158E+01+
*       4.4656280965E+02               0
GRID*              15710               09.6196134800E+017.8851691690E+01+
*       4.7182036077E+02               0
GRID*              15711               09.7969107589E+018.1835075769E+01+
*       5.8215377509E+02               0
GRID*              15712               01.0442675164E+027.9718427187E+01+
*       4.4244003505E+02               0
GRID*              15713               01.0354879616E+027.5574607638E+01+
*       4.3780094338E+02               0
GRID*              15714               01.0285343845E+027.5021075884E+01+
*       4.3831616984E+02               0
GRID*              15715               01.0354884813E+027.5574659518E+01+
*       4.3677003196E+02               0
GRID*              15716               01.0354906229E+027.5574927330E+01+
*       4.3573870091E+02               0
GRID*              15717               09.8713016794E+018.2319072364E+01+
*       5.8475569179E+02               0
GRID*              15718               09.9573125376E+018.2557898247E+01+
*       5.8319264348E+02               0
GRID*              15719               09.9517869737E+018.2556944021E+01+
*       4.5532078935E+02               0
GRID*              15720               01.0039291613E+028.2668346869E+01+
*       4.5585001002E+02               0
GRID*              15721               09.9516626657E+018.2580413541E+01+
*       4.5635120115E+02               0
GRID*              15722               09.9516910156E+018.2580415116E+01+
*       4.5429044638E+02               0
GRID*              15723               01.0039333052E+028.2668390881E+01+
*       4.5479090207E+02               0
GRID*              15724               09.6198189463E+017.7963182718E+01+
*       4.7439913899E+02               0
GRID*              15725               09.6370908905E+017.7103078352E+01+
*       4.7491450030E+02               0
GRID*              15726               09.6370619157E+017.7103958641E+01+
*       4.7800743984E+02               0
GRID*              15727               09.6757776961E+017.6302778943E+01+
*       4.7852335622E+02               0
GRID*              15728               09.7204537050E+018.1236606228E+01+
*       4.7748193846E+02               0
GRID*              15729               09.7204706168E+018.1236549961E+01+
*       4.7647114972E+02               0
GRID*              15730               09.7935135916E+018.1820960170E+01+
*       4.7697644151E+02               0
GRID*              15731               09.6701528966E+018.0582834656E+01+
*       4.7594831493E+02               0
GRID*              15732               09.6365931484E+017.9713835837E+01+
*       4.7543042115E+02               0
GRID*              15733               01.0408306300E+028.0585586019E+01+
*       4.7491439231E+02               0
GRID*              15734               01.0409060509E+028.0586394903E+01+
*       4.7594829570E+02               0
GRID*              15735               01.0125710598E+027.4336778697E+01+
*       5.4965731460E+02               0
GRID*              15736               01.0285513891E+028.1823858626E+01+
*       4.7285311156E+02               0
GRID*              15737               01.0125700195E+027.4336735684E+01+
*       5.4759556289E+02               0
GRID*              15738               01.0125710598E+027.4336778697E+01+
*       5.4862638676E+02               0
GRID*              15739               01.0354796030E+027.5573703689E+01+
*       5.4914327237E+02               0
GRID*              15740               09.7244405381E+017.5575832301E+01+
*       5.4708184324E+02               0
GRID*              15741               09.7244485727E+017.5575731616E+01+
*       5.4811292872E+02               0
GRID*              15742               01.0459754001E+027.8855916275E+01+
*       4.7594581834E+02               0
GRID*              15743               01.0442706482E+027.9717568767E+01+
*       4.7543097336E+02               0
GRID*              15744               01.0408341861E+028.0584940835E+01+
*       4.7903894119E+02               0
GRID*              15745               01.0409105971E+028.0585626778E+01+
*       4.8007278270E+02               0
GRID*              15746               09.7940102528E+017.5021682184E+01+
*       5.4759679948E+02               0
GRID*              15747               01.0409094664E+028.0585956320E+01+
*       4.7800519664E+02               0
GRID*              15748               09.7246954754E+017.5572996360E+01+
*       4.7285227172E+02               0
GRID*              15749               09.6196220716E+017.8854806929E+01+
*       5.2646256142E+02               0
GRID*              15750               09.6198650738E+017.7965757099E+01+
*       5.2697824767E+02               0
GRID*              15751               01.0213596200E+028.2296610549E+01+
*       4.7956823926E+02               0
GRID*              15752               01.0442711203E+027.9717228924E+01+
*       4.7852410987E+02               0
GRID*              15753               01.0442711571E+027.9717040077E+01+
*       4.7955547325E+02               0
GRID*              15754               01.0358162491E+028.1239636046E+01+
*       5.0945830606E+02               0
GRID*              15755               01.0285896040E+028.1821391954E+01+
*       5.0996500281E+02               0
GRID*              15756               09.7214015187E+018.1241538918E+01+
*       5.2696955698E+02               0
GRID*              15757               09.7909806342E+018.1887598392E+01+
*       5.2749458978E+02               0
GRID*              15758               09.7203017929E+018.1237382169E+01+
*       5.2802029560E+02               0
GRID*              15759               01.0442307956E+027.9711214197E+01+
*       5.2904361313E+02               0
GRID*              15760               01.0288808216E+028.1885087443E+01+
*       5.2749302248E+02               0
GRID*              15761               01.0442375170E+027.9711786610E+01+
*       5.2698083693E+02               0
GRID*              15762               01.0459597286E+027.7963033228E+01+
*       5.2594627773E+02               0
GRID*              15763               01.0459377811E+027.8851232235E+01+
*       5.2543039984E+02               0
GRID*              15764               01.0459300213E+027.8850845067E+01+
*       5.2646174501E+02               0
GRID*              15765               09.9524152448E+018.2557857235E+01+
*       5.1099601598E+02               0
GRID*              15766               09.6370953126E+017.7102375144E+01+
*       4.6150813660E+02               0
GRID*              15767               01.0442305531E+027.9711274126E+01+
*       5.3007503602E+02               0
GRID*              15768               09.8658283724E+018.2296570879E+01+
*       5.0737740102E+02               0
GRID*              15769               09.7203440421E+018.1237710416E+01+
*       4.9915730854E+02               0
GRID*              15770               01.0408783946E+028.0583545579E+01+
*       5.2852570922E+02               0
GRID*              15771               01.0354858524E+027.5574423951E+01+
*       4.9759822977E+02               0
GRID*              15772               01.0285266289E+027.5020413379E+01+
*       5.6924635263E+02               0
GRID*              15773               09.7245248778E+017.5574876535E+01+
*       5.0687532796E+02               0
GRID*              15774               09.7245137701E+017.5574987427E+01+
*       5.0584439853E+02               0
GRID*              15775               09.6756879331E+017.6304450155E+01+
*       5.0636052035E+02               0
GRID*              15776               01.0212356189E+027.4534237006E+01+
*       5.6666873336E+02               0
GRID*              15777               09.6370288727E+017.7105346690E+01+
*       5.0687551656E+02               0
GRID*              15778               09.7941502684E+017.5020595259E+01+
*       4.8574015439E+02               0
GRID*              15779               09.7941398074E+017.5020654205E+01+
*       4.8367815239E+02               0
GRID*              15780               09.7941694033E+017.5020428400E+01+
*       4.8161620624E+02               0
GRID*              15781               09.6757024937E+017.6304267466E+01+
*       5.0533008197E+02               0
GRID*              15782               01.0354869075E+027.5574539937E+01+
*       4.6975894610E+02               0
GRID*              15783               01.0354879605E+027.5574645021E+01+
*       4.6872755374E+02               0
GRID*              15784               01.0285335382E+027.5020964385E+01+
*       4.6821295852E+02               0
GRID*              15785               01.0285324852E+027.5020859301E+01+
*       4.6924435088E+02               0
GRID*              15786               01.0212392199E+027.4534399588E+01+
*       4.6872859102E+02               0
GRID*              15787               09.7940735936E+017.5021170772E+01+
*       5.0739077975E+02               0
GRID*              15788               01.0285488949E+028.1823711023E+01+
*       4.4810835151E+02               0
GRID*              15789               01.0285296067E+027.5020678230E+01+
*       4.9605112151E+02               0
GRID*              15790               01.0285301104E+027.5020702734E+01+
*       4.9708200755E+02               0
GRID*              15791               01.0212362979E+027.4534279302E+01+
*       4.9759688627E+02               0
GRID*              15792               01.0212357942E+027.4534254797E+01+
*       4.9656600023E+02               0
GRID*              15793               01.0285305403E+027.5020745623E+01+
*       4.9811292443E+02               0
GRID*              15794               01.0403687212E+027.6303529635E+01+
*       4.9502134010E+02               0
GRID*              15795               01.0354841258E+027.5574218847E+01+
*       4.9553641184E+02               0
GRID*              15796               01.0212440456E+027.4534611112E+01+
*       4.5738769456E+02               0
GRID*              15797               01.0212435402E+027.4534586912E+01+
*       4.5841837546E+02               0
GRID*              15798               01.0214107669E+028.2294322709E+01+
*       5.4036967591E+02               0
GRID*              15799               01.0127750115E+028.2580563111E+01+
*       5.4089874994E+02               0
GRID*              15800               01.0285387208E+027.5021370494E+01+
*       4.5687107864E+02               0
GRID*              15801               01.0285382153E+027.5021346294E+01+
*       4.5790175954E+02               0
GRID*              15802               01.0403682064E+027.6303573794E+01+
*       4.9192800285E+02               0
GRID*              15803               01.0285372042E+027.5021324655E+01+
*       4.5480938595E+02               0
GRID*              15804               01.0354834903E+027.5574123393E+01+
*       4.9244324182E+02               0
GRID*              15805               01.0354831806E+027.5574092490E+01+
*       4.9141221325E+02               0
GRID*              15806               01.0285392445E+027.5021422781E+01+
*       4.5584001309E+02               0
GRID*              15807               09.9521816542E+018.2581591856E+01+
*       4.9760054919E+02               0
GRID*              15808               09.9522049504E+018.2581665966E+01+
*       4.9966240364E+02               0
GRID*              15809               01.0039834345E+028.2668336360E+01+
*       5.0016324464E+02               0
GRID*              15810               09.9523284959E+018.2557842188E+01+
*       5.0069302163E+02               0
GRID*              15811               01.0039468640E+028.2668425890E+01+
*       4.4860866491E+02               0
GRID*              15812               01.0039434556E+028.2668307676E+01+
*       4.4966804271E+02               0
GRID*              15813               01.0126946454E+028.2558075777E+01+
*       4.4913868382E+02               0
GRID*              15814               09.9519114955E+018.2557380949E+01+
*       4.4913899146E+02               0
GRID*              15815               09.7908591828E+018.1886487822E+01+
*       4.9656969205E+02               0
GRID*              15816               09.8670785829E+017.4534198432E+01+
*       4.8110052262E+02               0
GRID*              15817               09.8670760623E+017.4534208852E+01+
*       4.8006963682E+02               0
GRID*              15818               09.9523063188E+018.2557830443E+01+
*       4.9863123028E+02               0
GRID*              15819               09.8670651044E+017.4534263436E+01+
*       4.8213159115E+02               0
GRID*              15820               09.8670499806E+017.4534325989E+01+
*       4.8316247762E+02               0
GRID*              15821               01.0040168179E+028.2668354123E+01+
*       5.4139945811E+02               0
GRID*              15822               01.0359266216E+028.1233126473E+01+
*       5.4657860486E+02               0
GRID*              15823               01.0358518997E+028.1237183567E+01+
*       5.4552893169E+02               0
GRID*              15824               01.0288941398E+028.1884034568E+01+
*       5.4605389545E+02               0
GRID*              15825               01.0040147880E+028.2668344366E+01+
*       5.4039820418E+02               0
GRID*              15826               01.0403603877E+027.6302337299E+01+
*       5.4038112893E+02               0
GRID*              15827               01.0403609748E+027.6302410286E+01+
*       5.4141224211E+02               0
GRID*              15828               01.0459594138E+027.7961877123E+01+
*       5.4347474464E+02               0
GRID*              15829               01.0442335605E+027.7102767465E+01+
*       5.4295915186E+02               0
GRID*              15830               09.9537129631E+017.4336792732E+01+
*       4.7955467132E+02               0
GRID*              15831               09.8670665024E+017.4534254544E+01+
*       4.7903867418E+02               0
GRID*              15832               01.0442345547E+027.7103364168E+01+
*       5.5017465030E+02               0
GRID*              15833               01.0459619241E+027.7962220778E+01+
*       5.5069031589E+02               0
GRID*              15834               01.0459621167E+027.7962198038E+01+
*       5.5172096374E+02               0
GRID*              15835               09.9525220175E+018.2582193081E+01+
*       5.4089900783E+02               0
GRID*              15836               01.0441970088E+027.9708674977E+01+
*       5.4760653514E+02               0
GRID*              15837               01.0458899504E+027.8847713326E+01+
*       5.5017506586E+02               0
GRID*              15838               01.0441975894E+027.9708761519E+01+
*       5.4966869389E+02               0
GRID*              15839               01.0408984967E+028.0580953372E+01+
*       5.4914665592E+02               0
GRID*              15840               01.0358150940E+028.1237759787E+01+
*       5.4863802508E+02               0
GRID*              15841               01.0459619742E+027.7962227372E+01+
*       5.4965933252E+02               0
GRID*              15842               01.0459090586E+027.8848012969E+01+
*       5.6254656560E+02               0
GRID*              15843               01.0442163164E+027.9709491347E+01+
*       5.6307718041E+02               0
GRID*              15844               09.9523499064E+018.2582128593E+01+
*       5.6976706880E+02               0
GRID*              15845               01.0127639793E+028.2556690299E+01+
*       5.3986789398E+02               0
GRID*              15846               01.0358209012E+028.1133903547E+01+
*       6.1525170405E+02               0
GRID*              15847               01.0265415805E+028.1965132416E+01+
*       6.1452690914E+02               0
GRID*              15848               01.0284988610E+028.1866045834E+01+
*       6.1525170405E+02               0
GRID*              15849               01.0359514330E+028.1233235975E+01+
*       5.6820767661E+02               0
GRID*              15850               01.0127544226E+028.2557339775E+01+
*       5.6667269097E+02               0
GRID*              15851               09.7912959923E+017.5047761278E+01+
*       5.8781228380E+02               0
GRID*              15852               09.8653433635E+017.4541650627E+01+
*       5.8729093986E+02               0
GRID*              15853               09.6726088392E+017.6376116582E+01+
*       5.8783315328E+02               0
GRID*              15854               09.6345214569E+017.7188979811E+01+
*       5.8835693935E+02               0
GRID*              15855               01.0409727285E+028.0577540108E+01+
*       5.6873146623E+02               0
GRID*              15856               09.9523169041E+017.4342622429E+01+
*       5.8677433514E+02               0
GRID*              15857               09.8653719353E+017.4541512447E+01+
*       5.8625920102E+02               0
GRID*              15858               09.7214673451E+017.5607283604E+01+
*       5.8833641952E+02               0
GRID*              15859               01.0408927116E+028.0580773553E+01+
*       5.6770290575E+02               0
GRID*              15860               09.7216186537E+018.1241909125E+01+
*       4.3935379596E+02               0
GRID*              15861               09.6702717258E+018.0585082575E+01+
*       4.3882779013E+02               0
GRID*              15862               01.0459749647E+027.8855451975E+01+
*       4.8007009260E+02               0
GRID*              15863               09.6371416939E+017.9715885271E+01+
*       5.7546278106E+02               0
GRID*              15864               09.6698999863E+018.0581649380E+01+
*       5.7492586429E+02               0
GRID*              15865               09.6371175804E+017.9715259515E+01+
*       5.7443053049E+02               0
GRID*              15866               09.6707839323E+018.0585053283E+01+
*       5.7595162349E+02               0
GRID*              15867               09.9528418700E+018.2557612883E+01+
*       5.7699280162E+02               0
GRID*              15868               09.8660095549E+018.2297332891E+01+
*       5.7649009594E+02               0
GRID*              15869               09.6710513757E+018.0588434948E+01+
*       4.3573495891E+02               0
GRID*              15870               09.6702656851E+018.0585001495E+01+
*       4.3677054457E+02               0
GRID*              15871               09.6358840896E+017.7130253648E+01+
*       4.2749476109E+02               0
GRID*              15872               09.6358115830E+017.7133392936E+01+
*       4.2853063892E+02               0
GRID*              15873               09.6198032148E+017.7966696969E+01+
*       4.3212821420E+02               0
GRID*              15874               09.6198042320E+017.7974432197E+01+
*       4.3110141449E+02               0
GRID*              15875               01.0357987776E+028.1239903843E+01+
*       5.2078111993E+02               0
GRID*              15876               01.0442670708E+027.9713365112E+01+
*       5.1872958564E+02               0
GRID*              15877               01.0409437011E+028.0580888861E+01+
*       5.1924487446E+02               0
GRID*              15878               01.0442671919E+027.9713336427E+01+
*       5.1976062731E+02               0
GRID*              15879               09.6757497421E+017.6303312984E+01+
*       4.3934596854E+02               0
GRID*              15880               01.0459586951E+027.8851984551E+01+
*       5.1821158313E+02               0
GRID*              15881               01.0442734974E+027.9713533489E+01+
*       5.1769796152E+02               0
GRID*              15882               01.0459588191E+027.8852155223E+01+
*       5.1924255293E+02               0
GRID*              15883               09.6370215320E+017.7104700232E+01+
*       4.3676828988E+02               0
GRID*              15884               01.0039511587E+028.2668428483E+01+
*       4.4654749129E+02               0
GRID*              15885               09.9519612369E+018.2557498302E+01+
*       4.4707783667E+02               0
GRID*              15886               09.9518200864E+018.2580586112E+01+
*       4.4810858256E+02               0
GRID*              15887               01.0459599481E+027.7963348570E+01+
*       5.0738899553E+02               0
GRID*              15888               01.0459768235E+027.8852880055E+01+
*       5.0687381819E+02               0
GRID*              15889               09.6305666943E+017.9556080708E+01+
*       5.9361160169E+02               0
GRID*              15890               09.6247692054E+017.8849378769E+01+
*       5.9344069204E+02               0
GRID*              15891               09.6211755975E+017.8951274392E+01+
*       5.9418139396E+02               0
GRID*              15892               01.0409055475E+028.0587295988E+01+
*       4.4089078435E+02               0
GRID*              15893               01.0408302590E+028.0589737130E+01+
*       4.3986432995E+02               0
GRID*              15894               01.0357862288E+028.1242969430E+01+
*       4.4141736839E+02               0
GRID*              15895               01.0358938284E+028.1239058981E+01+
*       4.4036683580E+02               0
GRID*              15896               01.0288545227E+028.1886584925E+01+
*       4.4089278553E+02               0
GRID*              15897               01.0158715421E+028.2457155114E+01+
*       5.9428642022E+02               0
GRID*              15898               01.0082444348E+028.2625618561E+01+
*       5.9673634238E+02               0
GRID*              15899               01.0081743850E+028.2626949461E+01+
*       5.9576650069E+02               0
GRID*              15900               01.0213378092E+028.2297574713E+01+
*       4.6100260535E+02               0
GRID*              15901               01.0249155720E+028.2101606884E+01+
*       5.9767960208E+02               0
GRID*              15902               01.0321481519E+028.1621523128E+01+
*       5.9808724385E+02               0
GRID*              15903               01.0322935339E+028.1624504445E+01+
*       5.9716506008E+02               0
GRID*              15904               09.8313875663E+018.2105627191E+01+
*       5.9712701931E+02               0
GRID*              15905               01.0039442361E+028.2668404196E+01+
*       4.7441336019E+02               0
GRID*              15906               01.0126970391E+028.2558258763E+01+
*       4.7388258948E+02               0
GRID*              15907               09.9518097649E+018.2580742363E+01+
*       4.7491387986E+02               0
GRID*              15908               01.0125702835E+027.4336746510E+01+
*       5.7233772728E+02               0
GRID*              15909               01.0459611248E+027.7963749098E+01+
*       5.0532856225E+02               0
GRID*              15910               01.0442858600E+027.9714467563E+01+
*       5.0326993298E+02               0
GRID*              15911               01.0442840434E+027.9714362244E+01+
*       5.0429984669E+02               0
GRID*              15912               01.0459794111E+027.8853301782E+01+
*       5.0378263024E+02               0
GRID*              15913               01.0459812180E+027.8853410140E+01+
*       5.0275276682E+02               0
GRID*              15914               01.0459791544E+027.8852912670E+01+
*       5.0481345831E+02               0
GRID*              15915               01.0442844462E+027.9714264954E+01+
*       5.0533052793E+02               0
GRID*              15916               09.6757066905E+017.6304615553E+01+
*       5.1975920994E+02               0
GRID*              15917               09.7920522655E+017.5040159292E+01+
*       5.8574543219E+02               0
GRID*              15918               09.7245438973E+017.5574590627E+01+
*       5.2027509917E+02               0
GRID*              15919               01.0285282365E+027.5020291110E+01+
*       5.7646708256E+02               0
GRID*              15920               01.0212376346E+027.4534358726E+01+
*       5.7698230450E+02               0
GRID*              15921               09.7913245641E+017.5047623098E+01+
*       5.8678054496E+02               0
GRID*              15922               09.6370321559E+017.7105168676E+01+
*       4.9966088998E+02               0
GRID*              15923               09.6198254877E+017.7966198697E+01+
*       5.0017667190E+02               0
GRID*              15924               01.0285332666E+027.5020983973E+01+
*       4.8264760458E+02               0
GRID*              15925               09.9370248231E+017.4290554954E+01+
*       6.1352608308E+02               0
GRID*              15926               01.0039713287E+027.4165916443E+01+
*       4.8006980849E+02               0
GRID*              15927               01.0125693133E+027.4336705941E+01+
*       4.7955461509E+02               0
GRID*              15928               01.0125703165E+027.4336747432E+01+
*       4.8058551524E+02               0
GRID*              15929               09.9360873075E+017.4286395426E+01+
*       6.1448787622E+02               0
GRID*              15930               01.0212376971E+027.4534337887E+01+
*       4.8213190366E+02               0
GRID*              15931               01.0039743289E+028.2668353959E+01+
*       4.9091229686E+02               0
GRID*              15932               01.0127249438E+028.2557642504E+01+
*       4.9038200893E+02               0
GRID*              15933               01.0127353359E+028.2581324713E+01+
*       4.8935047823E+02               0
GRID*              15934               09.7215787613E+017.5605877708E+01+
*       5.8729881185E+02               0
GRID*              15935               01.0213570739E+027.4539829848E+01+
*       5.8831742038E+02               0
GRID*              15936               01.0127007599E+027.4342190257E+01+
*       5.8983519100E+02               0
GRID*              15937               01.0214473125E+027.4543605094E+01+
*       5.8933493818E+02               0
GRID*              15938               01.0285945358E+027.5023023578E+01+
*       5.8779712345E+02               0
GRID*              15939               01.0286598417E+027.5029553685E+01+
*       5.8880686436E+02               0
GRID*              15940               01.0356117165E+027.5588985885E+01+
*       5.8830482808E+02               0
GRID*              15941               09.6377263207E+017.9718818435E+01+
*       5.7856424019E+02               0
GRID*              15942               09.6206382521E+017.7984598272E+01+
*       5.8162874210E+02               0
GRID*              15943               09.9525937933E+018.2558652411E+01+
*       5.3986759051E+02               0
GRID*              15944               09.9526218979E+018.2558669612E+01+
*       5.4192958515E+02               0
GRID*              15945               01.0039884018E+028.2668358422E+01+
*       5.2183567310E+02               0
GRID*              15946               01.0459308179E+027.8850250995E+01+
*       5.7182877451E+02               0
GRID*              15947               01.0459626564E+027.7963040032E+01+
*       5.7234420611E+02               0
GRID*              15948               01.0459629007E+027.7963177566E+01+
*       5.7131291194E+02               0
GRID*              15949               01.0459310622E+027.8850388529E+01+
*       5.7079748034E+02               0
GRID*              15950               01.0459626040E+027.7963038941E+01+
*       5.7028045903E+02               0
GRID*              15951               01.0459250425E+027.8849856893E+01+
*       5.6976514011E+02               0
GRID*              15952               01.0409690036E+028.0577753439E+01+
*       5.7286416217E+02               0
GRID*              15953               01.0442453248E+027.9712347226E+01+
*       5.7340085304E+02               0
GRID*              15954               09.9526366677E+018.2558350200E+01+
*       5.5842428186E+02               0
GRID*              15955               01.0441972005E+027.9708732641E+01+
*       5.4554427386E+02               0
GRID*              15956               01.0408552704E+028.0573081434E+01+
*       5.4501938455E+02               0
GRID*              15957               01.0409590918E+028.0574708247E+01+
*       5.4605367782E+02               0
GRID*              15958               01.0441976801E+027.9708614517E+01+
*       5.4657507029E+02               0
GRID*              15959               01.0408960599E+028.0586240391E+01+
*       5.4708088553E+02               0
GRID*              15960               01.0359312803E+028.1233141578E+01+
*       5.4758881158E+02               0
GRID*              15961               01.0288947084E+028.1884225289E+01+
*       5.4811452230E+02               0
GRID*              15962               09.7696708074E+018.1666629526E+01+
*       6.1046125335E+02               0
GRID*              15963               09.7034790295E+018.0974684886E+01+
*       6.1100999310E+02               0
GRID*              15964               09.6983538025E+018.0919224534E+01+
*       6.0982832421E+02               0
GRID*              15965               09.7645455805E+018.1611169173E+01+
*       6.0927958446E+02               0
GRID*              15966               01.0127497237E+028.2557330292E+01+
*       5.2955658462E+02               0
GRID*              15967               01.0039939957E+028.2668343627E+01+
*       5.2902620703E+02               0
GRID*              15968               01.0127573880E+028.2580683017E+01+
*       5.2852496236E+02               0
GRID*              15969               09.8659379173E+018.2297097523E+01+
*       5.2905451813E+02               0
GRID*              15970               01.0127634242E+028.2580731938E+01+
*       5.3265003937E+02               0
GRID*              15971               01.0285961502E+028.1820607371E+01+
*       5.3058932515E+02               0
GRID*              15972               01.0403723859E+027.6303657419E+01+
*       5.7337442742E+02               0
GRID*              15973               01.0354853949E+027.5574452193E+01+
*       5.7389005646E+02               0
GRID*              15974               01.0354865663E+027.5574569037E+01+
*       5.7285879369E+02               0
GRID*              15975               01.0403690260E+027.6303248946E+01+
*       5.7131061538E+02               0
GRID*              15976               01.0442369647E+027.7104299479E+01+
*       5.7182852895E+02               0
GRID*              15977               01.0403724710E+027.6303680276E+01+
*       5.7234304515E+02               0
GRID*              15978               01.0442368797E+027.7104276623E+01+
*       5.7285991122E+02               0
GRID*              15979               01.0039713287E+027.4165916443E+01+
*       5.6563681880E+02               0
GRID*              15980               01.0039713287E+027.4165916443E+01+
*       5.6460589096E+02               0
GRID*              15981               01.0125690898E+027.4336697186E+01+
*       5.6615181779E+02               0
GRID*              15982               01.0125690898E+027.4336697186E+01+
*       5.6512088996E+02               0
GRID*              15983               01.0039713287E+027.4165916443E+01+
*       5.6666774663E+02               0
GRID*              15984               01.0039713287E+027.4165916443E+01+
*       5.6769867447E+02               0
GRID*              15985               09.9536800928E+017.4336928300E+01+
*       5.6718340606E+02               0
GRID*              15986               09.9536844960E+017.4336910067E+01+
*       5.6615252628E+02               0
GRID*              15987               09.7217920574E+018.1243672715E+01+
*       4.3212121028E+02               0
GRID*              15988               09.7940281955E+018.1822571954E+01+
*       4.3161604389E+02               0
GRID*              15989               09.8659253115E+018.2297002958E+01+
*       5.7029590112E+02               0
GRID*              15990               09.8670251499E+017.4534439864E+01+
*       4.9244167733E+02               0
GRID*              15991               09.7910063686E+018.1888015353E+01+
*       5.7079906497E+02               0
GRID*              15992               09.7215377779E+018.1241765200E+01+
*       5.7027267848E+02               0
GRID*              15993               09.7245737101E+017.5574341496E+01+
*       4.9347356752E+02               0
GRID*              15994               09.8670291285E+017.4534425239E+01+
*       4.9450377971E+02               0
GRID*              15995               09.8670158378E+017.4534480214E+01+
*       4.9553476069E+02               0
GRID*              15996               09.7940966340E+017.5020996127E+01+
*       4.9605104268E+02               0
GRID*              15997               09.8670372656E+017.4534377423E+01+
*       4.9656575171E+02               0
GRID*              15998               09.9536836624E+017.4336913919E+01+
*       4.9604995009E+02               0
GRID*              15999               01.0358258392E+028.1238730472E+01+
*       5.7233717697E+02               0
GRID*              16000               01.0039864933E+028.2668270806E+01+
*       5.7339370156E+02               0
GRID*              16001               01.0286112875E+028.1819761796E+01+
*       5.5533230365E+02               0
GRID*              16002               09.7245575144E+017.5574495943E+01+
*       4.9656684701E+02               0
GRID*              16003               01.0288955185E+028.1884150008E+01+
*       5.5636160712E+02               0
GRID*              16004               01.0359562873E+028.1232660744E+01+
*       5.5583452516E+02               0
GRID*              16005               01.0458966021E+027.8847556366E+01+
*       5.5532950663E+02               0
GRID*              16006               01.0403748386E+027.6304631504E+01+
*       4.5996216789E+02               0
GRID*              16007               01.0285389929E+027.5021423930E+01+
*       4.5893303513E+02               0
GRID*              16008               01.0212418485E+027.4534505772E+01+
*       4.5944909294E+02               0
GRID*              16009               01.0125724632E+027.4336836320E+01+
*       4.6099674659E+02               0
GRID*              16010               01.0212405280E+027.4534451121E+01+
*       4.6048012618E+02               0
GRID*              16011               01.0212429576E+027.4534568275E+01+
*       4.6151102360E+02               0
GRID*              16012               01.0409126507E+028.0577004487E+01+
*       5.6357969553E+02               0
GRID*              16013               01.0442215638E+027.9709990110E+01+
*       5.6410903343E+02               0
GRID*              16014               09.7940302040E+017.5021585563E+01+
*       5.4862781545E+02               0
GRID*              16015               09.8669950880E+017.4534572082E+01+
*       5.4914293349E+02               0
GRID*              16016               09.8669751368E+017.4534668703E+01+
*       5.4811191752E+02               0
GRID*              16017               09.9536766417E+017.4336942537E+01+
*       5.4862678826E+02               0
GRID*              16018               01.0408193641E+028.0587663143E+01+
*       4.5635117473E+02               0
GRID*              16019               01.0408967055E+028.0588805079E+01+
*       4.5531702149E+02               0
GRID*              16020               01.0357709345E+028.1244625943E+01+
*       4.5584394971E+02               0
GRID*              16021               01.0358808376E+028.1240484765E+01+
*       4.5479504830E+02               0
GRID*              16022               01.0288343384E+028.1888041464E+01+
*       4.5532011839E+02               0
GRID*              16023               01.0459746809E+027.8857045993E+01+
*       4.4604784080E+02               0
GRID*              16024               09.6365649937E+017.9712733164E+01+
*       4.5996044825E+02               0
GRID*              16025               09.6196134329E+017.8851778303E+01+
*       4.5944524548E+02               0
GRID*              16026               09.6702006503E+018.0582614731E+01+
*       5.2542774901E+02               0
GRID*              16027               09.6709646108E+018.0581420108E+01+
*       5.2646209125E+02               0
GRID*              16028               09.6758649453E+017.6301577507E+01+
*       4.5996284396E+02               0
GRID*              16029               09.7938808283E+018.1822950791E+01+
*       5.2852349183E+02               0
GRID*              16030               09.8658484930E+018.2296731730E+01+
*       5.2799612257E+02               0
GRID*              16031               09.9523375042E+018.2582054991E+01+
*       5.2852534773E+02               0
GRID*              16032               01.0127536383E+028.2580761216E+01+
*       5.0790495811E+02               0
GRID*              16033               01.0213925399E+028.2295205683E+01+
*       5.0843354164E+02               0
GRID*              16034               01.0213874368E+028.2295334622E+01+
*       5.0737667604E+02               0
GRID*              16035               09.9524074145E+018.2557891583E+01+
*       5.0893559536E+02               0
GRID*              16036               09.6370903238E+017.7102674978E+01+
*       4.5841589720E+02               0
GRID*              16037               09.6708275639E+018.0584582706E+01+
*       4.6047294831E+02               0
GRID*              16038               09.6758774122E+017.6301304664E+01+
*       4.6202458059E+02               0
GRID*              16039               09.7247346816E+017.5572476940E+01+
*       4.6254059670E+02               0
GRID*              16040               09.7247288492E+017.5572535097E+01+
*       4.6357169774E+02               0
GRID*              16041               09.8670453614E+017.4534351475E+01+
*       4.8625549668E+02               0
GRID*              16042               09.7942564129E+017.5019819409E+01+
*       4.6202614472E+02               0
GRID*              16043               09.7942505806E+017.5019877566E+01+
*       4.6305724576E+02               0
GRID*              16044               09.9521189373E+018.2581405392E+01+
*       4.9141319655E+02               0
GRID*              16045               09.7942342234E+017.5019956347E+01+
*       4.6408825635E+02               0
GRID*              16046               09.9522438242E+018.2557796156E+01+
*       4.9244422995E+02               0
GRID*              16047               09.8656970093E+018.2296017240E+01+
*       4.9194217160E+02               0
GRID*              16048               09.9517212132E+018.2580630085E+01+
*       4.7078781391E+02               0
GRID*              16049               09.9518625978E+018.2556938932E+01+
*       4.7181970276E+02               0
GRID*              16050               01.0039366767E+028.2668308020E+01+
*       4.7128939501E+02               0
GRID*              16051               09.7247296689E+017.5572524739E+01+
*       4.6460281202E+02               0
GRID*              16052               09.6758715339E+017.6301428965E+01+
*       4.6511795312E+02               0
GRID*              16053               09.7942452052E+017.5019846845E+01+
*       4.6511936789E+02               0
GRID*              16054               01.0288437062E+028.1887678867E+01+
*       4.7181922620E+02               0
GRID*              16055               01.0213458196E+028.2297157875E+01+
*       4.7232222230E+02               0
GRID*              16056               01.0127065244E+028.2581896918E+01+
*       4.7285122682E+02               0
GRID*              16057               01.0126934597E+028.2558380592E+01+
*       4.7181942285E+02               0
GRID*              16058               01.0039398755E+028.2668403245E+01+
*       4.7235034890E+02               0
GRID*              16059               01.0213532185E+028.2296948442E+01+
*       4.7338084479E+02               0
GRID*              16060               09.9519610088E+018.2557242724E+01+
*       4.7594511895E+02               0
GRID*              16061               01.0039459878E+028.2668312265E+01+
*       4.7541498336E+02               0
GRID*              16062               09.9518170339E+018.2556803291E+01+
*       4.6975654533E+02               0
GRID*              16063               09.7906495630E+018.1884880244E+01+
*       4.4295527894E+02               0
GRID*              16064               09.7213949718E+018.1241297551E+01+
*       4.4243015569E+02               0
GRID*              16065               01.0285312241E+027.5020845726E+01+
*       4.8780275908E+02               0
GRID*              16066               09.7935660220E+018.1821791999E+01+
*       4.4398521958E+02               0
GRID*              16067               01.0212350090E+027.4534208360E+01+
*       4.8934897179E+02               0
GRID*              16068               01.0285626856E+028.1822813377E+01+
*       4.8110125507E+02               0
GRID*              16069               09.7612293224E+018.1644673149E+01+
*       4.1694802211E+02               0
GRID*              16070               09.6898746638E+018.0830896885E+01+
*       4.1695232221E+02               0
GRID*              16071               09.6581587655E+018.0220919211E+01+
*       4.1780605708E+02               0
GRID*              16072               01.0039623711E+028.2668374712E+01+
*       4.8266245515E+02               0
GRID*              16073               09.9519583677E+018.2581004181E+01+
*       4.8110077393E+02               0
GRID*              16074               09.8655851443E+018.2295441842E+01+
*       4.8057170656E+02               0
GRID*              16075               09.8656054820E+018.2295583033E+01+
*       4.8163001918E+02               0
GRID*              16076               01.0130224991E+027.4356028383E+01+
*       6.0535544394E+02               0
GRID*              16077               01.0129017921E+027.4350767459E+01+
*       6.0639513455E+02               0
GRID*              16078               01.0442663400E+027.9718728881E+01+
*       4.4553223761E+02               0
GRID*              16079               09.7906666057E+018.1885011562E+01+
*       4.8006903004E+02               0
GRID*              16080               09.7936084535E+018.1821827580E+01+
*       4.8110050221E+02               0
GRID*              16081               01.0377493431E+028.0999880157E+01+
*       5.9848519788E+02               0
GRID*              16082               01.0039541011E+028.2668392745E+01+
*       4.7853822556E+02               0
GRID*              16083               09.9520091760E+018.2557382560E+01+
*       4.7800744221E+02               0
GRID*              16084               01.0039713287E+027.4165916443E+01+
*       4.3780176725E+02               0
GRID*              16085               09.9510182495E+017.4348144586E+01+
*       5.8987605189E+02               0
GRID*              16086               09.6370206393E+017.7104778692E+01+
*       4.3883085590E+02               0
GRID*              16087               09.6370282741E+017.7104594504E+01+
*       4.3986169930E+02               0
GRID*              16088               09.6757451100E+017.6303370723E+01+
*       4.4037709746E+02               0
GRID*              16089               01.0213312991E+028.2297820293E+01+
*       4.3314535796E+02               0
GRID*              16090               09.6757495276E+017.6303335849E+01+
*       4.4243912376E+02               0
GRID*              16091               09.6757432852E+017.6303414133E+01+
*       4.4140804553E+02               0
GRID*              16092               01.0285551017E+028.1824251213E+01+
*       4.3367712985E+02               0
GRID*              16093               01.0039713287E+027.4165916443E+01+
*       4.4811104560E+02               0
GRID*              16094               09.6701563071E+018.0583679067E+01+
*       4.8419619033E+02               0
GRID*              16095               09.7215931235E+018.1241325257E+01+
*       4.8366994063E+02               0
GRID*              16096               09.6709516491E+018.0586571610E+01+
*       4.8316061630E+02               0
GRID*              16097               09.6366799930E+017.9716365993E+01+
*       4.3831483250E+02               0
GRID*              16098               09.6366801733E+017.9716368362E+01+
*       4.3728346071E+02               0
GRID*              16099               09.6196589160E+017.8854888785E+01+
*       4.3779912853E+02               0
GRID*              16100               09.6196587632E+017.8854540552E+01+
*       4.4089254902E+02               0
GRID*              16101               09.6197935788E+017.7964784722E+01+
*       4.4037670779E+02               0
GRID*              16102               01.0039713287E+027.4165916443E+01+
*       4.5017290127E+02               0
GRID*              16103               01.0039713287E+027.4165916443E+01+
*       4.4914197344E+02               0
GRID*              16104               01.0125727535E+027.4336848382E+01+
*       4.4965618763E+02               0
GRID*              16105               09.9537364356E+017.4336695517E+01+
*       4.4862560154E+02               0
GRID*              16106               09.9537342100E+017.4336704732E+01+
*       4.4965658071E+02               0
GRID*              16107               09.8670796441E+017.4534202016E+01+
*       4.4914139219E+02               0
GRID*              16108               09.7245164059E+017.5574983021E+01+
*       5.0790575419E+02               0
GRID*              16109               01.0125738286E+027.4336892879E+01+
*       4.4862539030E+02               0
GRID*              16110               01.0459748776E+027.8856750683E+01+
*       4.4295558800E+02               0
GRID*              16111               09.7070643691E+018.1052478070E+01+
*       4.2034421870E+02               0
GRID*              16112               01.0404958832E+027.6309704184E+01+
*       4.2172412835E+02               0
GRID*              16113               01.0459228449E+027.8879854711E+01+
*       4.2117688521E+02               0
GRID*              16114               01.0358038100E+027.5615960956E+01+
*       4.2016943242E+02               0
GRID*              16115               01.0409093207E+028.0586806951E+01+
*       4.3882878807E+02               0
GRID*              16116               01.0357664627E+028.1243275879E+01+
*       4.3935492020E+02               0
GRID*              16117               01.0336395828E+028.1450855050E+01+
*       4.2045001917E+02               0
GRID*              16118               01.0354922316E+028.1215142479E+01+
*       4.1957793584E+02               0
GRID*              16119               01.0355342375E+027.5580464910E+01+
*       4.2955036897E+02               0
GRID*              16120               01.0285456370E+027.5020978183E+01+
*       4.2903421528E+02               0
GRID*              16121               09.6196218321E+017.8852072854E+01+
*       4.7285159746E+02               0
GRID*              16122               01.0038642731E+028.2668042634E+01+
*       4.3005498835E+02               0
GRID*              16123               01.0459752355E+027.8856021961E+01+
*       4.7697657980E+02               0
GRID*              16124               01.0459749681E+027.8855860249E+01+
*       4.7800800019E+02               0
GRID*              16125               01.0459637945E+027.7966315929E+01+
*       4.7749263742E+02               0
GRID*              16126               01.0459750057E+027.8855670450E+01+
*       4.7903934657E+02               0
GRID*              16127               01.0356731244E+028.1261537277E+01+
*       4.2905083638E+02               0
GRID*              16128               01.0285627160E+028.1907672184E+01+
*       4.2852200857E+02               0
GRID*              16129               01.0408716313E+028.0593632080E+01+
*       4.3057742579E+02               0
GRID*              16130               01.0408005007E+028.0594611174E+01+
*       4.3161369251E+02               0
GRID*              16131               01.0442456501E+027.9726699841E+01+
*       4.3109619376E+02               0
GRID*              16132               01.0048789684E+028.2714889371E+01+
*       6.1421015992E+02               0
GRID*              16133               01.0150534336E+028.2517116444E+01+
*       6.1341213394E+02               0
GRID*              16134               09.9958688275E+018.2642113125E+01+
*       6.1321299154E+02               0
GRID*              16135               01.0107227294E+028.2666465889E+01+
*       6.1242830286E+02               0
GRID*              16136               09.9917237344E+018.2605499066E+01+
*       6.1205850785E+02               0
GRID*              16137               09.6198175417E+017.7965389455E+01+
*       4.8986526560E+02               0
GRID*              16138               09.6366446557E+017.9715324279E+01+
*       4.8780363781E+02               0
GRID*              16139               01.0092576347E+028.2602935535E+01+
*       6.1521823683E+02               0
GRID*              16140               01.0172966897E+028.2434256562E+01+
*       6.1449177722E+02               0
GRID*              16141               01.0073765465E+028.2679810402E+01+
*       6.1135850778E+02               0
GRID*              16142               01.0202643968E+028.2362689938E+01+
*       6.1248799667E+02               0
GRID*              16143               01.0242924965E+028.2048399315E+01+
*       6.1344382683E+02               0
GRID*              16144               01.0039713287E+027.4165916443E+01+
*       4.6872960230E+02               0
GRID*              16145               01.0125710629E+027.4336778346E+01+
*       4.6924511059E+02               0
GRID*              16146               01.0125710629E+027.4336778346E+01+
*       4.6821418276E+02               0
GRID*              16147               01.0125701685E+027.4336741337E+01+
*       4.7027624381E+02               0
GRID*              16148               01.0338848294E+028.1411710328E+01+
*       6.1388466040E+02               0
GRID*              16149               01.0212396457E+027.4534420919E+01+
*       4.6975971325E+02               0
GRID*              16150               01.0039713287E+027.4165916443E+01+
*       4.6769867447E+02               0
GRID*              16151               01.0285329110E+027.5020880632E+01+
*       4.7027547312E+02               0
GRID*              16152               09.6227503738E+017.9174549686E+01+
*       6.1086673885E+02               0
GRID*              16153               09.6544336201E+018.0101072574E+01+
*       6.1039540718E+02               0
GRID*              16154               09.6535987353E+018.0069086269E+01+
*       6.1145386870E+02               0
GRID*              16155               09.7886795378E+017.5091512143E+01+
*       6.0316505799E+02               0
GRID*              16156               01.0212379112E+027.4534345460E+01+
*       4.6769743396E+02               0
GRID*              16157               09.9537328543E+017.4336710433E+01+
*       4.6615187180E+02               0
GRID*              16158               01.0039713287E+027.4165916443E+01+
*       4.6666774663E+02               0
GRID*              16159               09.8627806431E+017.4552035030E+01+
*       6.0474743454E+02               0
GRID*              16160               09.8609425788E+017.4560548201E+01+
*       6.0681489967E+02               0
GRID*              16161               09.7855275558E+017.5113650808E+01+
*       6.0626430906E+02               0
GRID*              16162               09.8617488104E+017.4556934132E+01+
*       6.0578273739E+02               0
GRID*              16163               09.7876948531E+017.5096120402E+01+
*       6.0419419369E+02               0
GRID*              16164               09.9524011728E+018.2557559354E+01+
*       5.2130481071E+02               0
GRID*              16165               09.9472588877E+017.4364674937E+01+
*       6.0632386021E+02               0
GRID*              16166               09.6366852033E+017.9716429201E+01+
*       5.0945359715E+02               0
GRID*              16167               09.9504987621E+017.4241853461E+01+
*       5.9502380330E+02               0
GRID*              16168               01.0354869538E+027.5574541689E+01+
*       4.8006999586E+02               0
GRID*              16169               09.7187495445E+017.5631249863E+01+
*       5.9431349044E+02               0
GRID*              16170               09.8375141297E+018.2138828688E+01+
*       4.2152755072E+02               0
GRID*              16171               01.0359113338E+028.1237021627E+01+
*       4.9090844997E+02               0
GRID*              16172               01.0409220416E+028.0583827191E+01+
*       4.9038503141E+02               0
GRID*              16173               01.0442840089E+027.9715405753E+01+
*       4.8986725689E+02               0
GRID*              16174               01.0214078335E+028.2294445411E+01+
*       5.4861666902E+02               0
GRID*              16175               01.0439211047E+027.9821696711E+01+
*       4.2379680427E+02               0
GRID*              16176               01.0438907758E+027.9833450279E+01+
*       4.2274205700E+02               0
GRID*              16177               01.0396332270E+028.0640095162E+01+
*       4.2327578784E+02               0
GRID*              16178               01.0392938896E+028.0678137497E+01+
*       4.2214349956E+02               0
GRID*              16179               01.0338420790E+028.1424826245E+01+
*       4.2272742671E+02               0
GRID*              16180               01.0335027066E+028.1462871751E+01+
*       4.2159515572E+02               0
GRID*              16181               09.9518924422E+018.2555293659E+01+
*       4.3058525924E+02               0
GRID*              16182               09.8655376001E+018.2295191884E+01+
*       4.3108793096E+02               0
GRID*              16183               01.0357131344E+028.1249423613E+01+
*       4.3110528292E+02               0
GRID*              16184               01.0208848610E+028.2317943794E+01+
*       4.2806058924E+02               0
GRID*              16185               09.6756070024E+017.6305509051E+01+
*       5.4141262365E+02               0
GRID*              16186               09.6366406569E+017.7113719163E+01+
*       4.3058559228E+02               0
GRID*              16187               09.6366848145E+017.7111789470E+01+
*       4.2955168468E+02               0
GRID*              16188               09.7933642358E+017.5028686789E+01+
*       4.2904028778E+02               0
GRID*              16189               09.9530404905E+017.4339586820E+01+
*       4.2800953024E+02               0
GRID*              16190               01.0039713287E+027.4165916443E+01+
*       4.2852341674E+02               0
GRID*              16191               09.9533493981E+017.4338300054E+01+
*       4.2903954105E+02               0
GRID*              16192               09.6197935011E+017.7965134394E+01+
*       4.3934595649E+02               0
GRID*              16193               09.6197943544E+017.7965160742E+01+
*       4.3625250135E+02               0
GRID*              16194               01.0453205797E+027.9397437540E+01+
*       4.1710902234E+02               0
GRID*              16195               01.0126837735E+028.2558456769E+01+
*       4.5532040298E+02               0
GRID*              16196               01.0126986930E+028.2582162109E+01+
*       4.5429034680E+02               0
GRID*              16197               01.0213367978E+028.2297613581E+01+
*       4.5582231299E+02               0
GRID*              16198               01.0126946497E+028.2582203225E+01+
*       4.5635090157E+02               0
GRID*              16199               01.0213341799E+028.2297677321E+01+
*       4.5687907190E+02               0
GRID*              16200               09.8670567023E+017.4534298709E+01+
*       5.2852402770E+02               0
GRID*              16201               09.7245171706E+017.5574981543E+01+
*       5.2852442751E+02               0
GRID*              16202               09.7941023690E+017.5021041156E+01+
*       5.2904008635E+02               0
GRID*              16203               09.7245132768E+017.5575020413E+01+
*       5.2955570329E+02               0
GRID*              16204               09.9536921790E+017.4336878321E+01+
*       5.2594638871E+02               0
GRID*              16205               09.6206706295E+017.8941692729E+01+
*       5.8629234465E+02               0
GRID*              16206               09.6196356222E+017.8853309488E+01+
*       4.7800741789E+02               0
GRID*              16207               09.6366178607E+017.9714533660E+01+
*       4.7852344988E+02               0
GRID*              16208               09.6366298971E+017.9714972845E+01+
*       4.8161677822E+02               0
GRID*              16209               09.6701888507E+018.0584030472E+01+
*       4.8213417659E+02               0
GRID*              16210               09.6366363930E+017.9715130499E+01+
*       4.8264755200E+02               0
GRID*              16211               09.7658230672E+018.1620443041E+01+
*       5.9664954221E+02               0
GRID*              16212               09.7649082320E+018.1614321556E+01+
*       5.9571921029E+02               0
GRID*              16213               09.8304727311E+018.2099505706E+01+
*       5.9619668739E+02               0
GRID*              16214               09.6651096701E+018.0338710556E+01+
*       5.9490872761E+02               0
GRID*              16215               09.7051248656E+018.1022215360E+01+
*       5.9438154056E+02               0
GRID*              16216               09.6637431586E+018.0295441914E+01+
*       5.9396524606E+02               0
GRID*              16217               09.9080897450E+018.2434319032E+01+
*       5.9478374547E+02               0
GRID*              16218               09.8266322706E+018.2069220829E+01+
*       5.9431480419E+02               0
GRID*              16219               09.8319982383E+018.2106456443E+01+
*       5.9526390974E+02               0
GRID*              16220               01.0127419478E+028.2581124208E+01+
*       4.9553835784E+02               0
GRID*              16221               09.6978736361E+018.0910148887E+01+
*       5.9343992441E+02               0
GRID*              16222               01.0436432679E+027.9837739165E+01+
*       6.0646398376E+02               0
GRID*              16223               09.9521416692E+018.2581466002E+01+
*       4.9347594205E+02               0
GRID*              16224               01.0039680348E+028.2668336473E+01+
*       4.8572620115E+02               0
GRID*              16225               01.0039644434E+028.2668333958E+01+
*       4.8366385169E+02               0
GRID*              16226               01.0127189904E+028.2581695528E+01+
*       4.7903854375E+02               0
GRID*              16227               09.7051009425E+018.1021946688E+01+
*       5.9528399059E+02               0
GRID*              16228               01.0409833055E+028.0577808464E+01+
*       5.4811107002E+02               0
GRID*              16229               01.0409735823E+028.0577505444E+01+
*       5.5017312745E+02               0
GRID*              16230               09.9077931650E+018.2432979772E+01+
*       5.9383489649E+02               0
GRID*              16231               01.0040151950E+028.2668316322E+01+
*       5.5070713132E+02               0
GRID*              16232               01.0286106567E+028.1819776539E+01+
*       5.5120718737E+02               0
GRID*              16233               01.0358387586E+028.1237357482E+01+
*       5.5070006847E+02               0
GRID*              16234               09.6721557916E+018.0626787828E+01+
*       5.8319079690E+02               0
GRID*              16235               09.7240631670E+018.1269659549E+01+
*       5.8266470992E+02               0
GRID*              16236               09.7649321552E+018.1614590228E+01+
*       5.9481676026E+02               0
GRID*              16237               09.9582381723E+018.2601993020E+01+
*       5.8423443694E+02               0
GRID*              16238               01.0458892039E+027.8847915021E+01+
*       5.4708311761E+02               0
GRID*              16239               01.0458899099E+027.8847877406E+01+
*       5.4605199272E+02               0
GRID*              16240               01.0459618871E+027.7961902650E+01+
*       5.5996840682E+02               0
GRID*              16241               01.0041620639E+028.2668146425E+01+
*       5.8166450776E+02               0
GRID*              16242               01.0459612298E+027.7961661349E+01+
*       5.6203052594E+02               0
GRID*              16243               01.0459091434E+027.8848018240E+01+
*       5.6151564495E+02               0
GRID*              16244               01.0459613146E+027.7961666619E+01+
*       5.6099960529E+02               0
GRID*              16245               01.0130422423E+028.2569057604E+01+
*       5.8216531925E+02               0
GRID*              16246               09.7940184994E+017.5021580530E+01+
*       5.6306102682E+02               0
GRID*              16247               09.8669889742E+017.4534605828E+01+
*       5.6357632113E+02               0
GRID*              16248               01.0212342522E+027.4534180505E+01+
*       5.6563768388E+02               0
GRID*              16249               01.0285231947E+027.5020274066E+01+
*       5.4450407689E+02               0
GRID*              16250               01.0212331243E+027.4534113254E+01+
*       5.4501927191E+02               0
GRID*              16251               01.0285222757E+027.5020182404E+01+
*       5.4553477540E+02               0
GRID*              16252               01.0212317329E+027.4534055716E+01+
*       5.4605004125E+02               0
GRID*              16253               01.0125700195E+027.4336735684E+01+
*       5.4656463505E+02               0
GRID*              16254               01.0125714110E+027.4336793222E+01+
*       5.4553386571E+02               0
GRID*              16255               09.6756025217E+017.6305924325E+01+
*       5.5996916652E+02               0
GRID*              16256               09.7595661875E+018.1577354614E+01+
*       5.9386765472E+02               0
GRID*              16257               09.8263356907E+018.2067881569E+01+
*       5.9336595521E+02               0
GRID*              16258               01.0354773733E+027.5573436149E+01+
*       5.4605100477E+02               0
GRID*              16259               01.0285246599E+027.5020296713E+01+
*       5.4656567879E+02               0
GRID*              16260               01.0039713287E+027.4165916443E+01+
*       5.4501826210E+02               0
GRID*              16261               01.0039713287E+027.4165916443E+01+
*       5.4398733426E+02               0
GRID*              16262               01.0039713287E+027.4165916443E+01+
*       5.4708011777E+02               0
GRID*              16263               01.0039713287E+027.4165916443E+01+
*       5.4604918993E+02               0
GRID*              16264               09.7939996098E+017.5021747991E+01+
*       5.6099905855E+02               0
GRID*              16265               09.6197672690E+017.8854275070E+01+
*       5.7182819123E+02               0
GRID*              16266               09.6207936564E+017.7968462662E+01+
*       5.7131096492E+02               0
GRID*              16267               09.6197586185E+017.8854421588E+01+
*       5.7285916246E+02               0
GRID*              16268               09.6200891032E+017.8853258347E+01+
*       5.7389152231E+02               0
GRID*              16269               09.8669906282E+017.4534604585E+01+
*       5.4708112194E+02               0
GRID*              16270               09.9536801540E+017.4336927999E+01+
*       5.4450327754E+02               0
GRID*              16271               01.0040193217E+028.2668369440E+01+
*       5.4552313271E+02               0
GRID*              16272               09.6366710328E+017.9716073576E+01+
*       5.2698157590E+02               0
GRID*              16273               09.6701596315E+018.0582676070E+01+
*       5.2749677031E+02               0
GRID*              16274               09.7216018058E+018.1242147246E+01+
*       5.2903275877E+02               0
GRID*              16275               09.6367764154E+017.9716050954E+01+
*       5.7236516836E+02               0
GRID*              16276               09.6701341749E+018.0581979113E+01+
*       5.2955923450E+02               0
GRID*              16277               09.6757144138E+017.6304536510E+01+
*       5.2491537829E+02               0
GRID*              16278               09.9864223611E+018.2674181071E+01+
*       5.9136961483E+02               0
GRID*              16279               09.6198561796E+017.7966198754E+01+
*       5.2800944930E+02               0
GRID*              16280               01.0288780273E+028.1885032719E+01+
*       5.2336719901E+02               0
GRID*              16281               01.0359045179E+028.1235646476E+01+
*       5.2284186659E+02               0
GRID*              16282               01.0285951251E+028.1821131114E+01+
*       5.2233646153E+02               0
GRID*              16283               09.7077856394E+018.1060106080E+01+
*       5.9616335303E+02               0
GRID*              16284               09.6756794015E+017.6304785527E+01+
*       5.1254363388E+02               0
GRID*              16285               09.6756669961E+017.6304940325E+01+
*       5.1151314683E+02               0
GRID*              16286               09.6677943671E+018.0376869949E+01+
*       5.9578809004E+02               0
GRID*              16287               09.6319332058E+017.9599349351E+01+
*       5.9455508323E+02               0
GRID*              16288               01.0405755327E+027.6327282618E+01+
*       5.9084473446E+02               0
GRID*              16289               09.7386299510E+018.1389499164E+01+
*       5.8890680901E+02               0
GRID*              16290               01.0212361054E+027.4534270287E+01+
*       4.9862770124E+02               0
GRID*              16291               01.0285277249E+027.5020551748E+01+
*       5.0120543501E+02               0
GRID*              16292               01.0354857536E+027.5574440386E+01+
*       5.0172083469E+02               0
GRID*              16293               09.9063001520E+018.2415011939E+01+
*       5.9862651250E+02               0
GRID*              16294               09.8268693717E+018.2084122248E+01+
*       5.9810595902E+02               0
GRID*              16295               01.0212351136E+027.4534219535E+01+
*       5.0068935687E+02               0
GRID*              16296               09.6374130830E+017.9715101034E+01+
*       5.7649681351E+02               0
GRID*              16297               09.6700123950E+018.0586035459E+01+
*       5.7699053370E+02               0
GRID*              16298               09.7217576758E+018.1243428232E+01+
*       5.7646438610E+02               0
GRID*              16299               01.0403685843E+027.6303319209E+01+
*       5.0429783695E+02               0
GRID*              16300               01.0354849940E+027.5574364611E+01+
*       5.0275171920E+02               0
GRID*              16301               01.0285269653E+027.5020475973E+01+
*       5.0223631952E+02               0
GRID*              16302               01.0354820750E+027.5574040579E+01+
*       5.1924355088E+02               0
GRID*              16303               01.0442600754E+027.9713751776E+01+
*       5.7650587916E+02               0
GRID*              16304               01.0408765540E+028.0580749879E+01+
*       5.7595776446E+02               0
GRID*              16305               01.0409809215E+028.0574451351E+01+
*       5.7699665811E+02               0
GRID*              16306               01.0442714369E+027.9711014091E+01+
*       5.7753857895E+02               0
GRID*              16307               09.9537154837E+017.4336782312E+01+
*       4.8161648495E+02               0
GRID*              16308               09.9537003599E+017.4336844865E+01+
*       4.8264737142E+02               0
GRID*              16309               01.0408853065E+028.0578462831E+01+
*       5.7802604277E+02               0
GRID*              16310               01.0403734873E+027.6303795487E+01+
*       5.7440767039E+02               0
GRID*              16311               01.0403719839E+027.6303432076E+01+
*       5.7543907844E+02               0
GRID*              16312               01.0354836181E+027.5574303266E+01+
*       5.7595455696E+02               0
GRID*              16313               01.0442382711E+027.7104891465E+01+
*       5.7389341255E+02               0
GRID*              16314               01.0442367677E+027.7104528053E+01+
*       5.7492482061E+02               0
GRID*              16315               01.0403756124E+027.6303886725E+01+
*       5.7647303798E+02               0
GRID*              16316               01.0354872465E+027.5574757915E+01+
*       5.7698851649E+02               0
GRID*              16317               01.0459637674E+027.7963230813E+01+
*       5.7440919515E+02               0
GRID*              16318               09.7898477411E+017.5079931561E+01+
*       6.0111604848E+02               0
GRID*              16319               09.8648629443E+017.4542520516E+01+
*       6.0063826772E+02               0
GRID*              16320               09.8646122526E+017.4543627028E+01+
*       6.0166755956E+02               0
GRID*              16321               09.7897292560E+017.5081223307E+01+
*       6.0009219003E+02               0
GRID*              16322               01.0039713287E+027.4165916443E+01+
*       6.0687393220E+02               0
GRID*              16323               09.9472588877E+017.4364674937E+01+
*       6.0735478804E+02               0
GRID*              16324               09.6264847559E+017.9407907971E+01+
*       6.1518186991E+02               0
GRID*              16325               09.6445232468E+017.9912419472E+01+
*       6.1449440217E+02               0
GRID*              16326               09.6740350776E+018.0560084726E+01+
*       6.1385836591E+02               0
GRID*              16327               01.0285313961E+027.5020168092E+01+
*       5.7956349324E+02               0
GRID*              16328               01.0403778470E+027.6305112125E+01+
*       4.5790047298E+02               0
GRID*              16329               01.0403758164E+027.6304858140E+01+
*       4.5893091668E+02               0
GRID*              16330               01.0354954808E+027.5575487484E+01+
*       4.5841689591E+02               0
GRID*              16331               01.0039713287E+027.4165916443E+01+
*       5.7800795282E+02               0
GRID*              16332               01.0125665879E+027.4336593686E+01+
*       5.7749284275E+02               0
GRID*              16333               01.0285384447E+028.1824913833E+01+
*       4.6047547941E+02               0
GRID*              16334               01.0358806413E+028.1240587564E+01+
*       4.6097896715E+02               0
GRID*              16335               01.0125693209E+027.4336706681E+01+
*       5.7646179806E+02               0
GRID*              16336               09.6743600930E+017.6334745317E+01+
*       5.8368913172E+02               0
GRID*              16337               09.6367137525E+017.7138177474E+01+
*       5.8317792830E+02               0
GRID*              16338               09.8671512832E+017.4533864864E+01+
*       4.6563536680E+02               0
GRID*              16339               09.8671387241E+017.4533924929E+01+
*       4.6460433014E+02               0
GRID*              16340               01.0212363906E+027.4534271395E+01+
*       4.7182195337E+02               0
GRID*              16341               01.0212387512E+027.4534383910E+01+
*       4.7079084647E+02               0
GRID*              16342               01.0285323621E+027.5020948925E+01+
*       4.7233771378E+02               0
GRID*              16343               01.0285347227E+027.5021061440E+01+
*       4.7130660688E+02               0
GRID*              16344               01.0285329597E+027.5020925336E+01+
*       4.7439995307E+02               0
GRID*              16345               01.0212383700E+027.4534365370E+01+
*       4.7491505319E+02               0
GRID*              16346               09.6196512870E+017.8854827443E+01+
*       5.7079635518E+02               0
GRID*              16347               01.0285313282E+027.5020845739E+01+
*       4.7336883570E+02               0
GRID*              16348               01.0458937039E+027.8847525920E+01+
*       5.5429838229E+02               0
GRID*              16349               01.0459141468E+027.8848731697E+01+
*       5.6460879156E+02               0
GRID*              16350               01.0459623208E+027.7962475843E+01+
*       5.6512386621E+02               0
GRID*              16351               01.0459618767E+027.7962271380E+01+
*       5.6409266700E+02               0
GRID*              16352               01.0459617953E+027.7962366283E+01+
*       5.6718630877E+02               0
GRID*              16353               01.0459621616E+027.7962514696E+01+
*       5.6615484719E+02               0
GRID*              16354               01.0459195588E+027.8849035162E+01+
*       5.6667112592E+02               0
GRID*              16355               01.0459197180E+027.8848996309E+01+
*       5.6564014494E+02               0
GRID*              16356               01.0039713287E+027.4165916443E+01+
*       5.4914197344E+02               0
GRID*              16357               01.0039713287E+027.4165916443E+01+
*       5.5017290127E+02               0
GRID*              16358               09.9536766417E+017.4336942537E+01+
*       5.4965771609E+02               0
GRID*              16359               01.0285578601E+028.1823263109E+01+
*       4.3986390359E+02               0
GRID*              16360               01.0357565903E+028.1244375548E+01+
*       4.3316705988E+02               0
GRID*              16361               01.0039713287E+027.4165916443E+01+
*       5.4811104560E+02               0
GRID*              16362               09.9536921330E+017.4336878419E+01+
*       5.4759599268E+02               0
GRID*              16363               01.0213666300E+028.2296224916E+01+
*       4.4039084570E+02               0
GRID*              16364               09.8670057598E+017.4534527913E+01+
*       5.5017378019E+02               0
GRID*              16365               09.8669905340E+017.4534600408E+01+
*       5.5120479149E+02               0
GRID*              16366               09.7940326188E+017.5021561445E+01+
*       5.4965856711E+02               0
GRID*              16367               09.7940173930E+017.5021633940E+01+
*       5.5068957840E+02               0
GRID*              16368               09.9536873135E+017.4336898368E+01+
*       5.5068856280E+02               0
GRID*              16369               09.7244509875E+017.5575707498E+01+
*       5.4914368038E+02               0
GRID*              16370               09.9521300689E+018.2557432805E+01+
*       4.3470612111E+02               0
GRID*              16371               01.0286127176E+028.1819337192E+01+
*       5.4708400956E+02               0
GRID*              16372               01.0358435313E+028.1237264575E+01+
*       5.5171342125E+02               0
GRID*              16373               09.7245075762E+017.5575091806E+01+
*       5.3058672698E+02               0
GRID*              16374               09.7940812442E+017.5021142541E+01+
*       5.3007105593E+02               0
GRID*              16375               09.7811504636E+017.5156847937E+01+
*       6.0935232371E+02               0
GRID*              16376               09.7733473080E+017.5071014811E+01+
*       6.1041902177E+02               0
GRID*              16377               09.7105515421E+017.5729307450E+01+
*       6.0986262817E+02               0
GRID*              16378               09.8560589105E+017.4583316614E+01+
*       6.0990568901E+02               0
GRID*              16379               01.0359255478E+028.1233573791E+01+
*       5.3727939348E+02               0
GRID*              16380               09.7413186962E+018.1344641460E+01+
*       6.0055550378E+02               0
GRID*              16381               01.0359407596E+028.1234132952E+01+
*       5.3109193095E+02               0
GRID*              16382               01.0409691867E+028.0579581240E+01+
*       5.3161495454E+02               0
GRID*              16383               09.9949883255E+018.2620015767E+01+
*       5.9917270035E+02               0
GRID*              16384               09.6370234137E+017.7105477516E+01+
*       5.0790616286E+02               0
GRID*              16385               09.6196468223E+017.8855578497E+01+
*       5.0481516922E+02               0
GRID*              16386               09.6366808904E+017.9716324302E+01+
*       5.0842299287E+02               0
GRID*              16387               01.0039713287E+027.4165916443E+01+
*       5.0171929302E+02               0
GRID*              16388               01.0125683445E+027.4336665934E+01+
*       5.0223540087E+02               0
GRID*              16389               01.0125683445E+027.4336665934E+01+
*       5.0120447304E+02               0
GRID*              16390               01.0212334607E+027.4534151188E+01+
*       5.0172031138E+02               0
GRID*              16391               01.0459619370E+027.7964339692E+01+
*       5.0223756202E+02               0
GRID*              16392               01.0442373825E+027.7104295665E+01+
*       5.0481275308E+02               0
GRID*              16393               01.0039895923E+028.2668310810E+01+
*       5.1664990127E+02               0
GRID*              16394               01.0127455675E+028.2557687194E+01+
*       5.1717996917E+02               0
GRID*              16395               01.0127540913E+028.2580605813E+01+
*       5.1614882211E+02               0
GRID*              16396               01.0459723707E+027.8858113208E+01+
*       4.5532170158E+02               0
GRID*              16397               09.7201108727E+018.1234848823E+01+
*       4.7028347570E+02               0
GRID*              16398               01.0354910084E+027.5574938460E+01+
*       4.4810994261E+02               0
GRID*              16399               01.0285384372E+027.5021373599E+01+
*       4.4965539238E+02               0
GRID*              16400               01.0213386220E+028.2297560662E+01+
*       4.5788341063E+02               0
GRID*              16401               01.0126929437E+028.2582194898E+01+
*       4.5841203427E+02               0
GRID*              16402               09.6366867261E+017.9716442562E+01+
*       5.1254475076E+02               0
GRID*              16403               09.6196400648E+017.8855752491E+01+
*       5.1202746724E+02               0
GRID*              16404               09.7933416013E+018.1819513142E+01+
*       4.6253444764E+02               0
GRID*              16405               09.6708414440E+018.0584800765E+01+
*       4.5841157405E+02               0
GRID*              16406               09.6365661744E+017.9712761831E+01+
*       4.5892930363E+02               0
GRID*              16407               09.6700473077E+018.0581920143E+01+
*       4.5944742266E+02               0
GRID*              16408               09.7214114853E+018.1239251492E+01+
*       4.5892061507E+02               0
GRID*              16409               09.6700350611E+018.0581696488E+01+
*       4.6150894368E+02               0
GRID*              16410               01.0127778995E+028.2580243958E+01+
*       5.5120780630E+02               0
GRID*              16411               09.9519452065E+018.2580906583E+01+
*       4.3986187323E+02               0
GRID*              16412               09.8655982837E+018.2295555035E+01+
*       4.3933206487E+02               0
GRID*              16413               09.8655525537E+018.2295294039E+01+
*       4.4039035493E+02               0
GRID*              16414               01.0039611293E+028.2668313434E+01+
*       4.3936079589E+02               0
GRID*              16415               09.9520654686E+018.2557619494E+01+
*       4.3883042635E+02               0
GRID*              16416               09.7906735522E+018.1885219553E+01+
*       4.3883004536E+02               0
GRID*              16417               09.7205868275E+018.1238095235E+01+
*       4.3830419275E+02               0
GRID*              16418               01.0354768645E+027.5573385406E+01+
*       5.4708162024E+02               0
GRID*              16419               09.8655832006E+018.2295493705E+01+
*       4.4139418727E+02               0
GRID*              16420               09.9520474059E+018.2557635594E+01+
*       4.4089260535E+02               0
GRID*              16421               09.7906767076E+018.1884923978E+01+
*       4.4089223849E+02               0
GRID*              16422               09.8660917057E+018.2297736758E+01+
*       5.5586056913E+02               0
GRID*              16423               01.0039588973E+028.2668308569E+01+
*       4.4142289459E+02               0
GRID*              16424               09.9519201471E+018.2580821823E+01+
*       4.4192396413E+02               0
GRID*              16425               09.7936155600E+018.1822298691E+01+
*       4.4192341363E+02               0
GRID*              16426               09.7214274118E+018.1241391725E+01+
*       4.4141634200E+02               0
GRID*              16427               09.9525250882E+018.2582506037E+01+
*       5.5739389711E+02               0
GRID*              16428               09.9526314353E+018.2558326121E+01+
*       5.5636246456E+02               0
GRID*              16429               01.0356216729E+027.5593984680E+01+
*       4.2333112182E+02               0
GRID*              16430               01.0404516125E+027.6307958528E+01+
*       4.2383219057E+02               0
GRID*              16431               09.7940216107E+017.5021552859E+01+
*       5.4141161966E+02               0
GRID*              16432               09.9536945171E+017.4336868556E+01+
*       5.4347250568E+02               0
GRID*              16433               01.0285621645E+027.5017103012E+01+
*       4.2280722989E+02               0
GRID*              16434               01.0356001303E+027.5591859646E+01+
*       4.2227950644E+02               0
GRID*              16435               01.0357229067E+027.5607950662E+01+
*       4.2122861376E+02               0
GRID*              16436               01.0286731134E+027.5022580573E+01+
*       4.2175993092E+02               0
GRID*              16437               01.0287540166E+027.5030590867E+01+
*       4.2070074958E+02               0
GRID*              16438               09.7229039238E+017.5590355770E+01+
*       4.2646123190E+02               0
GRID*              16439               09.7227297014E+017.5592525118E+01+
*       4.2749593246E+02               0
GRID*              16440               09.6748341927E+017.6330117243E+01+
*       4.2698008883E+02               0
GRID*              16441               09.6746599703E+017.6332286591E+01+
*       4.2801478939E+02               0
GRID*              16442               09.9536844960E+017.4336910067E+01+
*       5.6512159845E+02               0
GRID*              16443               09.7239474762E+017.5580151201E+01+
*       4.2852099357E+02               0
GRID*              16444               09.6755332019E+017.6310683125E+01+
*       4.2903583514E+02               0
GRID*              16445               09.6373994264E+017.9732506597E+01+
*       4.3007802553E+02               0
GRID*              16446               01.0459793290E+027.7974108383E+01+
*       4.3006446310E+02               0
GRID*              16447               01.0459698388E+027.7969934879E+01+
*       4.3109631853E+02               0
GRID*              16448               01.0459698132E+027.7968943654E+01+
*       4.3212814772E+02               0
GRID*              16449               09.7967463097E+017.4991602526E+01+
*       5.9492252878E+02               0
GRID*              16450               09.9525084571E+018.2582444297E+01+
*       5.5945592549E+02               0
GRID*              16451               09.8637603819E+017.4548601870E+01+
*       5.9444556325E+02               0
GRID*              16452               01.0212337369E+027.4534161879E+01+
*       5.1615122000E+02               0
GRID*              16453               01.0125677808E+027.4336642802E+01+
*       5.1460575679E+02               0
GRID*              16454               01.0212326930E+027.4534118672E+01+
*       5.1512033987E+02               0
GRID*              16455               09.6651651465E+018.0420179936E+01+
*       6.1546685664E+02               0
GRID*              16456               09.6430815150E+017.9863337821E+01+
*       5.8887696808E+02               0
GRID*              16457               01.0453251131E+027.9126066158E+01+
*       5.9785750192E+02               0
GRID*              16458               09.6922188660E+018.0920629042E+01+
*       6.1460482833E+02               0
GRID*              16459               09.9523044338E+018.2582296521E+01+
*       5.7389543484E+02               0
GRID*              16460               09.7911397580E+018.1889551305E+01+
*       5.7699392129E+02               0
GRID*              16461               01.0285326955E+027.5020505419E+01+
*       5.7749947914E+02               0
GRID*              16462               01.0252693513E+028.2091482543E+01+
*       4.2016019184E+02               0
GRID*              16463               01.0442362379E+027.7104990523E+01+
*       5.7802649894E+02               0
GRID*              16464               01.0459658916E+027.7961179347E+01+
*       5.7854246780E+02               0
GRID*              16465               01.0442263090E+027.7102609934E+01+
*       5.7905733731E+02               0
GRID*              16466               01.0403671074E+027.6301285641E+01+
*       5.7956937970E+02               0
GRID*              16467               01.0354766419E+027.5573827675E+01+
*       5.8008409401E+02               0
GRID*              16468               01.0403720874E+027.6301910519E+01+
*       5.8060478999E+02               0
GRID*              16469               01.0442441532E+027.7105631947E+01+
*       4.3986320466E+02               0
GRID*              16470               01.0403722030E+027.6304367803E+01+
*       4.3934712103E+02               0
GRID*              16471               01.0285335733E+027.5021036526E+01+
*       4.3934729926E+02               0
GRID*              16472               01.0354871215E+027.5574502687E+01+
*       4.3883225856E+02               0
GRID*              16473               01.0013928404E+028.2627613653E+01+
*       6.0857133565E+02               0
GRID*              16474               01.0037098945E+028.2706620360E+01+
*       6.0956511223E+02               0
GRID*              16475               01.0109708821E+028.2649664273E+01+
*       6.0931374048E+02               0
GRID*              16476               09.6987505184E+018.0925574349E+01+
*       6.0874627071E+02               0
GRID*              16477               01.0406116976E+028.0644610249E+01+
*       4.2643628708E+02               0
GRID*              16478               01.0403499751E+028.0689236873E+01+
*       4.2540852005E+02               0
GRID*              16479               01.0351363088E+028.1320720943E+01+
*       4.2594019043E+02               0
GRID*              16480               09.6196594028E+017.8855201384E+01+
*       4.3470590810E+02               0
GRID*              16481               09.6366879176E+017.9716562170E+01+
*       4.3522108821E+02               0
GRID*              16482               09.6367740383E+017.9718644975E+01+
*       4.3419150742E+02               0
GRID*              16483               09.6196588317E+017.8855181303E+01+
*       4.3573738157E+02               0
GRID*              16484               09.6197943095E+017.7965348452E+01+
*       4.3522164350E+02               0
GRID*              16485               09.6196588766E+017.8854993594E+01+
*       4.3676823941E+02               0
GRID*              16486               09.7922712315E+017.5040461977E+01+
*       4.2698222353E+02               0
GRID*              16487               09.8665644104E+017.4536225979E+01+
*       4.2749075084E+02               0
GRID*              16488               09.7934890063E+017.5028088060E+01+
*       4.2800728464E+02               0
GRID*              16489               01.0039592155E+028.2668408303E+01+
*       4.4036216400E+02               0
GRID*              16490               01.0212404915E+027.4534448415E+01+
*       4.3883234217E+02               0
GRID*              16491               01.0285330220E+027.5021062406E+01+
*       4.4140930916E+02               0
GRID*              16492               09.9501632195E+017.4351832112E+01+
*       4.2389439568E+02               0
GRID*              16493               01.0039713287E+027.4165916443E+01+
*       4.2439970540E+02               0
GRID*              16494               09.9516245896E+017.4345553837E+01+
*       4.2492161260E+02               0
GRID*              16495               01.0039713287E+027.4165916443E+01+
*       4.2543063323E+02               0
GRID*              16496               01.0039713287E+027.4165916443E+01+
*       4.2646156107E+02               0
GRID*              16497               09.9516245896E+017.4345553837E+01+
*       4.2595254044E+02               0
GRID*              16498               01.0125735327E+027.4336880683E+01+
*       4.3831647228E+02               0
GRID*              16499               01.0125297671E+027.4335075214E+01+
*       4.2491044819E+02               0
GRID*              16500               01.0442634365E+027.9719867304E+01+
*       4.6099057582E+02               0
GRID*              16501               01.0459717149E+027.8858082286E+01+
*       4.6047488306E+02               0
GRID*              16502               01.0357730400E+028.1244695934E+01+
*       4.5685801616E+02               0
GRID*              16503               01.0288320887E+028.1888345535E+01+
*       4.5738188507E+02               0
GRID*              16504               01.0358530056E+028.1241381387E+01+
*       4.5790647786E+02               0
GRID*              16505               09.6198842385E+017.7967499889E+01+
*       5.6100092385E+02               0
GRID*              16506               01.0213303053E+027.4539122716E+01+
*       4.2438729488E+02               0
GRID*              16507               09.7905290637E+017.5059505993E+01+
*       4.2492485354E+02               0
GRID*              16508               09.7905952531E+017.5059189581E+01+
*       4.2388509627E+02               0
GRID*              16509               09.8638632487E+017.4547628040E+01+
*       4.2440400765E+02               0
GRID*              16510               09.6758673416E+017.6301547418E+01+
*       4.6099358801E+02               0
GRID*              16511               09.6370617557E+017.7106581788E+01+
*       5.3677370228E+02               0
GRID*              16512               01.0459655670E+027.7967549709E+01+
*       4.6408530226E+02               0
GRID*              16513               01.0459718263E+027.8857365663E+01+
*       4.6460054746E+02               0
GRID*              16514               01.0442652410E+027.9719353730E+01+
*       4.6408479660E+02               0
GRID*              16515               01.0442652766E+027.9719323682E+01+
*       4.6511592440E+02               0
GRID*              16516               09.9523751286E+018.2557895736E+01+
*       5.0481471111E+02               0
GRID*              16517               09.7909335289E+018.1887221302E+01+
*       5.0687594063E+02               0
GRID*              16518               09.8652733452E+018.2294078922E+01+
*       4.5894076211E+02               0
GRID*              16519               09.6701376944E+018.0586058690E+01+
*       5.0481103788E+02               0
GRID*              16520               09.9517380606E+018.2556695729E+01+
*       4.5944275313E+02               0
GRID*              16521               09.7933750772E+018.1820010559E+01+
*       4.5841112707E+02               0
GRID*              16522               09.7213750404E+018.1240777030E+01+
*       4.8160744922E+02               0
GRID*              16523               09.7202879396E+018.1236748238E+01+
*       4.8265800642E+02               0
GRID*              16524               09.7907042765E+018.1885282633E+01+
*       4.8213215403E+02               0
GRID*              16525               09.7936231218E+018.1821821993E+01+
*       4.8316100050E+02               0
GRID*              16526               09.8655762281E+018.2295437214E+01+
*       4.8263381027E+02               0
GRID*              16527               09.9501632195E+017.4351832112E+01+
*       4.2286346784E+02               0
GRID*              16528               09.9477791875E+017.4362337968E+01+
*       4.2183863664E+02               0
GRID*              16529               09.6196357802E+017.8853587924E+01+
*       4.7903820018E+02               0
GRID*              16530               09.6709830509E+018.0586074604E+01+
*       5.1820926725E+02               0
GRID*              16531               09.7938710587E+018.1822552202E+01+
*       5.1820955593E+02               0
GRID*              16532               09.7202834509E+018.1237295027E+01+
*       5.1770708778E+02               0
GRID*              16533               09.7909340066E+018.1887444437E+01+
*       5.1718059726E+02               0
GRID*              16534               09.8658088398E+018.2296497309E+01+
*       5.1768209183E+02               0
GRID*              16535               09.6758453014E+017.6301630811E+01+
*       4.7233710168E+02               0
GRID*              16536               09.6365464430E+017.9712064971E+01+
*       4.6717862277E+02               0
GRID*              16537               09.9536969531E+017.4336858945E+01+
*       4.9398804127E+02               0
GRID*              16538               09.8654861733E+018.2295076739E+01+
*       4.7750576418E+02               0
GRID*              16539               01.0403703828E+027.6303820206E+01+
*       4.7336862505E+02               0
GRID*              16540               01.0442700411E+027.9717896501E+01+
*       4.7233662571E+02               0
GRID*              16541               09.6757228941E+017.6304261937E+01+
*       5.2594666795E+02               0
GRID*              16542               09.8670476987E+017.4534335198E+01+
*       5.2543075699E+02               0
GRID*              16543               01.0394132211E+028.0811398482E+01+
*       4.1816687550E+02               0
GRID*              16544               01.0439668863E+027.9805616500E+01+
*       4.1823208038E+02               0
GRID*              16545               01.0458166839E+027.8721021896E+01+
*       4.1796720756E+02               0
GRID*              16546               09.6370606630E+017.7104780953E+01+
*       5.2646237371E+02               0
GRID*              16547               09.6366569839E+017.9715434531E+01+
*       5.2595013066E+02               0
GRID*              16548               09.7245557135E+017.5574521716E+01+
*       5.0069090883E+02               0
GRID*              16549               09.9523921142E+018.2582173809E+01+
*       5.6770434667E+02               0
GRID*              16550               09.6370274005E+017.7105282511E+01+
*       5.0069183511E+02               0
GRID*              16551               09.6370250539E+017.7105438731E+01+
*       5.0172258426E+02               0
GRID*              16552               09.6198231411E+017.7966354916E+01+
*       5.0120742105E+02               0
GRID*              16553               09.6757104464E+017.6304114460E+01+
*       5.0120696860E+02               0
GRID*              16554               01.0039713287E+027.4165916443E+01+
*       5.6872960230E+02               0
GRID*              16555               01.0125698059E+027.4336726308E+01+
*       4.8574022472E+02               0
GRID*              16556               01.0408256871E+028.0586695236E+01+
*       4.4604750221E+02               0
GRID*              16557               01.0442654463E+027.9719115800E+01+
*       4.4656254940E+02               0
GRID*              16558               09.7940296216E+017.5021614012E+01+
*       5.5378228899E+02               0
GRID*              16559               09.8670047539E+017.4534527373E+01+
*       5.5326672401E+02               0
GRID*              16560               09.8669980444E+017.4534555149E+01+
*       5.5429764326E+02               0
GRID*              16561               09.6757208887E+017.6303858852E+01+
*       4.9398954176E+02               0
GRID*              16562               09.6757182686E+017.6303891183E+01+
*       4.9295846285E+02               0
GRID*              16563               01.0125693133E+027.4336705941E+01+
*       4.7852368725E+02               0
GRID*              16564               01.0039713287E+027.4165916443E+01+
*       4.7800795282E+02               0
GRID*              16565               01.0125713070E+027.4336788418E+01+
*       4.7749281987E+02               0
GRID*              16566               01.0408707313E+028.0579192236E+01+
*       5.2439859978E+02               0
GRID*              16567               01.0358211723E+028.1239280020E+01+
*       5.2389204720E+02               0
GRID*              16568               01.0285932814E+028.1821318997E+01+
*       5.2439934923E+02               0
GRID*              16569               01.0409012057E+028.0587611537E+01+
*       4.4708107718E+02               0
GRID*              16570               01.0357830409E+028.1243648315E+01+
*       4.4655406205E+02               0
GRID*              16571               01.0039713287E+027.4165916443E+01+
*       4.8625537550E+02               0
GRID*              16572               01.0039713287E+027.4165916443E+01+
*       4.8522444766E+02               0
GRID*              16573               01.0125698059E+027.4336726308E+01+
*       4.8470929688E+02               0
GRID*              16574               09.7203209153E+018.1238038190E+01+
*       5.7751774218E+02               0
GRID*              16575               09.8659064605E+018.2296973429E+01+
*       5.7336352253E+02               0
GRID*              16576               01.0459681809E+027.7962187985E+01+
*       5.7957820908E+02               0
GRID*              16577               01.0459674115E+027.7956873644E+01+
*       5.8060863309E+02               0
GRID*              16578               01.0442285982E+027.7103618573E+01+
*       5.8009307858E+02               0
GRID*              16579               09.8664396399E+017.4536824708E+01+
*       4.2852375398E+02               0
GRID*              16580               09.6196481654E+017.8853354812E+01+
*       4.5017083173E+02               0
GRID*              16581               01.0459663817E+027.7963729573E+01+
*       5.7751095277E+02               0
GRID*              16582               01.0459477983E+027.8851693071E+01+
*       5.7699528386E+02               0
GRID*              16583               01.0459473082E+027.8849142845E+01+
*       5.7802679890E+02               0
GRID*              16584               01.0459523290E+027.8850261066E+01+
*       5.7906382610E+02               0
GRID*              16585               01.0285338251E+027.5021142584E+01+
*       4.4244011102E+02               0
GRID*              16586               01.0125453473E+028.2584271729E+01+
*       4.2955807357E+02               0
GRID*              16587               09.6738147697E+017.6356186102E+01+
*       4.2595710759E+02               0
GRID*              16588               01.0459650581E+027.7963143921E+01+
*       5.7647505881E+02               0
GRID*              16589               01.0442349143E+027.7104404872E+01+
*       5.7699060498E+02               0
GRID*              16590               01.0442545905E+027.9712713918E+01+
*       5.7546897723E+02               0
GRID*              16591               01.0459422082E+027.8850744245E+01+
*       5.7595956310E+02               0
GRID*              16592               01.0459425263E+027.8851541077E+01+
*       5.7492803337E+02               0
GRID*              16593               01.0442383766E+027.7105237994E+01+
*       5.7595915454E+02               0
GRID*              16594               09.9524494528E+018.2557855224E+01+
*       5.7286163661E+02               0
GRID*              16595               09.9489677769E+017.4357059490E+01+
*       6.0116906304E+02               0
GRID*              16596               09.7896527822E+017.5080836440E+01+
*       6.0213530039E+02               0
GRID*              16597               01.0092015019E+028.2610886321E+01+
*       6.0383238296E+02               0
GRID*              16598               01.0096052648E+028.2601421362E+01+
*       6.0490425220E+02               0
GRID*              16599               01.0184078625E+028.2382782761E+01+
*       6.0437621283E+02               0
GRID*              16600               01.0459653762E+027.7963940753E+01+
*       5.7544352908E+02               0
GRID*              16601               01.0183388563E+028.2386290244E+01+
*       6.0542826183E+02               0
GRID*              16602               09.8661003774E+017.4538355444E+01+
*       5.8316625908E+02               0
GRID*              16603               09.7928569492E+017.5032330480E+01+
*       5.8368247327E+02               0
GRID*              16604               01.0000227266E+028.2625316910E+01+
*       6.0438775078E+02               0
GRID*              16605               01.0183378329E+028.2386342008E+01+
*       6.0642810093E+02               0
GRID*              16606               01.0099211473E+028.2600703853E+01+
*       6.0594422320E+02               0
GRID*              16607               09.7593829595E+018.1554326891E+01+
*       6.0712353534E+02               0
GRID*              16608               09.7638597364E+018.1606526412E+01+
*       6.0820387007E+02               0
GRID*              16609               09.8356108744E+018.2120063859E+01+
*       6.0761234257E+02               0
GRID*              16610               01.0039713287E+027.4165916443E+01+
*       6.0893578787E+02               0
GRID*              16611               09.9459120021E+017.4370797560E+01+
*       6.0941492554E+02               0
GRID*              16612               09.9116751146E+018.2442086881E+01+
*       5.9575204039E+02               0
GRID*              16613               09.9941843793E+018.2618637856E+01+
*       5.9622585563E+02               0
GRID*              16614               09.9905990097E+018.2610870007E+01+
*       5.9525756071E+02               0
GRID*              16615               01.0270392906E+028.1958734027E+01+
*       6.0592887556E+02               0
GRID*              16616               09.8307376368E+018.2116455693E+01+
*       4.1739034653E+02               0
GRID*              16617               09.8779766151E+018.2313509527E+01+
*       4.1820288443E+02               0
GRID*              16618               09.7499159771E+018.1525831876E+01+
*       6.1443020988E+02               0
GRID*              16619               09.7204968459E+018.1254730723E+01+
*       6.1526243942E+02               0
GRID*              16620               01.0403740556E+027.6304458589E+01+
*       4.3522256618E+02               0
GRID*              16621               01.0213267898E+027.4538360988E+01+
*       5.8728454261E+02               0
GRID*              16622               01.0403649497E+027.6296850849E+01+
*       5.8574724266E+02               0
GRID*              16623               01.0355179386E+027.5578856555E+01+
*       5.8625974889E+02               0
GRID*              16624               01.0356765479E+027.5597244741E+01+
*       5.8933898721E+02               0
GRID*              16625               01.0418734918E+028.0324988984E+01+
*       4.1727534162E+02               0
GRID*              16626               01.0358040132E+028.1239228149E+01+
*       5.7440305034E+02               0
GRID*              16627               09.6203935380E+017.8083173646E+01+
*       4.2389254923E+02               0
GRID*              16628               01.0403741438E+027.6304644665E+01+
*       4.4759369877E+02               0
GRID*              16629               09.6758298519E+017.6301954085E+01+
*       4.5584000578E+02               0
GRID*              16630               01.0408787379E+028.0581141796E+01+
*       5.7389098560E+02               0
GRID*              16631               09.6370264493E+017.7104637914E+01+
*       4.4089264737E+02               0
GRID*              16632               09.6198311337E+017.7966109724E+01+
*       5.0326912850E+02               0
GRID*              16633               09.6370327463E+017.7105158946E+01+
*       5.0275328912E+02               0
GRID*              16634               09.7246899483E+017.5573026527E+01+
*       4.5532522039E+02               0
GRID*              16635               09.7246803595E+017.5573122149E+01+
*       4.5635620577E+02               0
GRID*              16636               09.7223064627E+017.5598413902E+01+
*       5.8626369908E+02               0
GRID*              16637               09.7224411347E+017.5596717985E+01+
*       5.8523465421E+02               0
GRID*              16638               09.6735001404E+017.6352962765E+01+
*       5.8678496464E+02               0
GRID*              16639               09.6736348124E+017.6351266848E+01+
*       5.8575591977E+02               0
GRID*              16640               09.8807988333E+018.2360640548E+01+
*       5.8884803253E+02               0
GRID*              16641               09.6197919366E+017.7965434518E+01+
*       4.3419014278E+02               0
GRID*              16642               09.6196555545E+017.8855027132E+01+
*       5.6976495224E+02               0
GRID*              16643               09.9537329904E+017.4336709848E+01+
*       4.6305885966E+02               0
GRID*              16644               09.8671302079E+017.4533960128E+01+
*       4.6357334451E+02               0
GRID*              16645               09.8671465652E+017.4533881347E+01+
*       4.6254233391E+02               0
GRID*              16646               09.9516350442E+018.2580404365E+01+
*       4.5841213958E+02               0
GRID*              16647               09.6709980018E+018.0592214377E+01+
*       4.3779920710E+02               0
GRID*              16648               09.7941050236E+017.5021024636E+01+
*       5.0223686738E+02               0
GRID*              16649               09.7245366642E+017.5574725319E+01+
*       5.0275251448E+02               0
GRID*              16650               01.0409727609E+028.0576775033E+01+
*       5.7492936329E+02               0
GRID*              16651               01.0442512096E+027.9713504951E+01+
*       5.7443648048E+02               0
GRID*              16652               09.6196582347E+017.8854214707E+01+
*       4.4398540061E+02               0
GRID*              16653               09.6196581467E+017.8854541035E+01+
*       4.4295466645E+02               0
GRID*              16654               09.6197943082E+017.7964823198E+01+
*       4.4346991313E+02               0
GRID*              16655               01.0459252463E+027.8849712201E+01+
*       5.6873384491E+02               0
GRID*              16656               01.0459616022E+027.7962359877E+01+
*       5.6821732417E+02               0
GRID*              16657               01.0459254393E+027.8849718607E+01+
*       5.6770282951E+02               0
GRID*              16658               01.0442320395E+027.9711301587E+01+
*       5.6823705419E+02               0
GRID*              16659               01.0442784569E+027.9715955424E+01+
*       4.8574205205E+02               0
GRID*              16660               01.0359278651E+028.1233559691E+01+
*       5.6614587156E+02               0
GRID*              16661               01.0408975606E+028.0586421280E+01+
*       5.6563804445E+02               0
GRID*              16662               01.0409737659E+028.0577025454E+01+
*       5.6666844791E+02               0
GRID*              16663               01.0442317912E+027.9711366850E+01+
*       5.6926892073E+02               0
GRID*              16664               01.0442378219E+027.9711971306E+01+
*       5.7030218033E+02               0
GRID*              16665               01.0459628078E+027.7962894249E+01+
*       5.6924916384E+02               0
GRID*              16666               09.6702645859E+018.0584795794E+01+
*       4.4295724173E+02               0
GRID*              16667               01.0442261264E+027.9710554238E+01+
*       5.6720450838E+02               0
GRID*              16668               01.0039713287E+027.4165916443E+01+
*       5.3780176725E+02               0
GRID*              16669               01.0039713287E+027.4165916443E+01+
*       5.3883269509E+02               0
GRID*              16670               09.6756771575E+017.6305477065E+01+
*       5.3728892435E+02               0
GRID*              16671               09.7244789920E+017.5575445992E+01+
*       5.3677300945E+02               0
GRID*              16672               01.0039713287E+027.4165916443E+01+
*       5.3677083942E+02               0
GRID*              16673               09.7940503395E+017.5021369476E+01+
*       5.3728804610E+02               0
GRID*              16674               01.0039713287E+027.4165916443E+01+
*       5.5120382911E+02               0
GRID*              16675               01.0354877951E+027.5574541109E+01+
*       4.4192523100E+02               0
GRID*              16676               01.0354894632E+027.5574749888E+01+
*       4.4295619781E+02               0
GRID*              16677               01.0039713287E+027.4165916443E+01+
*       5.5532754045E+02               0
GRID*              16678               01.0039713287E+027.4165916443E+01+
*       5.5635846828E+02               0
GRID*              16679               09.9536749243E+017.4336949654E+01+
*       5.5584314426E+02               0
GRID*              16680               01.0354890690E+027.5574710529E+01+
*       4.4398690669E+02               0
GRID*              16681               01.0403731246E+027.6304541475E+01+
*       4.4347089655E+02               0
GRID*              16682               01.0125701373E+027.4336740541E+01+
*       5.5584258126E+02               0
GRID*              16683               09.8669939783E+017.4534584460E+01+
*       5.5635957856E+02               0
GRID*              16684               09.8669780669E+017.4534650312E+01+
*       5.5532861685E+02               0
GRID*              16685               09.6365722224E+017.9712978097E+01+
*       4.5686804792E+02               0
GRID*              16686               09.8656392128E+018.2295749548E+01+
*       4.8369217300E+02               0
GRID*              16687               09.7907214457E+018.1885571599E+01+
*       4.8419426276E+02               0
GRID*              16688               09.8656073222E+018.2295564825E+01+
*       4.8469607978E+02               0
GRID*              16689               09.7940283934E+017.5021558770E+01+
*       5.5687522001E+02               0
GRID*              16690               09.9536749243E+017.4336949654E+01+
*       5.5481221643E+02               0
GRID*              16691               09.6198170577E+017.7965893533E+01+
*       4.9399024128E+02               0
GRID*              16692               09.6198221740E+017.7965723490E+01+
*       4.9502137639E+02               0
GRID*              16693               01.0441989479E+027.9708677117E+01+
*       5.4451280777E+02               0
GRID*              16694               09.6200017285E+017.8856010747E+01+
*       5.4708322049E+02               0
GRID*              16695               09.6370101984E+017.9716843523E+01+
*       5.4657552404E+02               0
GRID*              16696               09.6373591728E+017.9715484929E+01+
*       5.4760691492E+02               0
GRID*              16697               01.0288644919E+028.1885941663E+01+
*       4.8831882878E+02               0
GRID*              16698               01.0408519910E+028.0581055067E+01+
*       5.0378349908E+02               0
GRID*              16699               01.0409289179E+028.0581795903E+01+
*       5.0481725785E+02               0
GRID*              16700               01.0039831355E+028.2668364872E+01+
*       5.0122282911E+02               0
GRID*              16701               09.9522217044E+018.2581722330E+01+
*       5.0172349097E+02               0
GRID*              16702               01.0039848071E+028.2668328798E+01+
*       5.0222426156E+02               0
GRID*              16703               01.0409348011E+028.0581028943E+01+
*       5.0687101003E+02               0
GRID*              16704               01.0357954341E+028.1240290317E+01+
*       5.0739757411E+02               0
GRID*              16705               01.0408567677E+028.0584319029E+01+
*       5.0790611354E+02               0
GRID*              16706               01.0409363795E+028.0581470517E+01+
*       5.0893122274E+02               0
GRID*              16707               01.0442812730E+027.9713937181E+01+
*       5.0842096624E+02               0
GRID*              16708               09.8670423580E+017.4534356274E+01+
*       5.2027541682E+02               0
GRID*              16709               09.7940961983E+017.5021119922E+01+
*       5.2079090937E+02               0
GRID*              16710               01.0408509382E+028.0585163654E+01+
*       5.0172455402E+02               0
GRID*              16711               01.0288727395E+028.1885427076E+01+
*       5.0069222510E+02               0
GRID*              16712               01.0288934470E+028.1884430157E+01+
*       5.3780508748E+02               0
GRID*              16713               01.0358137720E+028.1238074680E+01+
*       5.3832890841E+02               0
GRID*              16714               01.0354825222E+027.5574055876E+01+
*       5.0996537554E+02               0
GRID*              16715               01.0459609771E+027.7963664609E+01+
*       5.0429851564E+02               0
GRID*              16716               01.0403672797E+027.6303239913E+01+
*       5.0532857399E+02               0
GRID*              16717               09.6701900012E+018.0583833208E+01+
*       5.0275705026E+02               0
GRID*              16718               01.0459770323E+027.8852879545E+01+
*       5.0584329119E+02               0
GRID*              16719               01.0442823159E+027.9714235118E+01+
*       5.0636041587E+02               0
GRID*              16720               09.6198234413E+017.7966389509E+01+
*       5.0223842364E+02               0
GRID*              16721               01.0127499737E+028.2580873463E+01+
*       5.0378424753E+02               0
GRID*              16722               01.0127646153E+028.2580588195E+01+
*       5.6770399263E+02               0
GRID*              16723               01.0459584286E+027.7962470015E+01+
*       5.3522648716E+02               0
GRID*              16724               01.0442288581E+027.7103108645E+01+
*       5.3471059187E+02               0
GRID*              16725               01.0442357112E+027.7103670134E+01+
*       5.2336819527E+02               0
GRID*              16726               01.0459600858E+027.7962965870E+01+
*       5.2388368186E+02               0
GRID*              16727               01.0459443973E+027.8851881286E+01+
*       5.2439881803E+02               0
GRID*              16728               01.0442368347E+027.7103650071E+01+
*       5.2646173734E+02               0
GRID*              16729               01.0403684210E+027.6303064372E+01+
*       5.2491494821E+02               0
GRID*              16730               01.0212355945E+027.4534247119E+01+
*       5.2130649125E+02               0
GRID*              16731               09.7937114107E+018.1822239795E+01+
*       4.9141267928E+02               0
GRID*              16732               09.7908113615E+018.1886422768E+01+
*       4.9244377992E+02               0
GRID*              16733               09.7205839622E+018.1238127108E+01+
*       4.9191817104E+02               0
GRID*              16734               09.8656620962E+018.2295853524E+01+
*       4.8575443593E+02               0
GRID*              16735               01.0442131313E+027.9709618021E+01+
*       5.3523156998E+02               0
GRID*              16736               09.7247209556E+017.5572614586E+01+
*       4.5841695759E+02               0
GRID*              16737               09.6370801134E+017.7103114616E+01+
*       4.5532455490E+02               0
GRID*              16738               09.6198154973E+017.7963266400E+01+
*       4.5480844000E+02               0
GRID*              16739               09.6370696014E+017.7103367980E+01+
*       4.5429358699E+02               0
GRID*              16740               09.6198273684E+017.7962783521E+01+
*       4.5583854047E+02               0
GRID*              16741               09.6757186255E+017.6304315427E+01+
*       5.2697792566E+02               0
GRID*              16742               01.0125702455E+027.4336744983E+01+
*       5.6409000475E+02               0
GRID*              16743               01.0125702455E+027.4336744983E+01+
*       5.6305907691E+02               0
GRID*              16744               01.0212352978E+027.4534223252E+01+
*       5.6357575307E+02               0
GRID*              16745               09.6756266345E+017.6305589113E+01+
*       5.5275217682E+02               0
GRID*              16746               09.6756212336E+017.6305721465E+01+
*       5.5172139730E+02               0
GRID*              16747               09.6370049465E+017.7106717121E+01+
*       5.5223766738E+02               0
GRID*              16748               09.6196221149E+017.8852337789E+01+
*       4.7491440103E+02               0
GRID*              16749               01.0040015788E+028.2668304294E+01+
*       5.6720294757E+02               0
GRID*              16750               01.0127013058E+028.2558131623E+01+
*       4.7594532451E+02               0
GRID*              16751               01.0127147696E+028.2581773779E+01+
*       4.7697638539E+02               0
GRID*              16752               01.0039511138E+028.2668312000E+01+
*       4.7747744675E+02               0
GRID*              16753               09.9518655996E+018.2580838413E+01+
*       4.7697634487E+02               0
GRID*              16754               01.0442339678E+027.7103139090E+01+
*       5.5223665102E+02               0
GRID*              16755               01.0458970153E+027.8848314546E+01+
*       5.3883542267E+02               0
GRID*              16756               09.7905660914E+018.1884304673E+01+
*       4.4913982374E+02               0
GRID*              16757               01.0127777738E+028.2580232651E+01+
*       5.5326954798E+02               0
GRID*              16758               01.0040136493E+028.2668307324E+01+
*       5.5276884379E+02               0
GRID*              16759               09.7906050859E+018.1884414003E+01+
*       4.4707855031E+02               0
GRID*              16760               01.0459368714E+027.8850896937E+01+
*       5.7286200906E+02               0
GRID*              16761               01.0046353440E+028.2667801461E+01+
*       5.8578800038E+02               0
GRID*              16762               01.0135139678E+028.2555488022E+01+
*       5.8526774091E+02               0
GRID*              16763               09.6377339174E+017.9714025870E+01+
*       5.5173193118E+02               0
GRID*              16764               01.0403705362E+027.6304104980E+01+
*       4.4140916971E+02               0
GRID*              16765               01.0403710551E+027.6304224381E+01+
*       4.4037842964E+02               0
GRID*              16766               01.0442451340E+027.7106068790E+01+
*       4.4089415956E+02               0
GRID*              16767               01.0459644335E+027.7966750499E+01+
*       4.4140911289E+02               0
GRID*              16768               01.0438892499E+027.9833794338E+01+
*       4.2161125333E+02               0
GRID*              16769               01.0397075022E+028.0623153338E+01+
*       4.2435693675E+02               0
GRID*              16770               01.0213038074E+027.4538034801E+01+
*       4.2334853216E+02               0
GRID*              16771               01.0214147563E+027.4543512362E+01+
*       4.2230123319E+02               0
GRID*              16772               09.9520091046E+018.2581182134E+01+
*       4.3573729338E+02               0
GRID*              16773               01.0039619001E+028.2668391036E+01+
*       4.3623768684E+02               0
GRID*              16774               01.0288354282E+028.1887914398E+01+
*       4.6562934882E+02               0
GRID*              16775               01.0358818352E+028.1240284253E+01+
*       4.6510442856E+02               0
GRID*              16776               09.6765588434E+017.6351956493E+01+
*       5.9909182692E+02               0
GRID*              16777               09.7226448106E+017.5586524597E+01+
*       5.9958028145E+02               0
GRID*              16778               09.6765463813E+017.6352351352E+01+
*       6.0005582058E+02               0
GRID*              16779               09.6384637264E+017.7018640524E+01+
*       5.9859419921E+02               0
GRID*              16780               09.7227632957E+017.5585232851E+01+
*       6.0060413990E+02               0
GRID*              16781               01.0403613748E+027.6302204692E+01+
*       5.4450484342E+02               0
GRID*              16782               01.0442338452E+027.7103034508E+01+
*       5.4502085189E+02               0
GRID*              16783               09.6734824138E+017.6388358855E+01+
*       5.9815510021E+02               0
GRID*              16784               09.6895810555E+018.0811819713E+01+
*       6.0553148113E+02               0
GRID*              16785               09.6934880938E+018.0860480515E+01+
*       6.0659934280E+02               0
GRID*              16786               09.8276595432E+018.2080772564E+01+
*       6.0548646685E+02               0
GRID*              16787               09.8293670580E+018.2092492265E+01+
*       6.0656381375E+02               0
GRID*              16788               09.9161712500E+018.2446205711E+01+
*       6.0601331056E+02               0
GRID*              16789               09.9133827445E+018.2441037622E+01+
*       6.0493070791E+02               0
GRID*              16790               01.0003015771E+028.2630484999E+01+
*       6.0547035343E+02               0
GRID*              16791               09.8234319045E+018.2060630770E+01+
*       6.0442082999E+02               0
GRID*              16792               01.0409013688E+028.0588062687E+01+
*       4.6562742880E+02               0
GRID*              16793               01.0408240067E+028.0590664558E+01+
*       4.6460117105E+02               0
GRID*              16794               09.9091551058E+018.2420895828E+01+
*       6.0386507105E+02               0
GRID*              16795               09.7576754447E+018.1542607190E+01+
*       6.0604618844E+02               0
GRID*              16796               01.0213376328E+028.2297526904E+01+
*       4.6613247860E+02               0
GRID*              16797               09.7831339926E+017.5133899629E+01+
*       6.0833645433E+02               0
GRID*              16798               09.7120919666E+017.5709806541E+01+
*       6.0881402568E+02               0
GRID*              16799               09.6349893961E+017.7124461105E+01+
*       5.9777148175E+02               0
GRID*              16800               09.9338481814E+018.2516632746E+01+
*       6.0919052625E+02               0
GRID*              16801               09.8470198917E+018.2166297957E+01+
*       6.0974000145E+02               0
GRID*              16802               09.9261976344E+018.2501832387E+01+
*       6.1014952806E+02               0
GRID*              16803               01.0404658674E+027.6402231444E+01+
*       6.0222795313E+02               0
GRID*              16804               01.0413837203E+027.6361646694E+01+
*       6.0119089150E+02               0
GRID*              16805               01.0040507486E+028.2668148433E+01+
*       5.7959524786E+02               0
GRID*              16806               09.6227447090E+017.8048129489E+01+
*       6.0194294831E+02               0
GRID*              16807               09.6175007085E+017.8876175677E+01+
*       6.0135666602E+02               0
GRID*              16808               01.0358670250E+027.5607434776E+01+
*       6.0064004358E+02               0
GRID*              16809               01.0081527131E+028.2670026861E+01+
*       4.1794359330E+02               0
GRID*              16810               01.0409014449E+028.0587396793E+01+
*       4.4501387565E+02               0
GRID*              16811               09.7203601730E+018.1237460367E+01+
*       4.4036592824E+02               0
GRID*              16812               01.0293096566E+028.1838158430E+01+
*       6.0994999387E+02               0
GRID*              16813               09.9520253367E+018.2557612665E+01+
*       4.4295462604E+02               0
GRID*              16814               09.8655742720E+018.2295340406E+01+
*       4.4245232821E+02               0
GRID*              16815               01.0409080414E+028.0586850843E+01+
*       4.7388024067E+02               0
GRID*              16816               01.0354831213E+027.5574137708E+01+
*       5.7182636392E+02               0
GRID*              16817               01.0006174596E+028.2629767491E+01+
*       6.0651032444E+02               0
GRID*              16818               09.9224150664E+018.2473777306E+01+
*       6.0706183938E+02               0
GRID*              16819               01.0013273503E+028.2626327641E+01+
*       6.0749615500E+02               0
GRID*              16820               09.6370728864E+017.7103241669E+01+
*       4.5223247855E+02               0
GRID*              16821               09.6758198488E+017.6302173873E+01+
*       4.5274767925E+02               0
GRID*              16822               09.6370704590E+017.7103299420E+01+
*       4.5326352388E+02               0
GRID*              16823               09.6758174213E+017.6302231624E+01+
*       4.5377872457E+02               0
GRID*              16824               01.0084532924E+028.2621497313E+01+
*       5.9965996553E+02               0
GRID*              16825               09.6198162636E+017.7963316418E+01+
*       4.5274736972E+02               0
GRID*              16826               09.7246883645E+017.5573047363E+01+
*       4.5326389476E+02               0
GRID*              16827               09.7246880296E+017.5573050703E+01+
*       4.5429490709E+02               0
GRID*              16828               09.6758193400E+017.6302207448E+01+
*       4.5480903787E+02               0
GRID*              16829               01.0409483137E+028.0579931687E+01+
*       5.2130730013E+02               0
GRID*              16830               01.0442601334E+027.9713019667E+01+
*       5.2182340956E+02               0
GRID*              16831               01.0408661167E+028.0583543673E+01+
*       5.2027118598E+02               0
GRID*              16832               01.0442598631E+027.9713084567E+01+
*       5.2079230972E+02               0
GRID*              16833               01.0354779409E+027.5573526971E+01+
*       5.5635945977E+02               0
GRID*              16834               01.0285253117E+027.5020284857E+01+
*       5.5687406481E+02               0
GRID*              16835               01.0285243812E+027.5020240389E+01+
*       5.5584308760E+02               0
GRID*              16836               01.0039497572E+028.2668394936E+01+
*       4.7647583844E+02               0
GRID*              16837               09.7911372646E+018.1888717225E+01+
*       5.3986733264E+02               0
GRID*              16838               09.7206425585E+018.1239107971E+01+
*       5.3934167905E+02               0
GRID*              16839               09.7214952787E+018.1242922838E+01+
*       5.4039147287E+02               0
GRID*              16840               09.7942004582E+017.5020146732E+01+
*       4.4965594761E+02               0
GRID*              16841               01.0354770694E+027.5573382882E+01+
*       5.3780325380E+02               0
GRID*              16842               01.0354776389E+027.5573454593E+01+
*       5.3677217464E+02               0
GRID*              16843               01.0403562775E+027.6302930167E+01+
*       5.3625690543E+02               0
GRID*              16844               01.0212333629E+027.4534144805E+01+
*       5.1305853367E+02               0
GRID*              16845               01.0212330879E+027.4534131593E+01+
*       5.1202756122E+02               0
GRID*              16846               01.0285256115E+027.5020378111E+01+
*       5.1254297944E+02               0
GRID*              16847               01.0354765512E+027.5573325344E+01+
*       5.4089625290E+02               0
GRID*              16848               01.0212336866E+027.4534154819E+01+
*       5.5635885507E+02               0
GRID*              16849               09.9520347897E+018.2581186396E+01+
*       4.8522527731E+02               0
GRID*              16850               01.0459718952E+027.8857611790E+01+
*       4.6356881603E+02               0
GRID*              16851               01.0459441905E+027.8851587895E+01+
*       5.2336768180E+02               0
GRID*              16852               01.0409029139E+028.0587906509E+01+
*       4.6356471278E+02               0
GRID*              16853               01.0442646855E+027.9719487896E+01+
*       4.6305295868E+02               0
GRID*              16854               09.8660171724E+018.2297479934E+01+
*       5.6717450566E+02               0
GRID*              16855               09.9525350825E+018.2558261073E+01+
*       5.6667242321E+02               0
GRID*              16856               09.8659551712E+018.2297158114E+01+
*       5.6617057271E+02               0
GRID*              16857               01.0442405773E+027.7105216571E+01+
*       4.7388378039E+02               0
GRID*              16858               01.0442416528E+027.7105486979E+01+
*       4.7491473367E+02               0
GRID*              16859               09.7203581958E+018.1237931946E+01+
*       5.5276473735E+02               0
GRID*              16860               01.0354890579E+027.5574763281E+01+
*       4.7182140899E+02               0
GRID*              16861               01.0354886348E+027.5574710510E+01+
*       4.7285271023E+02               0
GRID*              16862               09.8670355775E+017.4534400094E+01+
*       5.2955499728E+02               0
GRID*              16863               01.0442716140E+027.9716929718E+01+
*       4.8058624911E+02               0
GRID*              16864               01.0408422916E+028.0592276366E+01+
*       4.8110104688E+02               0
GRID*              16865               01.0459621308E+027.7961864414E+01+
*       5.5584434554E+02               0
GRID*              16866               01.0442331916E+027.7103027370E+01+
*       5.5532893759E+02               0
GRID*              16867               01.0039713287E+027.4165916443E+01+
*       5.6151310746E+02               0
GRID*              16868               09.9536756928E+017.4336946489E+01+
*       5.6202878928E+02               0
GRID*              16869               09.7939681876E+018.1823587353E+01+
*       5.6357897266E+02               0
GRID*              16870               09.8659956524E+018.2297336556E+01+
*       5.6410847174E+02               0
GRID*              16871               01.0358763458E+028.1238799583E+01+
*       4.8160658446E+02               0
GRID*              16872               09.6370186802E+017.7106260828E+01+
*       5.5429967750E+02               0
GRID*              16873               09.6756272126E+017.6305581743E+01+
*       5.5378327459E+02               0
GRID*              16874               09.7202689422E+018.1236746845E+01+
*       4.8472027135E+02               0
GRID*              16875               09.7936408777E+018.1821879148E+01+
*       4.8522321652E+02               0
GRID*              16876               09.6757813225E+017.6302692430E+01+
*       4.7749241774E+02               0
GRID*              16877               09.6196423571E+017.8854070961E+01+
*       4.8316222464E+02               0
GRID*              16878               01.0125693714E+027.4336708850E+01+
*       5.6202809730E+02               0
GRID*              16879               01.0212348852E+027.4534209543E+01+
*       5.6151373019E+02               0
GRID*              16880               09.9519983508E+018.2581093560E+01+
*       4.8316293601E+02               0
GRID*              16881               01.0354876009E+027.5574607324E+01+
*       4.7388383214E+02               0
GRID*              16882               01.0212344634E+027.4534179729E+01+
*       5.3986443234E+02               0
GRID*              16883               01.0125711861E+027.4336783917E+01+
*       5.4037938159E+02               0
GRID*              16884               01.0125717470E+027.4336807106E+01+
*       5.3934843677E+02               0
GRID*              16885               01.0212350242E+027.4534202918E+01+
*       5.3883348752E+02               0
GRID*              16886               01.0354872462E+027.5574582473E+01+
*       4.7079027522E+02               0
GRID*              16887               09.6701817647E+018.0583963576E+01+
*       5.1305480899E+02               0
GRID*              16888               01.0285278828E+027.5020654098E+01+
*       4.9398921868E+02               0
GRID*              16889               01.0285307488E+027.5020792186E+01+
*       4.9502009355E+02               0
GRID*              16890               01.0212338926E+027.4534156588E+01+
*       4.9450414928E+02               0
GRID*              16891               01.0212367585E+027.4534294676E+01+
*       4.9553502415E+02               0
GRID*              16892               09.9537045699E+017.4336827453E+01+
*       4.8574013260E+02               0
GRID*              16893               09.9537045699E+017.4336827453E+01+
*       4.8470920477E+02               0
GRID*              16894               01.0125701740E+027.4336741538E+01+
*       4.8677122116E+02               0
GRID*              16895               01.0039713287E+027.4165916443E+01+
*       4.8419351983E+02               0
GRID*              16896               09.7205764394E+018.1238025946E+01+
*       4.9090725691E+02               0
GRID*              16897               01.0285700333E+028.1822365377E+01+
*       4.8728973798E+02               0
GRID*              16898               09.6757053864E+017.6304178424E+01+
*       5.0223774650E+02               0
GRID*              16899               09.6756974335E+017.6304369302E+01+
*       5.0326851956E+02               0
GRID*              16900               01.0458913388E+027.8847901836E+01+
*       5.4399028721E+02               0
GRID*              16901               09.6366592624E+017.9715774698E+01+
*       4.9399150928E+02               0
GRID*              16902               09.6709951566E+018.0587179185E+01+
*       4.9347702669E+02               0
GRID*              16903               01.0212332951E+027.4534131863E+01+
*       4.9347321377E+02               0
GRID*              16904               01.0285273719E+027.5020603110E+01+
*       4.9295823744E+02               0
GRID*              16905               01.0403685886E+027.6303511772E+01+
*       4.9399033214E+02               0
GRID*              16906               01.0442392198E+027.7104703774E+01+
*       4.9450604332E+02               0
GRID*              16907               01.0039713287E+027.4165916443E+01+
*       4.7697702498E+02               0
GRID*              16908               01.0358426898E+028.1237378947E+01+
*       5.4039125235E+02               0
GRID*              16909               01.0354840013E+027.5574174381E+01+
*       4.9347422305E+02               0
GRID*              16910               09.9536969938E+017.4336858789E+01+
*       4.8677113112E+02               0
GRID*              16911               09.6710171221E+018.0585859353E+01+
*       5.3677187852E+02               0
GRID*              16912               09.6366886242E+017.9717121962E+01+
*       5.3729514218E+02               0
GRID*              16913               09.6701928943E+018.0582305275E+01+
*       5.3780786824E+02               0
GRID*              16914               09.6366934885E+017.9717235503E+01+
*       5.3832609334E+02               0
GRID*              16915               09.7206156312E+018.1238966604E+01+
*       5.3833138883E+02               0
GRID*              16916               09.6710023523E+018.0590733584E+01+
*       5.3883541796E+02               0
GRID*              16917               09.6370091777E+017.7106631334E+01+
*       5.6048561036E+02               0
GRID*              16918               09.9520914369E+018.2557569156E+01+
*       4.8213175363E+02               0
GRID*              16919               01.0403673221E+027.6303353350E+01+
*       4.9295917132E+02               0
GRID*              16920               01.0354852678E+027.5574332804E+01+
*       4.9450538387E+02               0
GRID*              16921               01.0125697639E+027.4336724983E+01+
*       5.2388408510E+02               0
GRID*              16922               09.9524073631E+018.2557593815E+01+
*       5.1924224252E+02               0
GRID*              16923               09.8658473878E+018.2296716920E+01+
*       5.1874073429E+02               0
GRID*              16924               09.8658043655E+018.2296497074E+01+
*       5.1974447087E+02               0
GRID*              16925               01.0403565974E+027.6302627171E+01+
*       5.3935017366E+02               0
GRID*              16926               01.0354779527E+027.5573470996E+01+
*       5.3883421252E+02               0
GRID*              16927               01.0354777392E+027.5573443847E+01+
*       5.3986533860E+02               0
GRID*              16928               01.0125704713E+027.4336753860E+01+
*       4.9501885174E+02               0
GRID*              16929               09.6196563806E+017.8854139644E+01+
*       4.4501650180E+02               0
GRID*              16930               01.0127472743E+028.2557493729E+01+
*       5.2749378875E+02               0
GRID*              16931               09.8671441637E+017.4533902307E+01+
*       4.6048047225E+02               0
GRID*              16932               09.7942400935E+017.5019894545E+01+
*       4.5996431186E+02               0
GRID*              16933               09.8671282694E+017.4533968008E+01+
*       4.5944954745E+02               0
GRID*              16934               01.0442643667E+027.9719642607E+01+
*       4.6202222008E+02               0
GRID*              16935               01.0459719661E+027.8857880682E+01+
*       4.6253725005E+02               0
GRID*              16936               01.0459716462E+027.8858035865E+01+
*       4.6150651979E+02               0
GRID*              16937               09.6757946975E+017.6302484024E+01+
*       4.4965552043E+02               0
GRID*              16938               01.0359062033E+028.1235620014E+01+
*       5.2183111094E+02               0
GRID*              16939               01.0442762852E+027.9712202477E+01+
*       5.7857687854E+02               0
GRID*              16940               01.0215297245E+027.4547634547E+01+
*       5.9036536047E+02               0
GRID*              16941               09.9516873252E+018.2580586933E+01+
*       4.6872444969E+02               0
GRID*              16942               01.0404851843E+027.6269992278E+01+
*       6.0011147553E+02               0
GRID*              16943               09.6370581543E+017.7103833404E+01+
*       4.4914036591E+02               0
GRID*              16944               01.0403761190E+027.6304958595E+01+
*       4.5274651526E+02               0
GRID*              16945               09.6232479242E+017.9215973077E+01+
*       6.0983645136E+02               0
GRID*              16946               09.7247368917E+017.5572449477E+01+
*       4.6150963111E+02               0
GRID*              16947               09.7942395147E+017.5019900315E+01+
*       4.6099529056E+02               0
GRID*              16948               01.0212801863E+027.4536396472E+01+
*       4.2852081345E+02               0
GRID*              16949               01.0212656921E+027.4535797778E+01+
*       4.2748818497E+02               0
GRID*              16950               09.6359150104E+017.7155425988E+01+
*       5.8524546763E+02               0
GRID*              16951               09.6204828795E+017.8021879580E+01+
*       5.8472861036E+02               0
GRID*              16952               09.6364971646E+017.7140702716E+01+
*       5.8420912819E+02               0
GRID*              16953               09.7238113496E+017.5581850465E+01+
*       4.2955529523E+02               0
GRID*              16954               09.6742169666E+017.6336543575E+01+
*       5.8471958033E+02               0
GRID*              16955               09.6204438046E+017.8001751844E+01+
*       5.8369321222E+02               0
GRID*              16956               09.6202492354E+017.8025554906E+01+
*       5.8575879024E+02               0
GRID*              16957               09.8669675917E+017.4534698045E+01+
*       5.6151438103E+02               0
GRID*              16958               09.7940142383E+017.5021601892E+01+
*       5.6203009446E+02               0
GRID*              16959               09.9518355870E+018.2557114642E+01+
*       4.5326039421E+02               0
GRID*              16960               01.0285361300E+027.5021232632E+01+
*       4.4450162467E+02               0
GRID*              16961               09.7910994018E+018.1888770494E+01+
*       5.6461068027E+02               0
GRID*              16962               09.6740785916E+017.6352912723E+01+
*       4.2491370959E+02               0
GRID*              16963               01.0206863811E+028.2326028707E+01+
*       4.2700325108E+02               0
GRID*              16964               01.0280625129E+028.1945096667E+01+
*       4.2646461256E+02               0
GRID*              16965               01.0200315164E+028.2353974900E+01+
*       4.2605503931E+02               0
GRID*              16966               09.6233115682E+017.9258566671E+01+
*       4.2133211547E+02               0
GRID*              16967               01.0361190379E+028.1230062660E+01+
*       4.1704021593E+02               0
GRID*              16968               01.0040139299E+028.2668302866E+01+
*       5.5483067600E+02               0
GRID*              16969               01.0288945902E+028.1883992337E+01+
*       5.5223901099E+02               0
GRID*              16970               09.7244652059E+017.5575609331E+01+
*       5.3986580956E+02               0
GRID*              16971               09.9536050941E+017.4337238908E+01+
*       5.7852373061E+02               0
GRID*              16972               09.7244681530E+017.5575572379E+01+
*       5.4089687283E+02               0
GRID*              16973               01.0039713287E+027.4165916443E+01+
*       5.5429661261E+02               0
GRID*              16974               01.0039713287E+027.4165916443E+01+
*       5.5326568478E+02               0
GRID*              16975               09.9536816337E+017.4336921878E+01+
*       5.5378129717E+02               0
GRID*              16976               01.0039713287E+027.4165916443E+01+
*       5.5223475694E+02               0
GRID*              16977               01.0214633338E+027.4545509822E+01+
*       4.2125129359E+02               0
GRID*              16978               09.6373620077E+017.9715537926E+01+
*       5.4863789968E+02               0
GRID*              16979               09.6700165076E+018.0583760323E+01+
*       5.4811698541E+02               0
GRID*              16980               09.6756207158E+017.6305633108E+01+
*       5.4965957114E+02               0
GRID*              16981               09.6370055121E+017.7106770573E+01+
*       5.4914463976E+02               0
GRID*              16982               01.0408968402E+028.0589355944E+01+
*       4.3264122917E+02               0
GRID*              16983               01.0442558227E+027.9722255739E+01+
*       4.3212810120E+02               0
GRID*              16984               09.6366597757E+017.9715874780E+01+
*       4.4243895526E+02               0
GRID*              16985               09.6196581149E+017.8854518359E+01+
*       4.4192375159E+02               0
GRID*              16986               01.0459175741E+027.8849813856E+01+
*       5.3058639361E+02               0
GRID*              16987               01.0459176908E+027.8849933178E+01+
*       5.3161760105E+02               0
GRID*              16988               01.0459597191E+027.7963140974E+01+
*       5.3110206771E+02               0
GRID*              16989               01.0442366601E+027.7103757363E+01+
*       5.2852395251E+02               0
GRID*              16990               09.9536745877E+017.4336951225E+01+
*       5.1872974398E+02               0
GRID*              16991               01.0039713287E+027.4165916443E+01+
*       5.3986362292E+02               0
GRID*              16992               09.9662769379E+018.2555953947E+01+
*       5.8730068037E+02               0
GRID*              16993               01.0051047974E+028.2666952077E+01+
*       5.8678015013E+02               0
GRID*              16994               01.0354768369E+027.5573346181E+01+
*       5.4398929550E+02               0
GRID*              16995               01.0403620401E+027.6302366443E+01+
*       5.4347415450E+02               0
GRID*              16996               01.0403629015E+027.6302474452E+01+
*       5.4244298547E+02               0
GRID*              16997               09.9536723077E+017.4336960728E+01+
*       5.1460626277E+02               0
GRID*              16998               09.8670318617E+017.4534396741E+01+
*       5.1512073155E+02               0
GRID*              16999               01.0039713287E+027.4165916443E+01+
*       5.1409042704E+02               0
GRID*              17000               01.0039713287E+027.4165916443E+01+
*       5.1305949921E+02               0
GRID*              17001               01.0125677808E+027.4336642802E+01+
*       5.1357482896E+02               0
GRID*              17002               01.0057381180E+028.2664420941E+01+
*       5.8881214404E+02               0
GRID*              17003               01.0090245073E+028.2610591397E+01+
*       6.0274313678E+02               0
GRID*              17004               01.0039713287E+027.4165916443E+01+
*       5.1512135488E+02               0
GRID*              17005               09.9536866802E+017.4336901218E+01+
*       5.1563706863E+02               0
GRID*              17006               01.0285819152E+028.1821825735E+01+
*       5.0172483791E+02               0
GRID*              17007               01.0359194573E+028.1236180954E+01+
*       5.0222787351E+02               0
GRID*              17008               01.0285280624E+027.5020528865E+01+
*       5.0326687419E+02               0
GRID*              17009               01.0354840156E+027.5574242123E+01+
*       5.0378198168E+02               0
GRID*              17010               01.0354848235E+027.5574322714E+01+
*       5.0481274183E+02               0
GRID*              17011               01.0285288702E+027.5020609457E+01+
*       5.0429763435E+02               0
GRID*              17012               01.0442863162E+027.9714855292E+01+
*       5.0120886961E+02               0
GRID*              17013               01.0213825080E+028.2295595082E+01+
*       5.0119487616E+02               0
GRID*              17014               01.0442850224E+027.9714670382E+01+
*       5.0223903999E+02               0
GRID*              17015               01.0409291475E+028.0582475514E+01+
*       5.0274977353E+02               0
GRID*              17016               01.0039713287E+027.4165916443E+01+
*       6.0171929302E+02               0
GRID*              17017               01.0285276182E+027.5020549397E+01+
*       5.0532817033E+02               0
GRID*              17018               01.0354835282E+027.5574160587E+01+
*       5.0584293927E+02               0
GRID*              17019               01.0212345578E+027.4534204080E+01+
*       5.0275086605E+02               0
GRID*              17020               01.0403659845E+027.6303077786E+01+
*       5.0635877142E+02               0
GRID*              17021               01.0354842869E+027.5574283049E+01+
*       5.2336819853E+02               0
GRID*              17022               09.6275261502E+017.7393565065E+01+
*       6.1171690445E+02               0
GRID*              17023               01.0459600333E+027.7962985021E+01+
*       5.2078957450E+02               0
GRID*              17024               01.0459598617E+027.7962975122E+01+
*       5.1975861658E+02               0
GRID*              17025               01.0459515275E+027.8851897962E+01+
*       5.2027413126E+02               0
GRID*              17026               01.0122761062E+027.4346516339E+01+
*       6.0016342700E+02               0
GRID*              17027               01.0215511454E+027.4546608216E+01+
*       5.9966323169E+02               0
GRID*              17028               01.0442522184E+027.9712740733E+01+
*       5.2388633546E+02               0
GRID*              17029               01.0442455733E+027.9712098714E+01+
*       5.2491804207E+02               0
GRID*              17030               01.0403701453E+027.6303280550E+01+
*       5.2388363090E+02               0
GRID*              17031               09.6663300249E+017.6541267686E+01+
*       6.0933397242E+02               0
GRID*              17032               01.0408725474E+028.0588478612E+01+
*       5.2233569047E+02               0
GRID*              17033               01.0442523889E+027.9712698471E+01+
*       5.2285509590E+02               0
GRID*              17034               09.7221343075E+017.5592533614E+01+
*       6.0159575519E+02               0
GRID*              17035               01.0354838403E+027.5574238499E+01+
*       5.2439916744E+02               0
GRID*              17036               09.6232455077E+017.8105486945E+01+
*       6.0300212503E+02               0
GRID*              17037               09.6219065015E+017.8153511755E+01+
*       6.0404222741E+02               0
GRID*              17038               01.0354822277E+027.5574034129E+01+
*       5.1305752186E+02               0
GRID*              17039               01.0125694060E+027.4336710123E+01+
*       5.1976033776E+02               0
GRID*              17040               01.0039713287E+027.4165916443E+01+
*       5.1924506622E+02               0
GRID*              17041               01.0125699430E+027.4336732290E+01+
*       5.1872942571E+02               0
GRID*              17042               09.8651472142E+018.2221164622E+01+
*       6.1078529766E+02               0
GRID*              17043               01.0275940069E+028.1978875884E+01+
*       6.0887561824E+02               0
GRID*              17044               09.6757290948E+017.6303631266E+01+
*       4.9192727032E+02               0
GRID*              17045               09.9536969531E+017.4336858945E+01+
*       4.9295711344E+02               0
GRID*              17046               01.0270382672E+028.1958785791E+01+
*       6.0692871466E+02               0
GRID*              17047               01.0187877059E+028.2375000591E+01+
*       6.0751980399E+02               0
GRID*              17048               01.0277278427E+028.1901234668E+01+
*       6.0801278836E+02               0
GRID*              17049               09.6370363824E+017.7104894700E+01+
*       4.9244307948E+02               0
GRID*              17050               09.9536910171E+017.4336883482E+01+
*       4.9811194324E+02               0
GRID*              17051               09.8670268374E+017.4534432633E+01+
*       4.9862774671E+02               0
GRID*              17052               09.8670446203E+017.4534346987E+01+
*       4.9759681702E+02               0
GRID*              17053               09.9536796766E+017.4336930388E+01+
*       4.9914286335E+02               0
GRID*              17054               01.0039713287E+027.4165916443E+01+
*       4.9759558168E+02               0
GRID*              17055               09.6224552037E+017.9184256524E+01+
*       6.0875118809E+02               0
GRID*              17056               09.6540376154E+018.0075705837E+01+
*       6.0822809041E+02               0
GRID*              17057               01.0039713287E+027.4165916443E+01+
*       4.9656465385E+02               0
GRID*              17058               01.0125695070E+027.4336713981E+01+
*       4.9811168349E+02               0
GRID*              17059               01.0125695070E+027.4336713981E+01+
*       4.9708075566E+02               0
GRID*              17060               01.0039713287E+027.4165916443E+01+
*       5.0068836519E+02               0
GRID*              17061               09.9536938958E+017.4336871546E+01+
*       5.0120483881E+02               0
GRID*              17062               01.0194452590E+028.2409801767E+01+
*       6.0837127490E+02               0
GRID*              17063               09.9536796766E+017.4336930388E+01+
*       5.0017379118E+02               0
GRID*              17064               09.8670476539E+017.4534334659E+01+
*       5.0172066099E+02               0
GRID*              17065               09.6180015073E+017.8933533132E+01+
*       6.0241584274E+02               0
GRID*              17066               01.0357508398E+028.1245190813E+01+
*       4.5996631505E+02               0
GRID*              17067               09.8652535091E+018.2293968351E+01+
*       4.5788382361E+02               0
GRID*              17068               09.9517642293E+018.2556807055E+01+
*       4.5738166722E+02               0
GRID*              17069               01.0039268551E+028.2668360769E+01+
*       4.5791120441E+02               0
GRID*              17070               01.0039300554E+028.2668374834E+01+
*       4.5685189004E+02               0
GRID*              17071               09.6209649056E+017.8281296439E+01+
*       6.0825681866E+02               0
GRID*              17072               09.6158193769E+017.8717935387E+01+
*       6.0037136645E+02               0
GRID*              17073               09.9855520628E+018.2636186269E+01+
*       6.1521200592E+02               0
GRID*              17074               09.6210269183E+017.8286194659E+01+
*       6.0930171211E+02               0
GRID*              17075               09.7200968798E+018.1234746097E+01+
*       4.5790828693E+02               0
GRID*              17076               09.6330610178E+017.7188452222E+01+
*       6.0356894646E+02               0
GRID*              17077               09.6339999024E+017.7160005989E+01+
*       6.0252982322E+02               0
GRID*              17078               09.6731521492E+017.6411855017E+01+
*       6.0308708617E+02               0
GRID*              17079               09.6198141943E+017.7963867173E+01+
*       4.7646138892E+02               0
GRID*              17080               09.6198190546E+017.7963565247E+01+
*       4.7543035567E+02               0
GRID*              17081               09.6370704025E+017.7103570201E+01+
*       4.7594546810E+02               0
GRID*              17082               09.6370655421E+017.7103872127E+01+
*       4.7697650135E+02               0
GRID*              17083               01.0217754600E+028.2274299472E+01+
*       6.1542748781E+02               0
GRID*              17084               09.9517885877E+018.2556703809E+01+
*       4.6769318838E+02               0
GRID*              17085               09.9516639349E+018.2580552674E+01+
*       4.6666124493E+02               0
GRID*              17086               01.0039299628E+028.2668318266E+01+
*       4.6716295091E+02               0
GRID*              17087               01.0039713287E+027.4165916443E+01+
*       4.8728630333E+02               0
GRID*              17088               09.9423217264E+018.2559079921E+01+
*       4.2095783869E+02               0
GRID*              17089               01.0264087690E+028.1960065247E+01+
*       4.2227371795E+02               0
GRID*              17090               01.0251576084E+028.2132135521E+01+
*       4.2132329948E+02               0
GRID*              17091               01.0185508280E+028.2453218859E+01+
*       4.2169367151E+02               0
GRID*              17092               09.9596378938E+018.2598165054E+01+
*       4.1990318710E+02               0
GRID*              17093               01.0039713287E+027.4165916443E+01+
*       4.2130692189E+02               0
GRID*              17094               01.0217265325E+027.4558848101E+01+
*       4.2015771630E+02               0
GRID*              17095               01.0039713287E+027.4165916443E+01+
*       4.2233784973E+02               0
GRID*              17096               01.0125032692E+027.4333987300E+01+
*       4.2284075763E+02               0
GRID*              17097               01.0125518467E+027.4335984761E+01+
*       4.2179081804E+02               0
GRID*              17098               01.0039713287E+027.4165916443E+01+
*       4.2749248890E+02               0
GRID*              17099               09.9530404905E+017.4339586820E+01+
*       4.2697860241E+02               0
GRID*              17100               01.0125537009E+027.4336061243E+01+
*       4.2800502953E+02               0
GRID*              17101               01.0039713287E+027.4165916443E+01+
*       4.2336877756E+02               0
GRID*              17102               01.0125032692E+027.4333987300E+01+
*       4.2387168547E+02               0
GRID*              17103               01.0347464166E+028.1362344437E+01+
*       4.2490771703E+02               0
GRID*              17104               01.0340778413E+028.1404006118E+01+
*       4.2385484125E+02               0
GRID*              17105               09.8653246187E+017.4541349765E+01+
*       4.2543122457E+02               0
GRID*              17106               09.8651485096E+017.4542192996E+01+
*       4.2646468887E+02               0
GRID*              17107               09.9523110478E+018.2584950737E+01+
*       4.2754767286E+02               0
GRID*              17108               01.0028310025E+028.2696296234E+01+
*       6.1051095525E+02               0
GRID*              17109               09.9443469348E+018.2556750759E+01+
*       6.1119761600E+02               0
GRID*              17110               01.0127148447E+028.2557814103E+01+
*       4.3676863561E+02               0
GRID*              17111               09.6196556318E+017.8864502910E+01+
*       4.3161726932E+02               0
GRID*              17112               09.6369065571E+017.9721740492E+01+
*       4.3213099187E+02               0
GRID*              17113               09.8830234845E+018.2364400031E+01+
*       6.1521485204E+02               0
GRID*              17114               09.7887972880E+018.1868078445E+01+
*       6.1530368639E+02               0
GRID*              17115               09.6197885159E+017.7965027508E+01+
*       4.4140787084E+02               0
GRID*              17116               09.6368588274E+017.9719622292E+01+
*       4.3109722369E+02               0
GRID*              17117               09.6636972395E+017.6393007230E+01+
*       4.1773569934E+02               0
GRID*              17118               09.7924473407E+017.5039618746E+01+
*       4.2594875923E+02               0
GRID*              17119               09.9983948926E+018.2625503544E+01+
*       6.0332293473E+02               0
GRID*              17120               09.6351948690E+017.7137127965E+01+
*       4.1744957487E+02               0
GRID*              17121               09.8595956931E+017.4566670824E+01+
*       6.0784410933E+02               0
GRID*              17122               09.8585444449E+017.4571736596E+01+
*       6.0888474092E+02               0
GRID*              17123               09.9459120021E+017.4370797560E+01+
*       6.0838399771E+02               0
GRID*              17124               09.8424396481E+017.4649080904E+01+
*       4.1678683866E+02               0
GRID*              17125               09.6262353632E+017.7433872605E+01+
*       4.1680942091E+02               0
GRID*              17126               09.6560999294E+017.6618918240E+01+
*       4.1679243792E+02               0
GRID*              17127               09.7001780486E+017.5840826224E+01+
*       4.1709829240E+02               0
GRID*              17128               01.0270581232E+028.2031420315E+01+
*       4.2438895608E+02               0
GRID*              17129               01.0266445672E+028.1939241827E+01+
*       4.2340111165E+02               0
GRID*              17130               01.0271398380E+028.1906444680E+01+
*       4.2552255283E+02               0
GRID*              17131               01.0127088282E+028.2557824034E+01+
*       4.4089303034E+02               0
GRID*              17132               01.0285369344E+028.1824948883E+01+
*       4.5635085191E+02               0
GRID*              17133               09.6367694049E+017.9718435651E+01+
*       4.3315986157E+02               0
GRID*              17134               09.6366031542E+017.9714157202E+01+
*       4.5171628549E+02               0
GRID*              17135               09.6365977564E+017.9713926476E+01+
*       4.5274624692E+02               0
GRID*              17136               09.7203853485E+018.1238014800E+01+
*       4.3523216582E+02               0
GRID*              17137               09.6710296951E+018.0584224208E+01+
*       4.4192351130E+02               0
GRID*              17138               09.6366604196E+017.9715896777E+01+
*       4.4140774964E+02               0
GRID*              17139               01.0285681958E+028.1822400220E+01+
*       4.8522568506E+02               0
GRID*              17140               01.0213731020E+028.2296031664E+01+
*       4.8575480216E+02               0
GRID*              17141               01.0288627401E+028.1886369889E+01+
*       4.8625627191E+02               0
GRID*              17142               01.0358796293E+028.1238403779E+01+
*       4.8472024950E+02               0
GRID*              17143               09.6197885477E+017.7965050184E+01+
*       4.4243878570E+02               0
GRID*              17144               09.7936258615E+018.1822228374E+01+
*       4.3986289983E+02               0
GRID*              17145               09.6757873864E+017.6302616551E+01+
*       4.7646144329E+02               0
GRID*              17146               09.6756824741E+017.6304580981E+01+
*       5.0739116665E+02               0
GRID*              17147               09.6366323609E+017.9714936812E+01+
*       4.8470966146E+02               0
GRID*              17148               09.9537154837E+017.4336782312E+01+
*       4.8058555712E+02               0
GRID*              17149               09.6196404049E+017.8853916842E+01+
*       4.8110017445E+02               0
GRID*              17150               01.0039713287E+027.4165916443E+01+
*       4.9450279818E+02               0
GRID*              17151               01.0039713287E+027.4165916443E+01+
*       4.9553372601E+02               0
GRID*              17152               09.9536836624E+017.4336913919E+01+
*       4.9501902225E+02               0
GRID*              17153               09.9522648936E+018.2557813992E+01+
*       4.9450679816E+02               0
GRID*              17154               09.8657098396E+018.2296080161E+01+
*       4.9400479462E+02               0
GRID*              17155               09.6198143251E+017.7964224363E+01+
*       4.7749229448E+02               0
GRID*              17156               01.0213902402E+028.2295297037E+01+
*       5.0637313208E+02               0
GRID*              17157               09.6196432994E+017.8855409859E+01+
*       5.0378492960E+02               0
GRID*              17158               09.6198314386E+017.7966154262E+01+
*       5.0430001221E+02               0
GRID*              17159               01.0125703177E+027.4336747548E+01+
*       4.6202782146E+02               0
GRID*              17160               09.9537003599E+017.4336844865E+01+
*       4.8367829926E+02               0
GRID*              17161               09.6757154274E+017.6304024704E+01+
*       4.9708292194E+02               0
GRID*              17162               09.6370322823E+017.7105155058E+01+
*       4.9450556691E+02               0
GRID*              17163               09.6757224712E+017.6303820059E+01+
*       4.9502085785E+02               0
GRID*              17164               01.0039317986E+028.2668400143E+01+
*       4.6822377318E+02               0
GRID*              17165               09.6198029544E+017.7963788284E+01+
*       4.5068580944E+02               0
GRID*              17166               09.6370600862E+017.7103777801E+01+
*       4.5017094942E+02               0
GRID*              17167               09.6370596291E+017.7103788187E+01+
*       4.5120198376E+02               0
GRID*              17168               01.0125704713E+027.4336753860E+01+
*       4.9604977958E+02               0
GRID*              17169               01.0286071251E+028.1819423493E+01+
*       5.4089876577E+02               0
GRID*              17170               01.0285321842E+027.5020859612E+01+
*       4.7955462799E+02               0
GRID*              17171               01.0212347682E+027.4534199547E+01+
*       5.5532800716E+02               0
GRID*              17172               01.0039713287E+027.4165916443E+01+
*       5.6254403529E+02               0
GRID*              17173               01.0125713070E+027.4336788418E+01+
*       4.7646189204E+02               0
GRID*              17174               01.0212364630E+027.4534284548E+01+
*       4.8006997942E+02               0
GRID*              17175               01.0125711009E+027.4336779881E+01+
*       4.8264738975E+02               0
GRID*              17176               01.0039713287E+027.4165916443E+01+
*       4.8213166416E+02               0
GRID*              17177               01.0039713287E+027.4165916443E+01+
*       4.8110073632E+02               0
GRID*              17178               01.0125703165E+027.4336747432E+01+
*       4.8161644307E+02               0
GRID*              17179               01.0126873140E+028.2558587327E+01+
*       4.6769296544E+02               0
GRID*              17180               01.0459142561E+027.8848462129E+01+
*       5.6357771461E+02               0
GRID*              17181               01.0459619860E+027.7962001811E+01+
*       5.6306159005E+02               0
GRID*              17182               01.0442341629E+027.7103289411E+01+
*       5.6357713522E+02               0
GRID*              17183               01.0039713287E+027.4165916443E+01+
*       4.6151310746E+02               0
GRID*              17184               01.0039713287E+027.4165916443E+01+
*       4.6048217962E+02               0
GRID*              17185               01.0459614441E+027.7961579870E+01+
*       5.5687546819E+02               0
GRID*              17186               09.7244801242E+017.5575377313E+01+
*       5.7079412742E+02               0
GRID*              17187               09.9537315928E+017.4336715603E+01+
*       4.5893507169E+02               0
GRID*              17188               09.9537315928E+017.4336715603E+01+
*       4.5790414385E+02               0
GRID*              17189               09.7910835469E+018.1888321504E+01+
*       5.6667283865E+02               0
GRID*              17190               09.6370271469E+017.7104653714E+01+
*       4.4295493786E+02               0
GRID*              17191               01.0459595353E+027.7963079554E+01+
*       5.3213309405E+02               0
GRID*              17192               01.0442347643E+027.7103558269E+01+
*       5.3264840595E+02               0
GRID*              17193               01.0442359448E+027.7103582719E+01+
*       5.3161729532E+02               0
GRID*              17194               01.0354803531E+027.5573788489E+01+
*       5.3058590907E+02               0
GRID*              17195               01.0125703290E+027.4336748458E+01+
*       5.3625561017E+02               0
GRID*              17196               01.0408952073E+028.0588458884E+01+
*       4.5738539662E+02               0
GRID*              17197               09.9537049664E+017.4336825390E+01+
*       5.2800844151E+02               0
GRID*              17198               09.9537329904E+017.4336709848E+01+
*       4.6202793183E+02               0
GRID*              17199               01.0040150534E+028.2668388349E+01+
*       5.5170829818E+02               0
GRID*              17200               01.0039713287E+027.4165916443E+01+
*       4.6563681880E+02               0
GRID*              17201               01.0403665438E+027.6303000184E+01+
*       5.3110152204E+02               0
GRID*              17202               09.7225842611E+017.5594919727E+01+
*       5.8420420559E+02               0
GRID*              17203               09.7921174313E+017.5039844747E+01+
*       5.8471645374E+02               0
GRID*              17204               09.7244523822E+017.5575689928E+01+
*       5.5017476368E+02               0
GRID*              17205               09.6708593563E+018.0585095033E+01+
*       4.5635055544E+02               0
GRID*              17206               01.0103698864E+028.2589253536E+01+
*       6.0705559855E+02               0
GRID*              17207               09.6309649506E+017.7260466715E+01+
*       6.0564761186E+02               0
GRID*              17208               09.6700632917E+018.0582184193E+01+
*       4.5738634999E+02               0
GRID*              17209               09.7214323201E+018.1239480792E+01+
*       4.5685942929E+02               0
GRID*              17210               09.7211610632E+017.5603209317E+01+
*       6.0262551279E+02               0
GRID*              17211               09.6196343599E+017.8852832429E+01+
*       4.5326223712E+02               0
GRID*              17212               09.6196247351E+017.8852414543E+01+
*       4.5429207800E+02               0
GRID*              17213               01.0039263354E+028.2668322178E+01+
*       4.6509952592E+02               0
GRID*              17214               01.0039285623E+028.2668398369E+01+
*       4.6616048759E+02               0
GRID*              17215               01.0126847566E+028.2558655868E+01+
*       4.6562956175E+02               0
GRID*              17216               01.0288445640E+028.1887638808E+01+
*       4.4913846271E+02               0
GRID*              17217               09.6366873491E+017.9716542208E+01+
*       4.3625256418E+02               0
GRID*              17218               01.0127235660E+028.2581690476E+01+
*       4.3986194959E+02               0
GRID*              17219               01.0127109263E+028.2557824879E+01+
*       4.3883083467E+02               0
GRID*              17220               01.0442263355E+027.9710506168E+01+
*       5.6617283352E+02               0
GRID*              17221               01.0442362255E+027.7104060319E+01+
*       5.6873365539E+02               0
GRID*              17222               01.0442369034E+027.7104220262E+01+
*       5.6976485918E+02               0
GRID*              17223               01.0442350199E+027.7103525947E+01+
*       5.6770181572E+02               0
GRID*              17224               01.0442350485E+027.7103536196E+01+
*       5.6667083378E+02               0
GRID*              17225               01.0442354149E+027.7103684609E+01+
*       5.6563937219E+02               0
GRID*              17226               01.0285365243E+027.5021271991E+01+
*       4.4347091580E+02               0
GRID*              17227               09.7940583697E+018.1824269835E+01+
*       5.5120732287E+02               0
GRID*              17228               09.8661265233E+018.2297944011E+01+
*       5.5067853706E+02               0
GRID*              17229               09.7215461710E+018.1243030074E+01+
*       5.5070052715E+02               0
GRID*              17230               01.0441982164E+027.9708603056E+01+
*       5.5069953770E+02               0
GRID*              17231               09.6366516155E+017.9715676912E+01+
*       4.4346972796E+02               0
GRID*              17232               01.0039713287E+027.4165916443E+01+
*       5.1821413838E+02               0
GRID*              17233               09.9536745877E+017.4336951225E+01+
*       5.1769881615E+02               0
GRID*              17234               09.9536866802E+017.4336901218E+01+
*       5.1666799646E+02               0
GRID*              17235               09.6196248263E+017.8852295965E+01+
*       4.5532308516E+02               0
GRID*              17236               09.6196171801E+017.8851965710E+01+
*       4.5635297406E+02               0
GRID*              17237               01.0039713287E+027.4165916443E+01+
*       5.2027599406E+02               0
GRID*              17238               09.9536873639E+017.4336898322E+01+
*       5.1976058699E+02               0
GRID*              17239               01.0403714583E+027.6304090614E+01+
*       4.7439957833E+02               0
GRID*              17240               01.0403717141E+027.6304122780E+01+
*       4.7543084979E+02               0
GRID*              17241               01.0125717470E+027.4336807106E+01+
*       5.3831750894E+02               0
GRID*              17242               01.0212355355E+027.4534227682E+01+
*       5.3780247804E+02               0
GRID*              17243               01.0126821883E+028.2558564598E+01+
*       4.5738145285E+02               0
GRID*              17244               01.0125686822E+027.4336680034E+01+
*       5.1254408155E+02               0
GRID*              17245               01.0403646372E+027.6303097003E+01+
*       5.1357279266E+02               0
GRID*              17246               01.0459655787E+027.7967778172E+01+
*       4.5996035227E+02               0
GRID*              17247               01.0442463374E+027.7106802501E+01+
*       4.5841483897E+02               0
GRID*              17248               01.0442465112E+027.7106893207E+01+
*       4.5944531660E+02               0
GRID*              17249               01.0127475007E+028.2580939289E+01+
*       5.0172337049E+02               0
GRID*              17250               09.8657560659E+018.2296242029E+01+
*       4.9294649769E+02               0
GRID*              17251               09.7937424665E+018.1822516487E+01+
*       4.9347695293E+02               0
GRID*              17252               09.6370306999E+017.7105193852E+01+
*       4.9347425082E+02               0
GRID*              17253               09.6198167917E+017.7965840024E+01+
*       4.9295890093E+02               0
GRID*              17254               09.6366310250E+017.9714904265E+01+
*       4.8367880715E+02               0
GRID*              17255               01.0442630028E+027.9719908056E+01+
*       4.5583697062E+02               0
GRID*              17256               01.0459655095E+027.7967867917E+01+
*       4.5480709839E+02               0
GRID*              17257               09.7942516047E+017.5019839039E+01+
*       4.5893350361E+02               0
GRID*              17258               09.7247350741E+017.5572473795E+01+
*       4.5944790836E+02               0
GRID*              17259               09.7246705762E+017.5573269921E+01+
*       4.5223341378E+02               0
GRID*              17260               09.6758020605E+017.6302396431E+01+
*       4.5171719827E+02               0
GRID*              17261               09.7246545417E+017.5573429827E+01+
*       4.5120244398E+02               0
GRID*              17262               09.6198154061E+017.7963384978E+01+
*       4.5377743284E+02               0
GRID*              17263               01.0403719141E+027.6304190777E+01+
*       4.3625389722E+02               0
GRID*              17264               01.0403722738E+027.6304282219E+01+
*       4.3728489778E+02               0
GRID*              17265               09.7247374705E+017.5572443707E+01+
*       4.6047865241E+02               0
GRID*              17266               01.0127352883E+028.2557576262E+01+
*       5.0069291065E+02               0
GRID*              17267               09.6758681766E+017.6301500479E+01+
*       4.5893178066E+02               0
GRID*              17268               01.0039713287E+027.4165916443E+01+
*       4.7903888065E+02               0
GRID*              17269               09.9537129631E+017.4336792732E+01+
*       4.7852374348E+02               0
GRID*              17270               09.6196436612E+017.8854873214E+01+
*       4.9347492300E+02               0
GRID*              17271               01.0442339401E+027.7104015589E+01+
*       5.1202593837E+02               0
GRID*              17272               01.0285310336E+027.5020839643E+01+
*       4.7749281076E+02               0
GRID*              17273               01.0285320262E+027.5020938707E+01+
*       4.7646195684E+02               0
GRID*              17274               01.0354830494E+027.5574116089E+01+
*       5.1202689306E+02               0
GRID*              17275               01.0403651787E+027.6303348880E+01+
*       5.1254228251E+02               0
GRID*              17276               01.0212324615E+027.4534107574E+01+
*       5.1408928108E+02               0
GRID*              17277               01.0354876558E+027.5574611742E+01+
*       4.7903920945E+02               0
GRID*              17278               01.0125698738E+027.4336729134E+01+
*       4.9295698840E+02               0
GRID*              17279               09.9521260592E+018.2557629707E+01+
*       4.8419399290E+02               0
GRID*              17280               01.0212344512E+027.4534178931E+01+
*       5.4089545612E+02               0
GRID*              17281               01.0354780598E+027.5573496571E+01+
*       5.3574109841E+02               0
GRID*              17282               01.0285254353E+027.5020391119E+01+
*       5.3625621880E+02               0
GRID*              17283               01.0459016791E+027.8848468940E+01+
*       5.3780423152E+02               0
GRID*              17284               01.0125706186E+027.4336760298E+01+
*       5.2285315534E+02               0
GRID*              17285               09.7246467217E+017.5573527806E+01+
*       4.5017180048E+02               0
GRID*              17286               01.0359296767E+028.1234997202E+01+
*       5.1976887417E+02               0
GRID*              17287               09.6758025176E+017.6302386045E+01+
*       4.5068616393E+02               0
GRID*              17288               01.0039713287E+027.4165916443E+01+
*       4.9347187034E+02               0
GRID*              17289               01.0441350325E+027.9763075125E+01+
*       4.2696452196E+02               0
GRID*              17290               01.0440490838E+027.9783165984E+01+
*       4.2591868302E+02               0
GRID*              17291               01.0285403182E+027.5019390256E+01+
*       4.2696884859E+02               0
GRID*              17292               09.9520698367E+018.2582085975E+01+
*       4.3161754353E+02               0
GRID*              17293               01.0125057814E+028.2563224471E+01+
*       4.2855369864E+02               0
GRID*              17294               01.0285257317E+027.5020328719E+01+
*       5.6099794316E+02               0
GRID*              17295               01.0039713287E+027.4165916443E+01+
*       6.0068836519E+02               0
GRID*              17296               09.6771744604E+018.0628526063E+01+
*       6.0111210215E+02               0
GRID*              17297               01.0459752601E+027.8852705782E+01+
*       5.0790371830E+02               0
GRID*              17298               01.0442828420E+027.9714107902E+01+
*       5.0739100586E+02               0
GRID*              17299               01.0285884232E+028.1821295271E+01+
*       5.0584436530E+02               0
GRID*              17300               09.6428854576E+017.9759321635E+01+
*       6.0064942484E+02               0
GRID*              17301               01.0442283267E+027.7103185977E+01+
*       5.3986618578E+02               0
GRID*              17302               01.0280429842E+028.1857707783E+01+
*       4.2753182238E+02               0
GRID*              17303               01.0286041173E+028.1819610671E+01+
*       5.3883822883E+02               0
GRID*              17304               01.0212357593E+027.4534245676E+01+
*       5.6254470981E+02               0
GRID*              17305               01.0214143765E+028.2294166005E+01+
*       5.3936587711E+02               0
GRID*              17306               01.0039713287E+027.4165916443E+01+
*       5.6357496313E+02               0
GRID*              17307               01.0125703290E+027.4336748458E+01+
*       5.3728653800E+02               0
GRID*              17308               01.0212341175E+027.4534169034E+01+
*       5.3677150710E+02               0
GRID*              17309               09.6756040553E+017.6305546002E+01+
*       5.4038156038E+02               0
GRID*              17310               01.0442628030E+027.9720569579E+01+
*       4.3315915703E+02               0
GRID*              17311               01.0459698328E+027.8858948107E+01+
*       4.3264371268E+02               0
GRID*              17312               01.0458947437E+027.8847648902E+01+
*       5.4295919340E+02               0
GRID*              17313               01.0285253743E+027.5020411692E+01+
*       5.4038028702E+02               0
GRID*              17314               01.0285253865E+027.5020412490E+01+
*       5.3934926324E+02               0
GRID*              17315               01.0459698584E+027.8859939332E+01+
*       4.3161188349E+02               0
GRID*              17316               09.6370213864E+017.7104880700E+01+
*       4.4192381043E+02               0
GRID*              17317               01.0039879438E+028.2668377102E+01+
*       5.1771074771E+02               0
GRID*              17318               01.0039713287E+027.4165916443E+01+
*       5.1202857137E+02               0
GRID*              17319               01.0285382901E+027.5021365875E+01+
*       4.5171686105E+02               0
GRID*              17320               01.0459582673E+027.7962463427E+01+
*       5.3419531518E+02               0
GRID*              17321               01.0459595708E+027.7963011229E+01+
*       5.3316427085E+02               0
GRID*              17322               01.0459117180E+027.8849349886E+01+
*       5.3367979809E+02               0
GRID*              17323               09.7245558795E+017.5574497257E+01+
*       5.2749340048E+02               0
GRID*              17324               01.0039713287E+027.4165916443E+01+
*       4.5842032395E+02               0
GRID*              17325               09.9536945724E+017.4336868439E+01+
*       5.2491530388E+02               0
GRID*              17326               01.0442470581E+027.7106967597E+01+
*       4.5738371870E+02               0
GRID*              17327               01.0459654737E+027.7967933518E+01+
*       4.5789873893E+02               0
GRID*              17328               01.0459655100E+027.7967731751E+01+
*       4.6099198900E+02               0
GRID*              17329               09.7245464403E+017.5574591488E+01+
*       5.2646212191E+02               0
GRID*              17330               01.0039713287E+027.4165916443E+01+
*       4.5945125179E+02               0
GRID*              17331               09.9537474871E+017.4336649902E+01+
*       4.5996599649E+02               0
GRID*              17332               09.8660362358E+018.2297591580E+01+
*       5.3936594669E+02               0
GRID*              17333               09.9607087448E+018.2557434133E+01+
*       5.8525349673E+02               0
GRID*              17334               01.0403579609E+027.6302722664E+01+
*       5.3522579392E+02               0
GRID*              17335               09.9516281046E+018.2580485130E+01+
*       4.6459788212E+02               0
GRID*              17336               09.7911585414E+018.1889027024E+01+
*       5.5223975607E+02               0
GRID*              17337               09.8660938362E+018.2297763010E+01+
*       5.5173688315E+02               0
GRID*              17338               01.0285289336E+027.5020483222E+01+
*       5.7130899468E+02               0
GRID*              17339               01.0354821346E+027.5574039293E+01+
*       5.7079509989E+02               0
GRID*              17340               09.7244584152E+017.5575629676E+01+
*       5.5120555114E+02               0
GRID*              17341               09.7244672802E+017.5575518586E+01+
*       5.5223667738E+02               0
GRID*              17342               01.0403636963E+027.6302416557E+01+
*       5.5687465352E+02               0
GRID*              17343               09.6370130272E+017.7106394927E+01+
*       5.5533056034E+02               0
GRID*              17344               09.7940433257E+017.5021477142E+01+
*       5.5275141968E+02               0
GRID*              17345               09.7244535761E+017.5575655456E+01+
*       5.5326754669E+02               0
GRID*              17346               01.0285258411E+027.5020334804E+01+
*       5.7027743581E+02               0
GRID*              17347               01.0213387016E+028.2297556929E+01+
*       4.6719095765E+02               0
GRID*              17348               01.0459637688E+027.7966109317E+01+
*       4.7543052405E+02               0
GRID*              17349               09.7216969269E+018.1242911741E+01+
*       5.3521972357E+02               0
GRID*              17350               01.0125698246E+027.4336727243E+01+
*       5.1048239754E+02               0
GRID*              17351               01.0212335058E+027.4534143960E+01+
*       5.0996591456E+02               0
GRID*              17352               01.0212342303E+027.4534178802E+01+
*       5.1099680505E+02               0
GRID*              17353               01.0285264332E+027.5020460070E+01+
*       5.1151235064E+02               0
GRID*              17354               09.8661042181E+018.2297837933E+01+
*       5.4036964068E+02               0
GRID*              17355               09.7940114910E+018.1824450637E+01+
*       5.4089832902E+02               0
GRID*              17356               01.0039713287E+027.4165916443E+01+
*       5.2233784973E+02               0
GRID*              17357               01.0212371206E+027.4534301013E+01+
*       4.7697704393E+02               0
GRID*              17358               09.6710114262E+018.0585912270E+01+
*       5.3470977273E+02               0
GRID*              17359               01.0408587368E+028.0588792779E+01+
*       5.0584377087E+02               0
GRID*              17360               01.0040147221E+028.2668392478E+01+
*       5.5377008590E+02               0
GRID*              17361               09.9525394881E+018.2582494564E+01+
*       5.5120811480E+02               0
GRID*              17362               01.0354772722E+027.5573450137E+01+
*       5.6357641078E+02               0
GRID*              17363               01.0403637101E+027.6302455388E+01+
*       5.6306069371E+02               0
GRID*              17364               01.0403654515E+027.6302673245E+01+
*       5.6409175857E+02               0
GRID*              17365               09.9526410920E+018.2558358211E+01+
*       5.5223872121E+02               0
GRID*              17366               01.0285248669E+027.5020266074E+01+
*       5.6305989237E+02               0
GRID*              17367               09.7940234260E+017.5021573688E+01+
*       5.5172036586E+02               0
GRID*              17368               01.0459603639E+027.7962305917E+01+
*       5.4450575576E+02               0
GRID*              17369               01.0458916869E+027.8847842709E+01+
*       5.4502083699E+02               0
GRID*              17370               01.0459607119E+027.7962246790E+01+
*       5.4553630555E+02               0
GRID*              17371               01.0459615799E+027.7961979555E+01+
*       5.5275198110E+02               0
GRID*              17372               01.0403641354E+027.6302468829E+01+
*       5.5378199839E+02               0
GRID*              17373               01.0288934080E+028.1884028130E+01+
*       5.3986719257E+02               0
GRID*              17374               01.0359523936E+028.1232697522E+01+
*       5.3934086750E+02               0
GRID*              17375               01.0403662316E+027.6302860613E+01+
*       5.6615401727E+02               0
GRID*              17376               01.0403639650E+027.6302520358E+01+
*       5.6202981157E+02               0
GRID*              17377               01.0442344179E+027.7103354380E+01+
*       5.6254625308E+02               0
GRID*              17378               01.0285233937E+027.5020141915E+01+
*       5.5481212881E+02               0
GRID*              17379               01.0459640478E+027.7963654874E+01+
*       5.7337770744E+02               0
GRID*              17380               09.7233237790E+017.5587405460E+01+
*       5.8317022512E+02               0
GRID*              17381               09.6367007701E+017.9717470944E+01+
*       5.4038847807E+02               0
GRID*              17382               09.6366956568E+017.9717354225E+01+
*       5.3935744817E+02               0
GRID*              17383               01.0285245367E+027.5020233145E+01+
*       5.6409081000E+02               0
GRID*              17384               01.0354798421E+027.5573752355E+01+
*       5.6976330139E+02               0
GRID*              17385               01.0442207266E+027.9710185641E+01+
*       5.6514071023E+02               0
GRID*              17386               01.0409758748E+028.0577241016E+01+
*       5.6461186454E+02               0
GRID*              17387               01.0354770161E+027.5573434747E+01+
*       5.5739029689E+02               0
GRID*              17388               01.0285243869E+027.5020192634E+01+
*       5.5790490193E+02               0
GRID*              17389               09.7203540425E+018.1238030621E+01+
*       5.3420774290E+02               0
GRID*              17390               09.7939306925E+018.1823800456E+01+
*       5.3471063235E+02               0
GRID*              17391               09.6756664156E+017.6304810400E+01+
*       5.3110275590E+02               0
GRID*              17392               09.6756721162E+017.6304739007E+01+
*       5.3007173221E+02               0
GRID*              17393               01.0285231273E+027.5020131858E+01+
*       5.5893591938E+02               0
GRID*              17394               01.0354769829E+027.5573430587E+01+
*       5.5842136102E+02               0
GRID*              17395               09.6756709450E+017.6304899708E+01+
*       5.2904032186E+02               0
GRID*              17396               09.7911142903E+018.1888929419E+01+
*       5.6254984026E+02               0
GRID*              17397               01.0354774768E+027.5573494005E+01+
*       5.5429748602E+02               0
GRID*              17398               01.0403630983E+027.6302276387E+01+
*       5.5584369572E+02               0
GRID*              17399               01.0403636218E+027.6302341897E+01+
*       5.5481268076E+02               0
GRID*              17400               09.8669848543E+017.4534623919E+01+
*       5.5223567019E+02               0
GRID*              17401               01.0354784643E+027.5573592480E+01+
*       5.5532844481E+02               0
GRID*              17402               01.0136491661E+028.2543808807E+01+
*       5.8627846901E+02               0
GRID*              17403               09.7916369990E+018.1893770015E+01+
*       5.7906224752E+02               0
GRID*              17404               09.8671642232E+018.2302555604E+01+
*       5.7956259355E+02               0
GRID*              17405               01.0459365910E+027.8850472876E+01+
*       5.7389349676E+02               0
GRID*              17406               09.9527496765E+018.2584130636E+01+
*       5.7802948492E+02               0
GRID*              17407               09.8662399382E+018.2298380668E+01+
*       5.7855738678E+02               0
GRID*              17408               09.9533570169E+018.2557423895E+01+
*       5.7906004513E+02               0
GRID*              17409               01.0084437543E+028.2621498158E+01+
*       5.9864644682E+02               0
GRID*              17410               01.0040037524E+028.2668402938E+01+
*       5.6614220101E+02               0
GRID*              17411               09.8669806559E+017.4534640262E+01+
*       5.6460719472E+02               0
GRID*              17412               09.6254338515E+017.7773383241E+01+
*       5.9814536471E+02               0
GRID*              17413               09.6747735117E+017.6392702114E+01+
*       6.0206657792E+02               0
GRID*              17414               09.6357527565E+017.7101119052E+01+
*       6.0152182624E+02               0
GRID*              17415               09.6759173931E+017.6359652115E+01+
*       6.0104743588E+02               0
GRID*              17416               09.6147729933E+017.8465820613E+01+
*       5.9851028168E+02               0
GRID*              17417               09.7939539067E+018.1823612551E+01+
*       5.6564261142E+02               0
GRID*              17418               09.8660473804E+018.2297614039E+01+
*       5.6511234322E+02               0
GRID*              17419               09.7202685321E+018.1237429897E+01+
*       5.6614575093E+02               0
GRID*              17420               09.7244823382E+017.5575355205E+01+
*       5.7182506287E+02               0
GRID*              17421               01.0403692613E+027.6303308355E+01+
*       5.7027939850E+02               0
GRID*              17422               09.9536928144E+017.4336875634E+01+
*       5.6305979702E+02               0
GRID*              17423               01.0355028851E+027.5577358943E+01+
*       5.8524143435E+02               0
GRID*              17424               01.0403775034E+027.6299823064E+01+
*       5.8472869449E+02               0
GRID*              17425               09.9536928144E+017.4336875634E+01+
*       5.6409072485E+02               0
GRID*              17426               09.8669847132E+017.4534627189E+01+
*       5.6254538877E+02               0
GRID*              17427               01.0442372001E+027.7104358887E+01+
*       5.7079731208E+02               0
GRID*              17428               09.9538501315E+018.2587821805E+01+
*       5.8009908856E+02               0
GRID*              17429               01.0458935715E+027.8847718485E+01+
*       5.5326779075E+02               0
GRID*              17430               09.8781321652E+018.2359192382E+01+
*       5.8781167407E+02               0
GRID*              17431               09.9694179601E+018.2630204048E+01+
*       5.8834071472E+02               0
GRID*              17432               09.9548083782E+018.2557689737E+01+
*       5.8112755788E+02               0
GRID*              17433               09.7940284997E+018.1823931004E+01+
*       5.5532942219E+02               0
GRID*              17434               09.8662590116E+018.2298565431E+01+
*       5.7749454415E+02               0
GRID*              17435               01.0442003537E+027.7098721103E+01+
*       5.8524086291E+02               0
GRID*              17436               09.6370376591E+017.7105601316E+01+
*       5.2955603090E+02               0
GRID*              17437               09.6370427973E+017.7105322603E+01+
*       5.2852494452E+02               0
GRID*              17438               01.0358443269E+027.5614271756E+01+
*       5.9033807922E+02               0
GRID*              17439               01.0459870896E+027.7950559964E+01+
*       5.8576543800E+02               0
GRID*              17440               01.0442181988E+027.9710202961E+01+
*       5.3420033040E+02               0
GRID*              17441               01.0459066587E+027.8848752554E+01+
*       5.3471084103E+02               0
GRID*              17442               09.6708787658E+018.0592965576E+01+
*       5.1202755539E+02               0
GRID*              17443               01.0290381958E+027.5095594529E+01+
*       6.0019448493E+02               0
GRID*              17444               01.0287422537E+027.5033583139E+01+
*       5.8983728666E+02               0
GRID*              17445               01.0249881142E+028.2114804975E+01+
*       5.9866646202E+02               0
GRID*              17446               01.0320991602E+028.1549453047E+01+
*       5.9905982869E+02               0
GRID*              17447               01.0125686822E+027.4336680034E+01+
*       5.1151315372E+02               0
GRID*              17448               09.6942737414E+018.0873374828E+01+
*       6.0766593598E+02               0
GRID*              17449               09.8463340476E+018.2161655196E+01+
*       6.0866428706E+02               0
GRID*              17450               09.9230818400E+018.2474959269E+01+
*       6.0815455626E+02               0
GRID*              17451               09.7246548870E+017.5573467431E+01+
*       4.7697666244E+02               0
GRID*              17452               01.0125724632E+027.4336836320E+01+
*       4.5996581876E+02               0
GRID*              17453               01.0125737837E+027.4336890971E+01+
*       4.5893478552E+02               0
GRID*              17454               01.0354934290E+027.5575236910E+01+
*       4.5532409492E+02               0
GRID*              17455               09.9517645126E+018.2556643265E+01+
*       4.6563000055E+02               0
GRID*              17456               09.6282360169E+017.7365150142E+01+
*       6.0979177699E+02               0
GRID*              17457               01.0212363300E+027.4534268309E+01+
*       4.7594616165E+02               0
GRID*              17458               01.0285340662E+027.5021035768E+01+
*       4.7543084838E+02               0
GRID*              17459               01.0288475589E+028.1887274207E+01+
*       4.4707870251E+02               0
GRID*              17460               01.0213538051E+028.2296795532E+01+
*       4.4863648338E+02               0
GRID*              17461               09.7209856467E+017.5610243016E+01+
*       4.2543732621E+02               0
GRID*              17462               09.7939443307E+017.5022325317E+01+
*       5.7749522882E+02               0
GRID*              17463               09.7212494686E+017.5606969637E+01+
*       4.2439392821E+02               0
GRID*              17464               01.0110815500E+028.2585663580E+01+
*       6.0802284467E+02               0
GRID*              17465               01.0442373211E+027.9711835164E+01+
*       5.2801220356E+02               0
GRID*              17466               01.0035568791E+028.2669621047E+01+
*       4.2710847483E+02               0
GRID*              17467               01.0354821160E+027.5574022321E+01+
*       5.2543048475E+02               0
GRID*              17468               01.0121534280E+028.2592390495E+01+
*       4.2752490867E+02               0
GRID*              17469               01.0121560080E+028.2567776252E+01+
*       4.2657734125E+02               0
GRID*              17470               01.0459737037E+027.8857237263E+01+
*       4.3367542014E+02               0
GRID*              17471               09.6702608473E+018.0585340419E+01+
*       4.3470821730E+02               0
GRID*              17472               09.7216826484E+018.1242347498E+01+
*       4.3418170175E+02               0
GRID*              17473               09.6711591472E+018.0590378255E+01+
*       4.3367378509E+02               0
GRID*              17474               09.7907354897E+018.1885648465E+01+
*       4.3470622834E+02               0
GRID*              17475               09.7938034965E+018.1822537630E+01+
*       4.3367353785E+02               0
GRID*              17476               09.7943815867E+018.1824466226E+01+
*       5.7802072907E+02               0
GRID*              17477               09.6196397654E+017.8853063497E+01+
*       4.5223228020E+02               0
GRID*              17478               09.6196397135E+017.8852988845E+01+
*       4.5120121470E+02               0
GRID*              17479               01.0177627714E+028.2473401478E+01+
*       5.9816676093E+02               0
GRID*              17480               01.0285257086E+027.5020425228E+01+
*       5.1048146015E+02               0
GRID*              17481               09.7939569204E+018.1823983143E+01+
*       5.3883632220E+02               0
GRID*              17482               09.6366826257E+017.9716835727E+01+
*       5.3626386400E+02               0
GRID*              17483               09.6701673469E+018.0582598595E+01+
*       5.3574609398E+02               0
GRID*              17484               09.7911094007E+018.1888669253E+01+
*       5.3780646903E+02               0
GRID*              17485               01.0409477727E+028.0580384771E+01+
*       5.2336470335E+02               0
GRID*              17486               01.0459591601E+027.7962624724E+01+
*       5.3728865163E+02               0
GRID*              17487               01.0442334608E+027.7103010466E+01+
*       5.3367945028E+02               0
GRID*              17488               01.0442036064E+027.9709018643E+01+
*       5.3832553458E+02               0
GRID*              17489               01.0442056054E+027.9709246405E+01+
*       5.3729426087E+02               0
GRID*              17490               01.0409758174E+028.0578586902E+01+
*       5.3780189754E+02               0
GRID*              17491               01.0285250144E+027.5020349141E+01+
*       5.3728729504E+02               0
GRID*              17492               01.0285245032E+027.5020324376E+01+
*       5.3831830452E+02               0
GRID*              17493               01.0442345106E+027.7103196258E+01+
*       5.4399016297E+02               0
GRID*              17494               01.0459116825E+027.8849418211E+01+
*       5.3264862128E+02               0
GRID*              17495               01.0212338563E+027.4534156680E+01+
*       5.3574051807E+02               0
GRID*              17496               09.6757096540E+017.6304415422E+01+
*       5.2800929483E+02               0
GRID*              17497               01.0442241279E+027.9710727686E+01+
*       5.3213773133E+02               0
GRID*              17498               01.0442242043E+027.9710708035E+01+
*       5.3110630121E+02               0
GRID*              17499               01.0442129075E+027.7101693318E+01+
*       5.8422231475E+02               0
GRID*              17500               01.0212341420E+027.4534175455E+01+
*       5.6460663828E+02               0
GRID*              17501               09.7940408225E+017.5021439340E+01+
*       5.7130847906E+02               0
GRID*              17502               01.0442337895E+027.7103167540E+01+
*       5.5635989539E+02               0
GRID*              17503               01.0442346071E+027.7103493874E+01+
*       5.6460833443E+02               0
GRID*              17504               09.6702571668E+018.0582980179E+01+
*       5.3986415093E+02               0
GRID*              17505               09.9526464450E+018.2558343913E+01+
*       5.5430047714E+02               0
GRID*              17506               09.9525250987E+018.2582491253E+01+
*       5.5326992046E+02               0
GRID*              17507               09.8660909196E+018.2297750639E+01+
*       5.5379865407E+02               0
GRID*              17508               09.8660588957E+018.2297682807E+01+
*       5.5274046205E+02               0
GRID*              17509               09.7911429478E+018.1889116676E+01+
*       5.5430152426E+02               0
GRID*              17510               09.8660579256E+018.2297666782E+01+
*       5.5480228386E+02               0
GRID*              17511               09.9525262803E+018.2582508254E+01+
*       5.5533184725E+02               0
GRID*              17512               09.6370424956E+017.7106360121E+01+
*       5.3883572084E+02               0
GRID*              17513               09.6370641359E+017.7106531771E+01+
*       5.3780476939E+02               0
GRID*              17514               09.9537075335E+017.4336814699E+01+
*       5.4037987517E+02               0
GRID*              17515               09.6198383807E+017.7967168837E+01+
*       5.3935130406E+02               0
GRID*              17516               09.9536873135E+017.4336898368E+01+
*       5.5171949064E+02               0
GRID*              17517               09.9536816337E+017.4336921878E+01+
*       5.5275036934E+02               0
GRID*              17518               09.6370516915E+017.7104880948E+01+
*       5.2749374288E+02               0
GRID*              17519               01.0354759179E+027.5573254519E+01+
*       5.4501999401E+02               0
GRID*              17520               09.9525732985E+018.2558322972E+01+
*       5.6461028656E+02               0
GRID*              17521               09.9524073189E+018.2557636242E+01+
*       5.1717987112E+02               0
GRID*              17522               09.9522959143E+018.2582138749E+01+
*       5.1821127973E+02               0
GRID*              17523               09.9521614264E+018.2581522199E+01+
*       4.9553836952E+02               0
GRID*              17524               09.7908374920E+018.1886319240E+01+
*       4.9450641026E+02               0
GRID*              17525               09.9536910171E+017.4336883482E+01+
*       4.9708101540E+02               0
GRID*              17526               01.0442470673E+027.7106920238E+01+
*       4.5326123380E+02               0
GRID*              17527               01.0359252576E+028.1235520183E+01+
*       5.0840930762E+02               0
GRID*              17528               01.0403712196E+027.6304015787E+01+
*       4.7646177173E+02               0
GRID*              17529               01.0354889633E+027.5574749922E+01+
*       4.7594599890E+02               0
GRID*              17530               01.0459639591E+027.7966210244E+01+
*       4.7646187596E+02               0
GRID*              17531               01.0442411582E+027.7105379986E+01+
*       4.7594565562E+02               0
GRID*              17532               01.0125698738E+027.4336729134E+01+
*       4.9398791624E+02               0
GRID*              17533               09.6198162117E+017.7963241766E+01+
*       4.5171630423E+02               0
GRID*              17534               09.7785763693E+017.5115081893E+01+
*       4.1773139240E+02               0
GRID*              17535               09.6548303360E+018.0107422389E+01+
*       6.0931335368E+02               0
GRID*              17536               09.6532519678E+018.0062811524E+01+
*       6.0716149724E+02               0
GRID*              17537               09.7195397007E+017.5622362220E+01+
*       6.0364602104E+02               0
GRID*              17538               01.0359014957E+028.1236249312E+01+
*       5.0634942429E+02               0
GRID*              17539               09.7908739388E+018.1886920663E+01+
*       4.3264549850E+02               0
GRID*              17540               09.6703522123E+018.0586949709E+01+
*       4.3264658816E+02               0
GRID*              17541               09.7205366799E+018.1239953703E+01+
*       4.3317229802E+02               0
GRID*              17542               01.0039601343E+028.2668399345E+01+
*       4.3829992357E+02               0
GRID*              17543               01.0442364071E+027.7103628396E+01+
*       5.2749279594E+02               0
GRID*              17544               01.0354878568E+027.5574639490E+01+
*       4.7491510360E+02               0
GRID*              17545               09.9537474871E+017.4336649902E+01+
*       4.6099692433E+02               0
GRID*              17546               01.0126969597E+028.2582023376E+01+
*       4.6666155454E+02               0
GRID*              17547               01.0039713287E+027.4165916443E+01+
*       4.8316259199E+02               0
GRID*              17548               09.7216311887E+018.1242043278E+01+
*       4.9296773855E+02               0
GRID*              17549               09.7904226337E+018.1883392073E+01+
*       4.5738239088E+02               0
GRID*              17550               09.8653032330E+018.2294203600E+01+
*       4.5687962668E+02               0
GRID*              17551               01.0285885682E+028.1821410776E+01+
*       5.0790638084E+02               0
GRID*              17552               01.0288778021E+028.1884917973E+01+
*       5.0893419557E+02               0
GRID*              17553               09.8671610618E+017.4533821401E+01+
*       4.6151132641E+02               0
GRID*              17554               09.6366132327E+017.9714401795E+01+
*       4.5068538125E+02               0
GRID*              17555               01.0039713287E+027.4165916443E+01+
*       4.6254403529E+02               0
GRID*              17556               09.6196627423E+017.8856554802E+01+
*       5.3883654309E+02               0
GRID*              17557               09.6370368798E+017.7106656602E+01+
*       5.3986685152E+02               0
GRID*              17558               01.0403756743E+027.6304859267E+01+
*       4.5377738868E+02               0
GRID*              17559               01.0354927413E+027.5575150659E+01+
*       4.5429379689E+02               0
GRID*              17560               09.6278528659E+017.7382341510E+01+
*       6.1084431812E+02               0
GRID*              17561               01.0127250959E+028.2581619972E+01+
*       4.3779963774E+02               0
GRID*              17562               01.0112882379E+028.2612671189E+01+
*       4.2552005419E+02               0
GRID*              17563               09.9524252991E+018.2582237492E+01+
*       5.6564206017E+02               0
GRID*              17564               09.7940238013E+018.1823923719E+01+
*       5.5326751150E+02               0
GRID*              17565               09.9607013846E+018.2579702393E+01+
*       4.1876943919E+02               0
GRID*              17566               01.0288778485E+028.1885215183E+01+
*       5.0687400974E+02               0
GRID*              17567               09.6207171018E+017.8300445996E+01+
*       6.1036389464E+02               0
GRID*              17568               09.7245506535E+017.5574585680E+01+
*       5.0172168674E+02               0
GRID*              17569               09.7203585218E+018.1237576849E+01+
*       4.9398038753E+02               0
GRID*              17570               01.0039714050E+029.1356872559E+01+
*       6.1635595703E+02               0
GRID*              17571               01.0039714050E+029.0062774658E+01+
*       6.2118560791E+02               0
GRID*              17572               08.8866290007E+019.1008045484E+01+
*       6.1765780842E+02               0
GRID*              17573               07.7957187651E+018.9980379261E+01+
*       6.2149311056E+02               0
GRID*              17574               06.8257636124E+018.8329238107E+01+
*       6.2765527267E+02               0
GRID*              17575               06.0290929012E+018.6143704621E+01+
*       6.3581180527E+02               0
GRID*              17576               05.4486374458E+018.3541593162E+01+
*       6.4552300549E+02               0
GRID*              17577               05.1156782883E+018.0663136797E+01+
*       6.5626555283E+02               0
GRID*              17578               05.0481731937E+017.7663466790E+01+
*       6.6746046544E+02               0
GRID*              17579               05.2497645940E+017.4704428520E+01+
*       6.7850375475E+02               0
GRID*              17580               05.7095867152E+017.1945442202E+01+
*       6.8880041503E+02               0
GRID*              17581               06.4028481745E+016.9535289075E+01+
*       6.9779524192E+02               0
GRID*              17582               07.2921666805E+016.7603917992E+01+
*       7.0500323484E+02               0
GRID*              17583               08.3296281431E+016.6255391936E+01+
*       7.1003599861E+02               0
GRID*              17584               09.4592582938E+016.5562471746E+01+
*       7.1262201894E+02               0
GRID*              17585               01.0620168584E+026.5562471607E+01+
*       7.1262201946E+02               0
GRID*              17586               01.1749798750E+026.6255391518E+01+
*       7.1003600018E+02               0
GRID*              17587               01.2787260262E+026.7603917319E+01+
*       7.0500323735E+02               0
GRID*              17588               01.3676578718E+026.9535288454E+01+
*       6.9779524424E+02               0
GRID*              17589               01.4369840668E+027.1945440697E+01+
*       6.8880042065E+02               0
GRID*              17590               01.4829663137E+027.4704426767E+01+
*       6.7850376129E+02               0
GRID*              17591               01.5031254620E+027.7663465333E+01+
*       6.6746047088E+02               0
GRID*              17592               01.4963749549E+028.0663135308E+01+
*       6.5626555838E+02               0
GRID*              17593               01.4630790146E+028.3541591639E+01+
*       6.4552301118E+02               0
GRID*              17594               01.4050334931E+028.6143703534E+01+
*       6.3581180932E+02               0
GRID*              17595               01.3253664431E+028.8329237417E+01+
*       6.2765527525E+02               0
GRID*              17596               01.2283709254E+028.9980378375E+01+
*       6.2149311387E+02               0
GRID*              17597               01.1192799079E+029.1008045029E+01+
*       6.1765781012E+02               0
GRID*              17598               06.0290936099E+017.0688136017E+01+
*       6.9349275901E+02               0
GRID*              17599               05.2497637735E+018.2127409855E+01+
*       6.5080080949E+02               0
GRID*              17600               05.4486361622E+017.3290253186E+01+
*       6.8378151666E+02               0
GRID*              17601               05.0481707550E+017.9168276374E+01+
*       6.6184444875E+02               0
GRID*              17602               05.1156791408E+017.6168687795E+01+
*       6.7303906759E+02               0
GRID*              17603               06.8257574117E+016.8502615594E+01+
*       7.0164921547E+02               0
GRID*              17604               01.0039713437E+026.5474967957E+01+
*       7.1294854736E+02               0
GRID*              17605               07.7956848590E+016.6851504912E+01+
*       7.0781124614E+02               0
GRID*              17606               08.8866267453E+016.5823796461E+01+
*       7.1164671002E+02               0
GRID*              17607               01.1192800177E+026.5823795738E+01+
*       7.1164671271E+02               0
GRID*              17608               01.2283742056E+026.6851504363E+01+
*       7.0781124819E+02               0
GRID*              17609               01.4630791291E+027.3290251591E+01+
*       6.8378152261E+02               0
GRID*              17610               01.4050333712E+027.0688134635E+01+
*       6.9349276417E+02               0
GRID*              17611               01.3253669564E+026.8502614808E+01+
*       7.0164921840E+02               0
GRID*              17612               05.7095872783E+018.4886396628E+01+
*       6.4050412821E+02               0
GRID*              17613               06.4028506960E+018.7296552836E+01+
*       6.3150928789E+02               0
GRID*              17614               08.3296364942E+019.0576461288E+01+
*       6.1926853218E+02               0
GRID*              17615               09.4592565913E+019.1269373294E+01+
*       6.1668254771E+02               0
GRID*              17616               07.2922008224E+018.9227983308E+01+
*       6.2430112476E+02               0
GRID*              17617               01.3676577526E+028.7296552504E+01+
*       6.3150928913E+02               0
GRID*              17618               01.0620171504E+029.1269373065E+01+
*       6.1668254857E+02               0
GRID*              17619               01.2787227385E+028.9227983126E+01+
*       6.2430112544E+02               0
GRID*              17620               01.1749791560E+029.0576460613E+01+
*       6.1926853470E+02               0
GRID*              17621               01.4369840089E+028.4886394784E+01+
*       6.4050413510E+02               0
GRID*              17622               01.4963748106E+027.6168686462E+01+
*       6.7303907257E+02               0
GRID*              17623               01.4829663047E+028.2127407731E+01+
*       6.5080081742E+02               0
GRID*              17624               01.5031256617E+027.9168274837E+01+
*       6.6184445449E+02               0
GRID*              17625               08.8750297385E+018.9665921155E+01+
*       6.2266668330E+02               0
GRID*              17626               07.7897277601E+018.8502414220E+01+
*       6.2700896791E+02               0
GRID*              17627               06.8577454795E+018.6651525057E+01+
*       6.3391659666E+02               0
GRID*              17628               06.1426002881E+018.4239354665E+01+
*       6.4291892553E+02               0
GRID*              17629               05.6930555311E+018.1430427090E+01+
*       6.5340197915E+02               0
GRID*              17630               05.5397137933E+017.8415991337E+01+
*       6.6465200322E+02               0
GRID*              17631               05.6930471900E+017.5401495758E+01+
*       6.7590225422E+02               0
GRID*              17632               06.1425918928E+017.2592526905E+01+
*       6.8638548668E+02               0
GRID*              17633               06.8577161738E+017.0180391429E+01+
*       6.9538766348E+02               0
GRID*              17634               07.7897175618E+016.8329440641E+01+
*       7.0229552445E+02               0
GRID*              17635               08.8750278408E+016.7165922021E+01+
*       7.0663782851E+02               0
GRID*              17636               01.0039713231E+026.6769065857E+01+
*       7.0811895752E+02               0
GRID*              17637               01.1204398652E+026.7165921435E+01+
*       7.0663783070E+02               0
GRID*              17638               01.2289709198E+026.8329438669E+01+
*       7.0229553181E+02               0
GRID*              17639               01.3221710438E+027.0180389885E+01+
*       6.9538766924E+02               0
GRID*              17640               01.3936834691E+027.2592525237E+01+
*       6.8638549290E+02               0
GRID*              17641               01.4386380130E+027.5401493409E+01+
*       6.7590226298E+02               0
GRID*              17642               01.4539713163E+027.8415989170E+01+
*       6.6465201131E+02               0
GRID*              17643               01.4386371653E+028.1430424886E+01+
*       6.5340198738E+02               0
GRID*              17644               01.3936827730E+028.4239353325E+01+
*       6.4291893053E+02               0
GRID*              17645               01.3221682415E+028.6651523615E+01+
*       6.3391660205E+02               0
GRID*              17646               01.2289700237E+028.8502413234E+01+
*       6.2700897159E+02               0
GRID*              17647               01.1204398343E+028.9665920708E+01+
*       6.2266668497E+02               0
GRID*              17648               08.3176362886E+018.9176212336E+01+
*       6.2449430153E+02               0
GRID*              17649               07.3002841818E+018.7655984758E+01+
*       6.3016787738E+02               0
GRID*              17650               05.5782120077E+017.9936137818E+01+
*       6.5897875281E+02               0
GRID*              17651               05.8822544432E+018.2872970257E+01+
*       6.4801834374E+02               0
GRID*              17652               06.4696105534E+018.5506033068E+01+
*       6.3819162321E+02               0
GRID*              17653               01.2779143492E+028.7655982582E+01+
*       6.3016788549E+02               0
GRID*              17654               01.1761791735E+028.9176211472E+01+
*       6.2449430475E+02               0
GRID*              17655               09.4523379247E+018.9963133264E+01+
*       6.2155746695E+02               0
GRID*              17656               01.0627090169E+028.9963133007E+01+
*       6.2155746791E+02               0
GRID*              17657               01.4501211102E+027.6895622784E+01+
*       6.7032610130E+02               0
GRID*              17658               01.4197164154E+027.3958818010E+01+
*       6.8128640702E+02               0
GRID*              17659               01.1761775999E+026.7655616743E+01+
*       7.0481029519E+02               0
GRID*              17660               01.2779125574E+026.9175818327E+01+
*       6.9913679212E+02               0
GRID*              17661               01.3609803631E+027.1325764301E+01+
*       6.9111309463E+02               0
GRID*              17662               01.3609817550E+028.5506032021E+01+
*       6.3819162712E+02               0
GRID*              17663               01.4501215680E+027.9936135819E+01+
*       6.5897876027E+02               0
GRID*              17664               01.4197173471E+028.2872968687E+01+
*       6.4801834960E+02               0
GRID*              17665               07.3003011960E+016.9175820217E+01+
*       6.9913678507E+02               0
GRID*              17666               08.3176505329E+016.7655617607E+01+
*       7.0481029197E+02               0
GRID*              17667               01.0627077998E+026.6868704533E+01+
*       7.0774709685E+02               0
GRID*              17668               09.4523484723E+016.6868704829E+01+
*       7.0774709575E+02               0
GRID*              17669               05.5782157447E+017.6895624933E+01+
*       6.7032609328E+02               0
GRID*              17670               05.8822621930E+017.3958820711E+01+
*       6.8128640171E+02               0
GRID*              17671               06.4696231519E+017.1325766174E+01+
*       6.9111308765E+02               0
GRID*              17672               05.4293446330E+016.9014170359E+01+
*       6.4773907787E+02               0
GRID*              17673               05.7026011703E+015.8223177841E+01+
*       6.5011962220E+02               0
GRID*              17674               05.8844669443E+015.1619522331E+01+
*       6.5721285194E+02               0
GRID*              17675               06.3149928642E+014.5089716806E+01+
*       6.6606976921E+02               0
GRID*              17676               06.9159905326E+014.0953139679E+01+
*       6.7564204558E+02               0
GRID*              17677               07.6206811076E+013.9640190627E+01+
*       6.8493207299E+02               0
GRID*              17678               08.3345990117E+014.1602253318E+01+
*       6.9387577999E+02               0
GRID*              17679               09.1162496544E+014.6412185723E+01+
*       7.0194143106E+02               0
GRID*              17680               09.9035878190E+015.3997098205E+01+
*       7.0826269147E+02               0
GRID*              17681               06.1045071468E+015.0295763210E+01+
*       6.7732785402E+02               0
GRID*              17682               06.1130432863E+015.8321052413E+01+
*       6.8819628705E+02               0
GRID*              17683               05.5399616156E+016.1856630713E+01+
*       6.7883015451E+02               0
GRID*              17684               05.6105756910E+015.5470608309E+01+
*       6.6808531161E+02               0
GRID*              17685               05.2654751491E+016.4578158068E+01+
*       6.5925030900E+02               0
GRID*              17686               05.2304043234E+016.6055535070E+01+
*       6.7050682916E+02               0
GRID*              17687               06.7674895298E+014.7365546768E+01+
*       6.8621912012E+02               0
GRID*              17688               06.8954717066E+015.5806162309E+01+
*       6.9627777185E+02               0
GRID*              17689               07.4582541624E+014.6343403908E+01+
*       6.9302409754E+02               0
GRID*              17690               07.9690275583E+015.2869013627E+01+
*       7.0231635338E+02               0
GRID*              17691               08.9374505799E+015.6008815691E+01+
*       7.0796999126E+02               0
GRID*              17692               08.6692033588E+013.4550807757E+01+
*       6.8435052882E+02               0
GRID*              17693               09.8570346598E+013.2176796133E+01+
*       6.8358916969E+02               0
GRID*              17694               01.1037835216E+023.2800086001E+01+
*       6.8252884372E+02               0
GRID*              17695               01.2151899366E+023.6527103635E+01+
*       6.8194949956E+02               0
GRID*              17696               01.3194962823E+024.3193229306E+01+
*       6.8089424716E+02               0
GRID*              17697               01.3934449345E+025.0019554100E+01+
*       6.7794698831E+02               0
GRID*              17698               01.4474540520E+026.0411353480E+01+
*       6.7911138919E+02               0
GRID*              17699               09.4477369103E+013.7888641544E+01+
*       6.9333145153E+02               0
GRID*              17700               01.0252435423E+024.4060075068E+01+
*       7.0091725880E+02               0
GRID*              17701               01.1056040173E+025.3393041347E+01+
*       7.0673033943E+02               0
GRID*              17702               01.0597306466E+023.6872302027E+01+
*       6.9191096732E+02               0
GRID*              17703               01.1560278873E+023.7941925936E+01+
*       6.8976488048E+02               0
GRID*              17704               01.1389206512E+024.3933903242E+01+
*       6.9825101854E+02               0
GRID*              17705               01.2180358931E+025.4375551277E+01+
*       7.0291223550E+02               0
GRID*              17706               01.2556200324E+024.5281996161E+01+
*       6.9238084080E+02               0
GRID*              17707               01.3772427147E+025.5473206859E+01+
*       6.8874202574E+02               0
GRID*              17708               01.3086310275E+025.7429375482E+01+
*       6.9828840707E+02               0
GRID*              17709               09.5009767641E+017.9160019887E+01+
*       6.1494892873E+02               0
GRID*              17710               09.1146034576E+016.7864930392E+01+
*       6.1666173071E+02               0
GRID*              17711               08.6565153585E+015.8483173736E+01+
*       6.2093313101E+02               0
GRID*              17712               08.1614939176E+015.0815533662E+01+
*       6.2743068478E+02               0
GRID*              17713               07.6813104670E+014.5464400970E+01+
*       6.3536081317E+02               0
GRID*              17714               07.1630627655E+014.2820980822E+01+
*       6.4451551941E+02               0
GRID*              17715               06.6872484599E+014.2627650909E+01+
*       6.5489027780E+02               0
GRID*              17716               06.2981223140E+015.0196199118E+01+
*       6.4722540315E+02               0
GRID*              17717               06.0236128528E+015.9491901058E+01+
*       6.4165283687E+02               0
GRID*              17718               06.7803407809E+015.1301303290E+01+
*       6.3814858995E+02               0
GRID*              17719               05.8823093623E+017.1533315678E+01+
*       6.3774078895E+02               0
GRID*              17720               06.5914605638E+016.1158140271E+01+
*       6.3282266419E+02               0
GRID*              17721               07.2990558783E+015.3420722489E+01+
*       6.3112438808E+02               0
GRID*              17722               06.5931137891E+017.3676887588E+01+
*       6.2874080334E+02               0
GRID*              17723               08.4569277473E+017.8249237028E+01+
*       6.1722391477E+02               0
GRID*              17724               07.4838515971E+017.6283356639E+01+
*       6.2173133966E+02               0
GRID*              17725               07.5031895878E+016.2260471278E+01+
*       6.2470724403E+02               0
GRID*              17726               08.2236791878E+016.8093340115E+01+
*       6.1922491023E+02               0
GRID*              17727               09.3062206449E+014.8937723273E+01+
*       6.2493786917E+02               0
GRID*              17728               01.0030128913E+024.0998654724E+01+
*       6.3148693384E+02               0
GRID*              17729               01.0800756645E+023.5301571758E+01+
*       6.4050201348E+02               0
GRID*              17730               01.1514957498E+023.2532993291E+01+
*       6.5134356626E+02               0
GRID*              17731               01.2139768818E+023.3117386834E+01+
*       6.6200285836E+02               0
GRID*              17732               01.2693013912E+023.6658449958E+01+
*       6.7188505005E+02               0
GRID*              17733               01.0218161369E+023.0342152600E+01+
*       6.5102406112E+02               0
GRID*              17734               08.8748994466E+013.1641353984E+01+
*       6.5136841953E+02               0
GRID*              17735               07.6960189659E+013.5856253314E+01+
*       6.5284620208E+02               0
GRID*              17736               08.7794960275E+014.2006121136E+01+
*       6.3278515488E+02               0
GRID*              17737               08.2328206316E+013.7559781857E+01+
*       6.4219587923E+02               0
GRID*              17738               09.4704657762E+013.4931293928E+01+
*       6.4063806692E+02               0
GRID*              17739               01.1587459193E+023.1517896342E+01+
*       6.7246407254E+02               0
GRID*              17740               01.0931853926E+022.9282509764E+01+
*       6.6213904786E+02               0
GRID*              17741               08.3426831629E+013.1415140341E+01+
*       6.6293906482E+02               0
GRID*              17742               09.0868552465E+013.0163001310E+01+
*       6.7364457560E+02               0
GRID*              17743               07.9166263729E+013.4196554735E+01+
*       6.7434233578E+02               0
GRID*              17744               07.2384971370E+013.7002099274E+01+
*       6.6419055457E+02               0
GRID*              17745               01.0355136278E+022.9228106492E+01+
*       6.7305521822E+02               0
GRID*              17746               09.5985879383E+012.8661439719E+01+
*       6.6240902815E+02               0
GRID*              17747               09.7908503811E+015.8113403636E+01+
*       6.1902754561E+02               0
GRID*              17748               01.0543119596E+024.9483198779E+01+
*       6.2418554394E+02               0
GRID*              17749               01.1316948903E+024.2825596455E+01+
*       6.3193839961E+02               0
GRID*              17750               01.2040118127E+023.8758965114E+01+
*       6.4169223594E+02               0
GRID*              17751               01.2656033019E+023.7649696736E+01+
*       6.5225866716E+02               0
GRID*              17752               01.3149596358E+023.9331404929E+01+
*       6.6235807025E+02               0
GRID*              17753               01.3579817585E+024.3698233745E+01+
*       6.7109036531E+02               0
GRID*              17754               01.4267551973E+025.2248254602E+01+
*       6.6992394266E+02               0
GRID*              17755               01.3857474197E+024.6160607683E+01+
*       6.6321524757E+02               0
GRID*              17756               01.3600920051E+024.4937215549E+01+
*       6.5411867963E+02               0
GRID*              17757               01.3101855730E+024.4907070661E+01+
*       6.4368835457E+02               0
GRID*              17758               01.2473978650E+024.7445344908E+01+
*       6.3385847690E+02               0
GRID*              17759               01.1749442191E+025.2663072796E+01+
*       6.2535249996E+02               0
GRID*              17760               01.0955549868E+026.0225747384E+01+
*       6.1898786590E+02               0
GRID*              17761               01.0177887543E+026.9157022902E+01+
*       6.1553642236E+02               0
GRID*              17762               01.3727316184E+027.6064676510E+01+
*       6.3096801814E+02               0
GRID*              17763               01.3044363691E+027.0906816672E+01+
*       6.2539899917E+02               0
GRID*              17764               01.2070434974E+026.4672967933E+01+
*       6.2107763641E+02               0
GRID*              17765               01.0424834492E+028.0295090526E+01+
*       6.1483625183E+02               0
GRID*              17766               01.1220651433E+027.3092691847E+01+
*       6.1635938563E+02               0
GRID*              17767               01.2248401187E+027.8607744022E+01+
*       6.1979547407E+02               0
GRID*              17768               01.2808128062E+025.8231320268E+01+
*       6.2823566710E+02               0
GRID*              17769               01.3622953328E+026.5046111046E+01+
*       6.3244532665E+02               0
GRID*              17770               01.3414496802E+025.4280545555E+01+
*       6.3674943322E+02               0
GRID*              17771               01.4223935594E+027.2667388983E+01+
*       6.3789068245E+02               0
GRID*              17772               01.4040444764E+026.1751390545E+01+
*       6.3971818749E+02               0
GRID*              17773               01.3967668585E+025.3475094574E+01+
*       6.4634732265E+02               0
GRID*              17774               01.4802613311E+026.3830286973E+01+
*       6.6898094370E+02               0
GRID*              17775               01.4428096627E+025.5257315039E+01+
*       6.5849698993E+02               0
GRID*              17776               01.4629942906E+026.7004537038E+01+
*       6.4844243485E+02               0
GRID*              17777               01.4909455560E+026.8161557555E+01+
*       6.5981389643E+02               0
GRID*              17778               05.9254939398E+015.0101196647E+01+
*       6.6701766758E+02               0
GRID*              17779               05.7246884959E+015.3230850049E+01+
*       6.6271122173E+02               0
GRID*              17780               06.0821716627E+014.8027156365E+01+
*       6.6144162492E+02               0
GRID*              17781               05.8373743949E+015.2498214077E+01+
*       6.7254574848E+02               0
GRID*              17782               05.7789083982E+015.5935652468E+01+
*       6.7803849834E+02               0
GRID*              17783               05.5485594473E+015.8379621519E+01+
*       6.7367992611E+02               0
GRID*              17784               06.1858980235E+014.7379180029E+01+
*       6.7183079957E+02               0
GRID*              17785               05.8604902840E+016.5120438357E+01+
*       6.8866556848E+02               0
GRID*              17786               06.2380117034E+016.3769973326E+01+
*       6.9363851634E+02               0
GRID*              17787               05.8031044711E+015.9663817946E+01+
*       6.8345313486E+02               0
GRID*              17788               06.0814709263E+015.4017995454E+01+
*       6.8303627079E+02               0
GRID*              17789               05.5946564814E+016.6744613415E+01+
*       6.8434809344E+02               0
GRID*              17790               05.2091667042E+017.4798592528E+01+
*       6.5226291591E+02               0
GRID*              17791               05.3947112892E+017.6367119469E+01+
*       6.4626214801E+02               0
GRID*              17792               05.3483346756E+016.8305016627E+01+
*       6.7868314494E+02               0
GRID*              17793               05.1248656983E+017.2648602986E+01+
*       6.5749933805E+02               0
GRID*              17794               05.0947939523E+017.1078876854E+01+
*       6.6368018755E+02               0
GRID*              17795               05.3217476913E+016.6382836896E+01+
*       6.5328195273E+02               0
GRID*              17796               05.5394647042E+016.3577580073E+01+
*       6.4869611651E+02               0
GRID*              17797               05.4514353786E+016.1185812023E+01+
*       6.5475817621E+02               0
GRID*              17798               05.5241331893E+015.7976335819E+01+
*       6.5808139654E+02               0
GRID*              17799               05.7805673991E+015.4723571363E+01+
*       6.5348810947E+02               0
GRID*              17800               05.4068818267E+015.9654988018E+01+
*       6.6334300194E+02               0
GRID*              17801               05.3870188611E+016.0707595609E+01+
*       6.6930601187E+02               0
GRID*              17802               05.2245462493E+016.4950042459E+01+
*       6.6494428473E+02               0
GRID*              17803               05.1011282563E+017.1883604260E+01+
*       6.6893768624E+02               0
GRID*              17804               05.2117467635E+017.0320007361E+01+
*       6.7482722476E+02               0
GRID*              17805               05.3658633958E+016.3683948831E+01+
*       6.7457603566E+02               0
GRID*              17806               06.4195930098E+014.8452945228E+01+
*       6.8173128019E+02               0
GRID*              17807               06.3986711429E+015.2659919499E+01+
*       6.8725555230E+02               0
GRID*              17808               06.8231726858E+014.3871136919E+01+
*       6.8114600640E+02               0
GRID*              17809               07.2585160999E+013.9918296270E+01+
*       6.8028639874E+02               0
GRID*              17810               07.1650638821E+014.3247147871E+01+
*       6.8555197691E+02               0
GRID*              17811               06.4754150223E+014.5391334657E+01+
*       6.7644015379E+02               0
GRID*              17812               06.6002941974E+014.2639170675E+01+
*       6.7074021383E+02               0
GRID*              17813               06.4841755003E+015.6627654371E+01+
*       6.9224007308E+02               0
GRID*              17814               06.8135878635E+015.1309242869E+01+
*       6.9156765446E+02               0
GRID*              17815               06.5990590399E+016.2621602877E+01+
*       6.9731306059E+02               0
GRID*              17816               07.0857699212E+016.1544276593E+01+
*       7.0129609479E+02               0
GRID*              17817               07.5252443634E+014.2815409680E+01+
*       6.8915427070E+02               0
GRID*              17818               07.9752933137E+014.0257484523E+01+
*       6.8950682894E+02               0
GRID*              17819               07.8794714391E+014.3713970866E+01+
*       6.9344655349E+02               0
GRID*              17820               07.1051335166E+014.6580389117E+01+
*       6.8965870769E+02               0
GRID*              17821               07.1463055643E+015.0921781049E+01+
*       6.9476691919E+02               0
GRID*              17822               09.6631789217E+015.9655248197E+01+
*       7.1084599059E+02               0
GRID*              17823               01.0303986613E+025.9623263866E+01+
*       7.1091080293E+02               0
GRID*              17824               07.4093105026E+015.3816882515E+01+
*       6.9933635610E+02               0
GRID*              17825               07.7124429779E+014.9288636097E+01+
*       6.9796862604E+02               0
GRID*              17826               07.5703462564E+016.0083816491E+01+
*       7.0407503032E+02               0
GRID*              17827               08.1460389522E+015.9415145177E+01+
*       7.0684667583E+02               0
GRID*              17828               08.1219727978E+014.6963139365E+01+
*       6.9845978555E+02               0
GRID*              17829               08.7300276928E+014.3640461473E+01+
*       6.9810579275E+02               0
GRID*              17830               08.5096696229E+014.9177744286E+01+
*       7.0221589251E+02               0
GRID*              17831               09.0152454156E+015.1076869638E+01+
*       7.0524320198E+02               0
GRID*              17832               08.4572147308E+015.4046775765E+01+
*       7.0534274648E+02               0
GRID*              17833               08.6072132648E+016.0998244047E+01+
*       7.0927757376E+02               0
GRID*              17834               09.2205250507E+016.0718656767E+01+
*       7.1069244843E+02               0
GRID*              17835               09.4108836518E+015.4679356739E+01+
*       7.0820721403E+02               0
GRID*              17836               09.5262798056E+014.9902454168E+01+
*       7.0540295576E+02               0
GRID*              17837               08.8742448112E+013.9367710030E+01+
*       6.9362475294E+02               0
GRID*              17838               09.2679227128E+014.1887666438E+01+
*       6.9791066197E+02               0
GRID*              17839               09.0633788632E+013.5849301398E+01+
*       6.8899893199E+02               0
GRID*              17840               09.2494429224E+013.2979909658E+01+
*       6.8396849278E+02               0
GRID*              17841               09.6400374838E+013.4727906896E+01+
*       6.8863942449E+02               0
GRID*              17842               08.4868583092E+013.7791141867E+01+
*       6.8931989537E+02               0
GRID*              17843               08.1232067580E+013.6770914115E+01+
*       6.8461205395E+02               0
GRID*              17844               09.6709500084E+014.4808988096E+01+
*       7.0148939289E+02               0
GRID*              17845               09.8608407941E+014.0635902040E+01+
*       6.9735501664E+02               0
GRID*              17846               01.0061047314E+024.8785170397E+01+
*       7.0492597991E+02               0
GRID*              17847               01.0474628759E+025.3217279877E+01+
*       7.0761871320E+02               0
GRID*              17848               01.0676048407E+024.8418092025E+01+
*       7.0414452805E+02               0
GRID*              17849               01.0829167068E+025.9320050025E+01+
*       7.1018272656E+02               0
GRID*              17850               01.1462570255E+025.9696962959E+01+
*       7.0877876247E+02               0
GRID*              17851               01.0236542502E+023.4200108148E+01+
*       6.8791357069E+02               0
GRID*              17852               01.0448368557E+023.2116443995E+01+
*       6.8308208956E+02               0
GRID*              17853               01.0809967488E+023.4540834821E+01+
*       6.8736016876E+02               0
GRID*              17854               01.0016459071E+023.6998918143E+01+
*       6.9266258818E+02               0
GRID*              17855               01.0414195831E+024.0181460601E+01+
*       6.9665382948E+02               0
GRID*              17856               01.0818799730E+024.3582005453E+01+
*       6.9966515770E+02               0
GRID*              17857               01.1216667909E+024.8395387908E+01+
*       7.0286544864E+02               0
GRID*              17858               01.1011908411E+024.0109021549E+01+
*       6.9528013777E+02               0
GRID*              17859               01.1308366381E+023.5155144186E+01+
*       6.8627533870E+02               0
GRID*              17860               01.1609732302E+023.4328075137E+01+
*       6.8225241595E+02               0
GRID*              17861               01.1853825058E+023.6965161369E+01+
*       6.8592981039E+02               0
GRID*              17862               01.1082617092E+023.7137613346E+01+
*       6.9086938302E+02               0
GRID*              17863               01.1473004173E+024.0719392562E+01+
*       6.9420798351E+02               0
GRID*              17864               01.1980266448E+026.0181312556E+01+
*       7.0697156283E+02               0
GRID*              17865               01.2547170904E+026.0950970750E+01+
*       7.0422799404E+02               0
GRID*              17866               01.1625637432E+025.3422514005E+01+
*       7.0494885826E+02               0
GRID*              17867               01.1818486184E+024.8888437748E+01+
*       7.0086997622E+02               0
GRID*              17868               01.1979704680E+024.4080146864E+01+
*       6.9538822267E+02               0
GRID*              17869               01.2368161584E+024.9434249988E+01+
*       6.9808718645E+02               0
GRID*              17870               01.2373118211E+024.0544522781E+01+
*       6.8748382665E+02               0
GRID*              17871               01.2697866231E+023.9530444395E+01+
*       6.8142550126E+02               0
GRID*              17872               01.2880467671E+024.3743633987E+01+
*       6.8680729909E+02               0
GRID*              17873               01.2084490854E+024.1296045418E+01+
*       6.9118532964E+02               0
GRID*              17874               01.4465511066E+026.6065123351E+01+
*       6.8436746267E+02               0
GRID*              17875               01.4714766568E+026.7653167612E+01+
*       6.7874306979E+02               0
GRID*              17876               01.4157427114E+026.3688083306E+01+
*       6.8889136683E+02               0
GRID*              17877               01.3768141361E+026.2396135268E+01+
*       6.9386270594E+02               0
GRID*              17878               01.4152717793E+025.7494065738E+01+
*       6.8390313916E+02               0
GRID*              17879               01.3867349893E+025.2406619715E+01+
*       6.8358464189E+02               0
GRID*              17880               01.4238840245E+025.5120195924E+01+
*       6.7858219063E+02               0
GRID*              17881               01.3527501485E+024.9032552549E+01+
*       6.8514985310E+02               0
GRID*              17882               01.3217190958E+024.9810403030E+01+
*       6.9057694505E+02               0
GRID*              17883               01.3585527916E+024.6391039826E+01+
*       6.7938751824E+02               0
GRID*              17884               01.3437608778E+026.3447710851E+01+
*       6.9813930481E+02               0
GRID*              17885               01.3435975783E+025.5994113544E+01+
*       6.9370053105E+02               0
GRID*              17886               01.2858603961E+025.1157445398E+01+
*       6.9567421999E+02               0
GRID*              17887               01.2954289287E+026.2451810724E+01+
*       7.0201097175E+02               0
GRID*              17888               01.2650179606E+025.5546381398E+01+
*       7.0064571635E+02               0
GRID*              17889               06.2543429977E+014.6927140500E+01+
*       6.5596014064E+02               0
GRID*              17890               06.4820249941E+014.3528066799E+01+
*       6.6051438941E+02               0
GRID*              17891               06.4794171670E+014.6149152239E+01+
*       6.5082172319E+02               0
GRID*              17892               06.7056993008E+014.6301990016E+01+
*       6.4575437716E+02               0
GRID*              17893               06.9122378182E+014.2408687987E+01+
*       6.4963997203E+02               0
GRID*              17894               06.0746259114E+015.0620152706E+01+
*       6.5219426263E+02               0
GRID*              17895               05.9762970801E+015.4101762203E+01+
*       6.4859967492E+02               0
GRID*              17896               05.8521365753E+015.8638434677E+01+
*       6.4580367192E+02               0
GRID*              17897               06.1447100523E+015.4681573697E+01+
*       6.4416874557E+02               0
GRID*              17898               05.6852323813E+016.4144494500E+01+
*       6.4464789749E+02               0
GRID*              17899               06.9594311203E+014.6863876499E+01+
*       6.4107995490E+02               0
GRID*              17900               07.2101756287E+014.8179151981E+01+
*       6.3663249136E+02               0
GRID*              17901               07.4157713770E+014.3859224390E+01+
*       6.3980620725E+02               0
GRID*              17902               06.5280611920E+015.0484311184E+01+
*       6.4259204139E+02               0
GRID*              17903               06.3735370234E+015.5238062428E+01+
*       6.3977858263E+02               0
GRID*              17904               05.5989017538E+017.7594348174E+01+
*       6.4169050269E+02               0
GRID*              17905               05.9189627426E+017.8990358907E+01+
*       6.3633954116E+02               0
GRID*              17906               05.6345746711E+016.9966304914E+01+
*       6.4255980469E+02               0
GRID*              17907               05.9280750337E+016.5438726634E+01+
*       6.3933362778E+02               0
GRID*              17908               06.2950298395E+016.0036048593E+01+
*       6.3708569644E+02               0
GRID*              17909               06.6721978057E+015.6085343444E+01+
*       6.3520181236E+02               0
GRID*              17910               06.1924174140E+016.6224555459E+01+
*       6.3513614528E+02               0
GRID*              17911               07.4798545232E+014.9330697332E+01+
*       6.3304908823E+02               0
GRID*              17912               07.7171056950E+015.1928671551E+01+
*       6.2917025112E+02               0
GRID*              17913               07.9188717416E+014.7904576984E+01+
*       6.3119692692E+02               0
GRID*              17914               07.0324476491E+015.2176362666E+01+
*       6.3453384605E+02               0
GRID*              17915               06.9229391220E+015.7168171893E+01+
*       6.3183300847E+02               0
GRID*              17916               06.2408687703E+017.9968558450E+01+
*       6.3217974660E+02               0
GRID*              17917               06.6863114855E+018.1146076280E+01+
*       6.2766558976E+02               0
GRID*              17918               06.2185493466E+017.2277939215E+01+
*       6.3299481967E+02               0
GRID*              17919               06.5734474685E+016.7351962284E+01+
*       6.3035812906E+02               0
GRID*              17920               08.6711734696E+018.4769368104E+01+
*       6.1698315782E+02               0
GRID*              17921               08.0750207390E+018.4206855794E+01+
*       6.1904019126E+02               0
GRID*              17922               09.1525332102E+018.5220029251E+01+
*       6.1591833524E+02               0
GRID*              17923               09.7798814805E+018.5392106597E+01+
*       6.1520957152E+02               0
GRID*              17924               08.9746787689E+017.8422974264E+01+
*       6.1579974153E+02               0
GRID*              17925               09.3181665605E+017.3490021013E+01+
*       6.1542146791E+02               0
GRID*              17926               08.7641984127E+017.2992909265E+01+
*       6.1661167654E+02               0
GRID*              17927               07.0943279103E+018.2368528890E+01+
*       6.2444226518E+02               0
GRID*              17928               07.0290455185E+017.4637089969E+01+
*       6.2491179908E+02               0
GRID*              17929               07.6302285924E+018.3270734958E+01+
*       6.2111069492E+02               0
GRID*              17930               07.9663654076E+017.6952512077E+01+
*       6.1917722213E+02               0
GRID*              17931               06.9993372999E+016.7791005521E+01+
*       6.2640673489E+02               0
GRID*              17932               07.4796838890E+016.9234243778E+01+
*       6.2269607345E+02               0
GRID*              17933               07.0319099106E+016.1347928721E+01+
*       6.2854141263E+02               0
GRID*              17934               07.3965624649E+015.7681627489E+01+
*       6.2761899712E+02               0
GRID*              17935               07.8085629644E+015.6388361225E+01+
*       6.2570380404E+02               0
GRID*              17936               08.0602960734E+016.0034756226E+01+
*       6.2257708567E+02               0
GRID*              17937               08.4122104024E+015.4451985334E+01+
*       6.2389872570E+02               0
GRID*              17938               07.8654101717E+016.4945728524E+01+
*       6.2168956469E+02               0
GRID*              17939               08.4249053764E+016.3237839905E+01+
*       6.1983194341E+02               0
GRID*              17940               07.8276871985E+017.2082244818E+01+
*       6.2026107414E+02               0
GRID*              17941               08.3414633397E+017.3151637393E+01+
*       6.1792027275E+02               0
GRID*              17942               08.6643647440E+016.7779140514E+01+
*       6.1777264358E+02               0
GRID*              17943               08.8946874271E+016.3026569317E+01+
*       6.1847808504E+02               0
GRID*              17944               07.4190690227E+013.9040970562E+01+
*       6.4844006866E+02               0
GRID*              17945               07.1661604747E+013.8975899376E+01+
*       6.5375483758E+02               0
GRID*              17946               07.6766972159E+013.9912110035E+01+
*       6.4322630965E+02               0
GRID*              17947               07.9455998038E+014.1276653577E+01+
*       6.3853441119E+02               0
GRID*              17948               07.9562147489E+013.6361628803E+01+
*       6.4740872409E+02               0
GRID*              17949               08.7230658464E+014.9570853539E+01+
*       6.2599215793E+02               0
GRID*              17950               08.9660434423E+015.3546030940E+01+
*       6.2262595238E+02               0
GRID*              17951               09.0475331858E+014.5220455269E+01+
*       6.2860203073E+02               0
GRID*              17952               08.4570919196E+014.6210731069E+01+
*       6.2983336553E+02               0
GRID*              17953               08.2142583313E+014.3449151810E+01+
*       6.3392610868E+02               0
GRID*              17954               08.5040991065E+013.9473969361E+01+
*       6.3730792592E+02               0
GRID*              17955               01.0138366780E+023.4737562591E+01+
*       6.4033710615E+02               0
GRID*              17956               09.7568526080E+013.7665598484E+01+
*       6.3581808325E+02               0
GRID*              17957               01.0411224074E+023.7824489207E+01+
*       6.3569481137E+02               0
GRID*              17958               01.0526239172E+023.2486099024E+01+
*       6.4550073995E+02               0
GRID*              17959               01.1171306583E+023.3495132483E+01+
*       6.4583546136E+02               0
GRID*              17960               01.0887521155E+023.1020324586E+01+
*       6.5116970878E+02               0
GRID*              17961               09.8397086127E+013.2293330512E+01+
*       6.4545053987E+02               0
GRID*              17962               09.5236926501E+013.0607982496E+01+
*       6.5094926459E+02               0
GRID*              17963               09.1731434784E+013.2905053740E+01+
*       6.4584622597E+02               0
GRID*              17964               09.3974633470E+014.1155734401E+01+
*       6.3193486333E+02               0
GRID*              17965               09.6572627882E+014.4715671953E+01+
*       6.2791445482E+02               0
GRID*              17966               09.1152618772E+013.8181337610E+01+
*       6.3644380827E+02               0
GRID*              17967               08.5482203966E+013.4264591141E+01+
*       6.4653587636E+02               0
GRID*              17968               08.2659175964E+013.3420453334E+01+
*       6.5197267717E+02               0
GRID*              17969               08.8358953722E+013.5894294947E+01+
*       6.4126440621E+02               0
GRID*              17970               01.1228849619E+023.0510521623E+01+
*       6.5667307092E+02               0
GRID*              17971               01.0577593905E+022.9344066239E+01+
*       6.5671365732E+02               0
GRID*              17972               01.1835065417E+023.2429242870E+01+
*       6.5672149491E+02               0
GRID*              17973               01.1554018548E+023.0836452825E+01+
*       6.6202881748E+02               0
GRID*              17974               01.2426561767E+023.6239559931E+01+
*       6.7695873915E+02               0
GRID*              17975               01.2960792588E+023.9624097700E+01+
*       6.7656546539E+02               0
GRID*              17976               01.1882609981E+023.3704273308E+01+
*       6.7735038003E+02               0
GRID*              17977               01.2159682455E+023.3758585566E+01+
*       6.7215535557E+02               0
GRID*              17978               01.1868378601E+023.1950675587E+01+
*       6.6721719123E+02               0
GRID*              17979               01.1269077523E+023.0027815769E+01+
*       6.6738308208E+02               0
GRID*              17980               01.2428341493E+023.4555737724E+01+
*       6.6704595717E+02               0
GRID*              17981               08.8637309573E+013.2022523074E+01+
*       6.7912152432E+02               0
GRID*              17982               08.2878702204E+013.3968980714E+01+
*       6.7940268563E+02               0
GRID*              17983               08.4810011699E+013.1820280801E+01+
*       6.7391984915E+02               0
GRID*              17984               09.4761763146E+013.0771481533E+01+
*       6.7873237890E+02               0
GRID*              17985               07.7517314499E+013.6615650742E+01+
*       6.7979332312E+02               0
GRID*              17986               07.3896372394E+013.7279365426E+01+
*       6.7492323159E+02               0
GRID*              17987               07.4519315130E+013.6076000331E+01+
*       6.5851474854E+02               0
GRID*              17988               08.0088398157E+013.3258332550E+01+
*       6.5769904276E+02               0
GRID*              17989               07.7671867453E+013.3895249491E+01+
*       6.6343894348E+02               0
GRID*              17990               06.9492547040E+013.9470471093E+01+
*       6.5934584204E+02               0
GRID*              17991               06.7465460338E+014.0794732445E+01+
*       6.6503991362E+02               0
GRID*              17992               07.0585002701E+013.8635557880E+01+
*       6.7001504976E+02               0
GRID*              17993               07.5661536063E+013.5199596732E+01+
*       6.6917991635E+02               0
GRID*              17994               08.1142627633E+013.2451924042E+01+
*       6.6872350174E+02               0
GRID*              17995               08.7071583456E+013.0362249173E+01+
*       6.6829561193E+02               0
GRID*              17996               01.1310379142E+023.1814546500E+01+
*       6.7756944928E+02               0
GRID*              17997               01.0706790181E+023.0670706660E+01+
*       6.7791481693E+02               0
GRID*              17998               01.0983015556E+022.9987483226E+01+
*       6.7275808753E+02               0
GRID*              17999               01.0095837483E+023.0353936257E+01+
*       6.7842651680E+02               0
GRID*              18000               09.7127123801E+012.9286752368E+01+
*       6.7334891649E+02               0
GRID*              18001               08.5942227462E+013.1143802319E+01+
*       6.5714209971E+02               0
GRID*              18002               09.2217758470E+012.9726831352E+01+
*       6.5674848221E+02               0
GRID*              18003               08.9500481803E+012.9663369725E+01+
*       6.6254243494E+02               0
GRID*              18004               09.8901099982E+012.9064329346E+01+
*       6.5676670696E+02               0
GRID*              18005               01.0272407750E+022.8525306887E+01+
*       6.6230453073E+02               0
GRID*              18006               09.3313713078E+012.9039091209E+01+
*       6.6808061991E+02               0
GRID*              18007               09.9847880441E+012.8520121622E+01+
*       6.6783146753E+02               0
GRID*              18008               01.0639839951E+022.8867391366E+01+
*       6.6764016553E+02               0
GRID*              18009               01.2106101941E+023.4753653207E+01+
*       6.5174453552E+02               0
GRID*              18010               01.2408842666E+023.5050058007E+01+
*       6.5702833167E+02               0
GRID*              18011               01.1792185772E+023.5326601467E+01+
*       6.4631665171E+02               0
GRID*              18012               01.2359519627E+023.7818620869E+01+
*       6.4694041529E+02               0
GRID*              18013               01.3394448495E+024.3131962997E+01+
*       6.7603725713E+02               0
GRID*              18014               01.3773283285E+024.6696424795E+01+
*       6.7464826729E+02               0
GRID*              18015               01.3159043446E+023.9937213184E+01+
*       6.7146162214E+02               0
GRID*              18016               01.2929487802E+023.7685108277E+01+
*       6.6708559495E+02               0
GRID*              18017               01.3378437887E+024.1259683675E+01+
*       6.6682154045E+02               0
GRID*              18018               01.2667122744E+023.5949791264E+01+
*       6.6214235802E+02               0
GRID*              18019               01.2914450759E+023.8163582934E+01+
*       6.5734901474E+02               0
GRID*              18020               09.2202344165E+015.7994939244E+01+
*       6.1975431934E+02               0
GRID*              18021               09.5582746843E+015.3324223084E+01+
*       6.2167289185E+02               0
GRID*              18022               09.4372492583E+016.2868249531E+01+
*       6.1751446654E+02               0
GRID*              18023               09.9278771692E+014.8860785785E+01+
*       6.2433794347E+02               0
GRID*              18024               01.0298712848E+024.4993188845E+01+
*       6.2755490970E+02               0
GRID*              18025               01.0157134644E+025.3573144879E+01+
*       6.2127651017E+02               0
GRID*              18026               01.1442072476E+023.6641313294E+01+
*       6.4102558269E+02               0
GRID*              18027               01.1070692327E+023.8779528661E+01+
*       6.3597013608E+02               0
GRID*              18028               01.1686529868E+024.0432999861E+01+
*       6.3661484899E+02               0
GRID*              18029               01.0686318068E+024.1533105272E+01+
*       6.3151849513E+02               0
GRID*              18030               01.0927713536E+024.5858719488E+01+
*       6.2775818140E+02               0
GRID*              18031               01.1104935565E+026.6598707792E+01+
*       6.1725099319E+02               0
GRID*              18032               01.1640026310E+026.8642832469E+01+
*       6.1830158305E+02               0
GRID*              18033               01.1535284742E+026.2111752792E+01+
*       6.1981366644E+02               0
GRID*              18034               09.9658413206E+017.9520105870E+01+
*       6.1466993815E+02               0
GRID*              18035               01.0310473234E+027.4732702571E+01+
*       6.1486169150E+02               0
GRID*              18036               09.8220505178E+017.4094902259E+01+
*       6.1488692198E+02               0
GRID*              18037               01.0211906140E+028.5956263905E+01+
*       6.1525411802E+02               0
GRID*              18038               01.0713508841E+027.0851993755E+01+
*       6.1568917162E+02               0
GRID*              18039               01.0556460989E+026.4504821327E+01+
*       6.1690524800E+02               0
GRID*              18040               01.0812822421E+027.6562596584E+01+
*       6.1528835328E+02               0
GRID*              18041               01.3489147071E+028.2271747757E+01+
*       6.2866239969E+02               0
GRID*              18042               01.3921247891E+028.1139156176E+01+
*       6.3325240115E+02               0
GRID*              18043               01.0836162090E+028.5677792964E+01+
*       6.1582778964E+02               0
GRID*              18044               01.2648796067E+027.4481893212E+01+
*       6.2218121911E+02               0
GRID*              18045               01.2590429370E+026.7479118079E+01+
*       6.2306175365E+02               0
GRID*              18046               01.2184235582E+027.1647092608E+01+
*       6.1999484132E+02               0
GRID*              18047               01.2807013167E+028.3236810137E+01+
*       6.2328847839E+02               0
GRID*              18048               01.2266138248E+028.4524788830E+01+
*       6.2030157862E+02               0
GRID*              18049               01.3190463402E+027.9915816865E+01+
*       6.2585762050E+02               0
GRID*              18050               01.3412146044E+027.3301934652E+01+
*       6.2809390717E+02               0
GRID*              18051               01.1766163164E+027.5532918235E+01+
*       6.1781611676E+02               0
GRID*              18052               01.1697522554E+028.4674641283E+01+
*       6.1789765477E+02               0
GRID*              18053               01.1214415763E+028.2395291404E+01+
*       6.1621497329E+02               0
GRID*              18054               01.1930195834E+025.8533728059E+01+
*       6.2285148779E+02               0
GRID*              18055               01.1350136361E+025.6171489957E+01+
*       6.2183329084E+02               0
GRID*              18056               01.2304704670E+025.5133691864E+01+
*       6.2664017345E+02               0
GRID*              18057               01.2661751044E+025.2668911651E+01+
*       6.3074675776E+02               0
GRID*              18058               01.2117815952E+024.9733635683E+01+
*       6.2936101368E+02               0
GRID*              18059               01.2441816481E+026.1183795197E+01+
*       6.2432803698E+02               0
GRID*              18060               01.2951551189E+026.4501413746E+01+
*       6.2646189305E+02               0
GRID*              18061               01.3341571664E+026.7738352362E+01+
*       6.2865556038E+02               0
GRID*              18062               01.3245246451E+026.1415553833E+01+
*       6.3025106743E+02               0
GRID*              18063               01.3695089745E+027.0543704617E+01+
*       6.3145815944E+02               0
GRID*              18064               01.2972018198E+025.0592235463E+01+
*       6.3522438028E+02               0
GRID*              18065               01.3277505024E+024.9391757789E+01+
*       6.3996889441E+02               0
GRID*              18066               01.2799463574E+024.5826920581E+01+
*       6.3864583747E+02               0
GRID*              18067               01.3120632165E+025.5962924108E+01+
*       6.3230020447E+02               0
GRID*              18068               01.3539398660E+025.9550716521E+01+
*       6.3433192098E+02               0
GRID*              18069               01.4160014680E+027.9574029958E+01+
*       6.3635086632E+02               0
GRID*              18070               01.4479820683E+027.8087486068E+01+
*       6.4166454657E+02               0
GRID*              18071               01.3985748159E+027.4163964290E+01+
*       6.3424172280E+02               0
GRID*              18072               01.3955371618E+026.8708159978E+01+
*       6.3511379448E+02               0
GRID*              18073               01.3841231197E+026.3204358445E+01+
*       6.3595640176E+02               0
GRID*              18074               01.3751246142E+025.7883063047E+01+
*       6.3817861896E+02               0
GRID*              18075               01.4156596463E+026.7211841861E+01+
*       6.3858324188E+02               0
GRID*              18076               01.3566956504E+024.8951269499E+01+
*       6.4496243476E+02               0
GRID*              18077               01.3805675737E+024.8963938020E+01+
*       6.5001216826E+02               0
GRID*              18078               01.3365349765E+024.4569399610E+01+
*       6.4889066275E+02               0
GRID*              18079               01.3705719695E+025.3556997763E+01+
*       6.4145589720E+02               0
GRID*              18080               01.4019547075E+025.7450451838E+01+
*       6.4282243609E+02               0
GRID*              18081               01.4660746566E+026.1760866424E+01+
*       6.7399111561E+02               0
GRID*              18082               01.4396799055E+025.6070556565E+01+
*       6.7476487454E+02               0
GRID*              18083               01.4576165341E+025.7936842806E+01+
*       6.6941330680E+02               0
GRID*              18084               01.4863375091E+026.9191582233E+01+
*       6.7404057045E+02               0
GRID*              18085               01.4970339359E+027.0836580870E+01+
*       6.6803553916E+02               0
GRID*              18086               01.4365367906E+025.3343472609E+01+
*       6.6415948352E+02               0
GRID*              18087               01.4654780563E+025.9189540418E+01+
*       6.6397257555E+02               0
GRID*              18088               01.4079754113E+024.9026819356E+01+
*       6.6667404897E+02               0
GRID*              18089               01.4169893684E+025.0510445766E+01+
*       6.6072211282E+02               0
GRID*              18090               01.4057103388E+024.9840372894E+01+
*       6.5631589257E+02               0
GRID*              18091               01.4222523082E+025.3890452043E+01+
*       6.5244936264E+02               0
GRID*              18092               01.3739009887E+024.5308701019E+01+
*       6.5869978147E+02               0
GRID*              18093               01.4685632582E+027.5441727854E+01+
*       6.4641230288E+02               0
GRID*              18094               01.4866160391E+027.3807600443E+01+
*       6.5243324199E+02               0
GRID*              18095               01.4450607632E+026.9455310153E+01+
*       6.4287826231E+02               0
GRID*              18096               01.4366653358E+026.4073534701E+01+
*       6.4410829426E+02               0
GRID*              18097               01.4354555040E+026.0085249978E+01+
*       6.4726837673E+02               0
GRID*              18098               01.4570584039E+026.0735959436E+01+
*       6.5305315197E+02               0
GRID*              18099               01.4975793774E+027.4481966428E+01+
*       6.5772165165E+02               0
GRID*              18100               01.4796612521E+026.7164586407E+01+
*       6.5413570460E+02               0
GRID*              18101               01.4716986669E+026.1642165487E+01+
*       6.5908885823E+02               0
GRID*              18102               01.5008105599E+027.2872802254E+01+
*       6.6376832926E+02               0
GRID*              18103               01.4875563583E+026.5715064329E+01+
*       6.6427457782E+02               0
GRID*              18104               09.6494758690E+016.8238373746E+01+
*       6.1585484517E+02               0
GRID*              18105               09.9954048158E+016.3528662827E+01+
*       6.1692206716E+02               0
GRID*              18106               01.0383652435E+025.8837927238E+01+
*       6.1877337104E+02               0
GRID*              18107               01.0766686849E+025.4671162835E+01+
*       6.2125486878E+02               0
GRID*              18108               01.4110824762E+025.0909671469E+01+
*       6.7392645621E+02               0
GRID*              18109               01.3949550475E+024.7799350469E+01+
*       6.7047833368E+02               0
GRID*              18110               01.3726852594E+024.4734918934E+01+
*       6.6712013475E+02               0
GRID*              18111               01.3523452751E+024.2599994576E+01+
*       6.6276156117E+02               0
GRID*              18112               01.3388909748E+024.1868091105E+01+
*       6.5812958803E+02               0
GRID*              18113               01.1164012971E+025.0712816258E+01+
*       6.2457571394E+02               0
GRID*              18114               01.1550245206E+024.7525059886E+01+
*       6.2835374139E+02               0
GRID*              18115               01.1919032131E+024.4780429006E+01+
*       6.3278582306E+02               0
GRID*              18116               01.2274366127E+024.2851572716E+01+
*       6.3752644334E+02               0
GRID*              18117               01.3154680831E+024.1031251270E+01+
*       6.5315945044E+02               0
GRID*              18118               01.2895585325E+024.1001271989E+01+
*       6.4778383424E+02               0
GRID*              18119               01.2596414728E+024.1516537972E+01+
*       6.4263494508E+02               0
GRID*              18120               05.7826319402E+016.7344889562E+01+
*       6.5515720641E+02               0
GRID*              18121               06.4079794975E+015.8821674071E+01+
*       6.4670468914E+02               0
GRID*              18122               07.2394282760E+015.2785675770E+01+
*       6.4048764590E+02               0
GRID*              18123               08.1305588546E+014.9714425651E+01+
*       6.3572585948E+02               0
GRID*              18124               09.0748818283E+014.9645942237E+01+
*       6.3142280911E+02               0
GRID*              18125               01.0070766877E+025.2170947235E+01+
*       6.2809950690E+02               0
GRID*              18126               01.1060843182E+025.7274432887E+01+
*       6.2626261797E+02               0
GRID*              18127               01.1970592380E+026.4844075456E+01+
*       6.2633811313E+02               0
GRID*              18128               01.2714532600E+027.4819611152E+01+
*       6.2864393269E+02               0
GRID*              18129               08.3227096529E+015.6958734120E+01+
*       6.2901834472E+02               0
GRID*              18130               08.4478152396E+016.5615351705E+01+
*       6.2455573200E+02               0
GRID*              18131               08.6068595393E+017.6110811897E+01+
*       6.2205675085E+02               0
GRID*              18132               07.1785457685E+017.4906640101E+01+
*       6.3009718206E+02               0
GRID*              18133               07.6875222055E+016.4752749759E+01+
*       6.2880484513E+02               0
GRID*              18134               07.8976098333E+017.3060606334E+01+
*       6.2544184310E+02               0
GRID*              18135               07.6235354947E+015.7008033102E+01+
*       6.3330087448E+02               0
GRID*              18136               06.8741978907E+016.4101565813E+01+
*       6.3605071116E+02               0
GRID*              18137               06.0979225851E+017.1086472156E+01+
*       6.4421927643E+02               0
GRID*              18138               06.5342088052E+017.5674587567E+01+
*       6.3656977466E+02               0
GRID*              18139               01.0025300514E+026.2365192229E+01+
*       6.2261239067E+02               0
GRID*              18140               09.1769705484E+016.7012021650E+01+
*       6.2198476235E+02               0
GRID*              18141               09.1673194375E+015.8280092172E+01+
*       6.2536562625E+02               0
GRID*              18142               01.1691951961E+027.7109325945E+01+
*       6.2281565878E+02               0
GRID*              18143               01.0909267695E+026.8645673212E+01+
*       6.2159498269E+02               0
GRID*              18144               09.7519346723E+017.5640987402E+01+
*       6.1983020775E+02               0
GRID*              18145               01.0744678436E+027.9714559675E+01+
*       6.2022688479E+02               0
GRID*              18146               01.2933978885E+026.2802153266E+01+
*       6.3393531645E+02               0
GRID*              18147               01.2979556927E+025.3197904407E+01+
*       6.4174414978E+02               0
GRID*              18148               01.2885386849E+024.6262721443E+01+
*       6.5118430813E+02               0
GRID*              18149               01.2698458991E+024.2239092892E+01+
*       6.6159546486E+02               0
GRID*              18150               01.2443337646E+024.1175352603E+01+
*       6.7242395560E+02               0
GRID*              18151               01.2137534717E+024.2841584489E+01+
*       6.8252351788E+02               0
GRID*              18152               01.1867790359E+024.7326902144E+01+
*       6.9156483985E+02               0
GRID*              18153               01.1600788797E+025.5402162725E+01+
*       7.0003120789E+02               0
GRID*              18154               01.4308156610E+026.4239706143E+01+
*       6.6609240230E+02               0
GRID*              18155               01.3866280997E+025.4773670845E+01+
*       6.6598686433E+02               0
GRID*              18156               01.3312060490E+024.7889850228E+01+
*       6.6937807261E+02               0
GRID*              18157               01.3036805334E+024.8418575221E+01+
*       6.7971554612E+02               0
GRID*              18158               01.3913805760E+025.8758388272E+01+
*       6.7638776937E+02               0
GRID*              18159               01.2577759854E+025.7005383186E+01+
*       6.9502366607E+02               0
GRID*              18160               01.2637326855E+024.9780476588E+01+
*       6.8767943588E+02               0
GRID*              18161               01.3340681776E+025.8170549740E+01+
*       6.8757573244E+02               0
GRID*              18162               01.3972474004E+025.7179686701E+01+
*       6.5942148708E+02               0
GRID*              18163               01.3631521438E+025.4824535687E+01+
*       6.5129793087E+02               0
GRID*              18164               01.3464108358E+024.9632580296E+01+
*       6.5976646186E+02               0
GRID*              18165               01.3679483244E+026.2841004476E+01+
*       6.4325998828E+02               0
GRID*              18166               01.3549514618E+027.3310746113E+01+
*       6.3695635819E+02               0
GRID*              18167               01.4252270351E+026.6394684930E+01+
*       6.5436026987E+02               0
GRID*              18168               01.4073304687E+027.2978640646E+01+
*       6.4545719792E+02               0
GRID*              18169               07.8635683990E+014.4249705552E+01+
*       6.4505359807E+02               0
GRID*              18170               08.6638246705E+013.7772705648E+01+
*       6.5109415407E+02               0
GRID*              18171               09.5782092695E+013.3985781820E+01+
*       6.5920579321E+02               0
GRID*              18172               01.0548368377E+023.3810706835E+01+
*       6.6773473596E+02               0
GRID*              18173               01.1416042719E+023.6989015358E+01+
*       6.7557850323E+02               0
GRID*              18174               01.0824886635E+023.5040178791E+01+
*       6.5560268946E+02               0
GRID*              18175               01.1010507969E+023.9874172405E+01+
*       6.4355041563E+02               0
GRID*              18176               01.1086970351E+024.7438846218E+01+
*       6.3373713602E+02               0
GRID*              18177               08.9024166833E+014.2417103468E+01+
*       6.4016267653E+02               0
GRID*              18178               09.9950564741E+014.3493189781E+01+
*       6.3627616268E+02               0
GRID*              18179               09.8402005464E+013.7167714893E+01+
*       6.4677475992E+02               0
GRID*              18180               01.2088957438E+025.3910998141E+01+
*       6.3295732562E+02               0
GRID*              18181               01.1935319378E+023.9384407075E+01+
*       6.5272714555E+02               0
GRID*              18182               01.1689300978E+023.6549414116E+01+
*       6.6436661984E+02               0
GRID*              18183               01.2069091222E+024.5285317941E+01+
*       6.4194711214E+02               0
GRID*              18184               06.9495460348E+014.8709349407E+01+
*       6.5095532432E+02               0
GRID*              18185               07.6471730160E+014.1209266367E+01+
*       6.5639155841E+02               0
GRID*              18186               08.4608067296E+013.6296502951E+01+
*       6.6336396406E+02               0
GRID*              18187               09.3915798829E+013.4406999778E+01+
*       6.7144984272E+02               0
GRID*              18188               01.0341546793E+023.5842019993E+01+
*       6.7891245864E+02               0
GRID*              18189               01.1158836981E+024.0217796100E+01+
*       6.8564416664E+02               0
GRID*              18190               01.0836461387E+024.5838940540E+01+
*       6.9465660870E+02               0
GRID*              18191               01.0237167035E+023.9921084978E+01+
*       6.8787399959E+02               0
GRID*              18192               09.2897975233E+013.8046045779E+01+
*       6.8306519219E+02               0
GRID*              18193               08.3287941448E+013.8133882392E+01+
*       6.7512285233E+02               0
GRID*              18194               07.5457630765E+014.1095073596E+01+
*       6.6784213924E+02               0
GRID*              18195               06.8376341678E+014.6879356476E+01+
*       6.6239107365E+02               0
GRID*              18196               06.2212101143E+015.5521925566E+01+
*       6.5811253018E+02               0
GRID*              18197               08.1206848233E+014.4643814302E+01+
*       6.8737178247E+02               0
GRID*              18198               07.3506048368E+015.6519129464E+01+
*       6.9332981079E+02               0
GRID*              18199               08.4395688531E+015.4881125786E+01+
*       6.9951005001E+02               0
GRID*              18200               09.5205123830E+014.5849635565E+01+
*       6.9527056703E+02               0
GRID*              18201               01.0471823251E+025.4914004140E+01+
*       7.0278347213E+02               0
GRID*              18202               09.4519953123E+015.6750985995E+01+
*       7.0365339928E+02               0
GRID*              18203               06.8907230945E+014.7344712316E+01+
*       6.7289638629E+02               0
GRID*              18204               07.0613417390E+014.9884814264E+01+
*       6.8264962190E+02               0
GRID*              18205               07.5251086459E+014.3228978467E+01+
*       6.7708428632E+02               0
GRID*              18206               05.7670849750E+016.4442452655E+01+
*       6.6670313150E+02               0
GRID*              18207               06.2816125361E+015.4078023239E+01+
*       6.6916151892E+02               0
GRID*              18208               06.4965999354E+015.3921031400E+01+
*       6.7767664773E+02               0
GRID*              18209               06.0290150172E+016.2339325000E+01+
*       6.7722096879E+02               0
GRID*              18210               06.5435545528E+015.9787501475E+01+
*       6.8599867398E+02               0
GRID*              18211               07.7916768188E+016.8835981399E+01+
*       6.2686527859E+02               0
GRID*              18212               07.5254945601E+017.3811639543E+01+
*       6.2761618757E+02               0
GRID*              18213               07.4058691912E+016.9821882188E+01+
*       6.2919204183E+02               0
GRID*              18214               08.1570124008E+016.9272636466E+01+
*       6.2481583003E+02               0
GRID*              18215               08.5259750558E+017.0842108562E+01+
*       6.2295699613E+02               0
GRID*              18216               08.2523311426E+017.4415714048E+01+
*       6.2354842757E+02               0
GRID*              18217               08.0611954055E+016.4993236615E+01+
*       6.2652908131E+02               0
GRID*              18218               07.9875526804E+016.0759191567E+01+
*       6.2870642920E+02               0
GRID*              18219               08.3851112188E+016.1188165719E+01+
*       6.2651526073E+02               0
GRID*              18220               08.1299918321E+018.2378804818E+01+
*       6.2409870460E+02               0
GRID*              18221               08.7334797587E+018.3127277293E+01+
*       6.2184834840E+02               0
GRID*              18222               07.4760756299E+018.1707627461E+01+
*       6.2781561328E+02               0
GRID*              18223               06.9654748816E+018.0898065012E+01+
*       6.3188426636E+02               0
GRID*              18224               07.8066035401E+018.1058154617E+01+
*       6.2567355963E+02               0
GRID*              18225               07.9680005162E+015.6801763063E+01+
*       6.3105719826E+02               0
GRID*              18226               07.6510026311E+016.0787954714E+01+
*       6.3083423063E+02               0
GRID*              18227               07.8650588050E+015.3256144210E+01+
*       6.3433604625E+02               0
GRID*              18228               07.4298680983E+015.4674284593E+01+
*       6.3672011713E+02               0
GRID*              18229               07.6693690427E+015.0994069340E+01+
*       6.3798416605E+02               0
GRID*              18230               08.2260735909E+015.3150761564E+01+
*       6.3212931922E+02               0
GRID*              18231               07.0358593352E+015.8280764057E+01+
*       6.3787051264E+02               0
GRID*              18232               06.6275077442E+016.1003722853E+01+
*       6.4104083897E+02               0
GRID*              18233               06.7932543116E+015.5526694977E+01+
*       6.4350676028E+02               0
GRID*              18234               07.2229723041E+016.0405944289E+01+
*       6.3453190974E+02               0
GRID*              18235               07.2661927694E+016.4106843621E+01+
*       6.3223303620E+02               0
GRID*              18236               07.0190390758E+016.9307032647E+01+
*       6.3256521047E+02               0
GRID*              18237               05.6855526607E+017.4486739579E+01+
*       6.5398978652E+02               0
GRID*              18238               05.5967631675E+017.2775624849E+01+
*       6.6026986409E+02               0
GRID*              18239               05.9156639509E+016.8782419676E+01+
*       6.4943992287E+02               0
GRID*              18240               05.8280609828E+017.6180312290E+01+
*       6.4896152098E+02               0
GRID*              18241               06.2179669149E+016.4883947167E+01+
*       6.4512512238E+02               0
GRID*              18242               06.4404225249E+016.7303610931E+01+
*       6.4003467271E+02               0
GRID*              18243               06.0466810129E+016.2823147931E+01+
*       6.5096165030E+02               0
GRID*              18244               06.0803292467E+017.7822364741E+01+
*       6.4327533715E+02               0
GRID*              18245               06.2899952003E+017.9945202233E+01+
*       6.3982040486E+02               0
GRID*              18246               06.6686816024E+018.1186087452E+01+
*       6.3497164683E+02               0
GRID*              18247               06.8391140455E+017.5043972680E+01+
*       6.3320000764E+02               0
GRID*              18248               06.3037510399E+017.3108541980E+01+
*       6.4013518028E+02               0
GRID*              18249               06.6735006982E+016.9887702867E+01+
*       6.3603185674E+02               0
GRID*              18250               01.0049676705E+025.7128114569E+01+
*       6.2500611969E+02               0
GRID*              18251               01.0580718029E+025.4447327809E+01+
*       6.2695298280E+02               0
GRID*              18252               01.0536464626E+025.9509870436E+01+
*       6.2411974453E+02               0
GRID*              18253               09.6015912905E+016.0107899113E+01+
*       6.2377904527E+02               0
GRID*              18254               09.5899582010E+016.4515975270E+01+
*       6.2208983094E+02               0
GRID*              18255               09.1724281193E+016.2580221803E+01+
*       6.2343320210E+02               0
GRID*              18256               09.6068963637E+015.4991478406E+01+
*       6.2647425072E+02               0
GRID*              18257               09.1215938272E+015.3805403528E+01+
*       6.2811424148E+02               0
GRID*              18258               09.5754247777E+015.0619296117E+01+
*       6.2956965680E+02               0
GRID*              18259               08.6833145830E+015.3122333067E+01+
*       6.2999320133E+02               0
GRID*              18260               08.5964760145E+014.9402101585E+01+
*       6.3342879285E+02               0
GRID*              18261               08.7433628520E+015.7394120311E+01+
*       6.2703536792E+02               0
GRID*              18262               08.8122953230E+016.6147370029E+01+
*       6.2313326627E+02               0
GRID*              18263               08.8736067163E+017.1519221247E+01+
*       6.2174012055E+02               0
GRID*              18264               08.7922520310E+016.1818420788E+01+
*       6.2472848625E+02               0
GRID*              18265               01.0988211812E+026.2852348829E+01+
*       6.2350850434E+02               0
GRID*              18266               01.0485150859E+026.5287542383E+01+
*       6.2184103587E+02               0
GRID*              18267               01.1440974153E+026.6379467802E+01+
*       6.2361849661E+02               0
GRID*              18268               01.1543952934E+026.0808024907E+01+
*       6.2606876200E+02               0
GRID*              18269               01.2503337951E+028.1832253510E+01+
*       6.2715046877E+02               0
GRID*              18270               01.3022135357E+028.0737705240E+01+
*       6.3103495825E+02               0
GRID*              18271               01.2032891698E+028.2856099038E+01+
*       6.2455229906E+02               0
GRID*              18272               01.2216916655E+027.5570712145E+01+
*       6.2537274476E+02               0
GRID*              18273               01.1838382910E+027.0935989285E+01+
*       6.2408715181E+02               0
GRID*              18274               01.1331858187E+027.2692738928E+01+
*       6.2192896575E+02               0
GRID*              18275               01.2383482420E+026.9660197933E+01+
*       6.2724891429E+02               0
GRID*              18276               01.1436129880E+028.3540893990E+01+
*       6.2218187957E+02               0
GRID*              18277               09.1716294803E+017.5542585505E+01+
*       6.2059109830E+02               0
GRID*              18278               09.4762384565E+017.1224356083E+01+
*       6.2058949488E+02               0
GRID*              18279               09.2523400726E+018.2743103380E+01+
*       6.2055828661E+02               0
GRID*              18280               09.9077487896E+018.3099225728E+01+
*       6.1991611198E+02               0
GRID*              18281               09.8817107992E+016.8974480924E+01+
*       6.2068226221E+02               0
GRID*              18282               01.0312248502E+027.1791839149E+01+
*       6.2022602201E+02               0
GRID*              18283               01.0262701670E+027.7421002321E+01+
*       6.1971858853E+02               0
GRID*              18284               01.0364383120E+028.4975128135E+01+
*       6.2025142352E+02               0
GRID*              18285               01.0991830437E+028.4788795846E+01+
*       6.2113521940E+02               0
GRID*              18286               01.1219340770E+027.8154997043E+01+
*       6.2122670242E+02               0
GRID*              18287               01.0826187179E+027.4214638464E+01+
*       6.2054451903E+02               0
GRID*              18288               01.4402285469E+026.9661859523E+01+
*       6.7137261776E+02               0
GRID*              18289               01.4140049779E+026.1038394516E+01+
*       6.7111325488E+02               0
GRID*              18290               01.4242024798E+026.7085914706E+01+
*       6.7608417081E+02               0
GRID*              18291               01.4484300710E+027.1394507967E+01+
*       6.6516617323E+02               0
GRID*              18292               01.2761615079E+024.4507290429E+01+
*       6.7624233364E+02               0
GRID*              18293               01.2291869000E+024.1662818436E+01+
*       6.7757472118E+02               0
GRID*              18294               01.2609012788E+024.5337183234E+01+
*       6.8110419412E+02               0
GRID*              18295               01.3905766741E+025.6388326992E+01+
*       6.7137146366E+02               0
GRID*              18296               01.4116067987E+025.9403144002E+01+
*       6.6601168397E+02               0
GRID*              18297               01.3608838625E+025.1169082943E+01+
*       6.6760930119E+02               0
GRID*              18298               01.3655882862E+025.3008305681E+01+
*       6.7312486573E+02               0
GRID*              18299               01.3182150177E+024.7789324364E+01+
*       6.7462825726E+02               0
GRID*              18300               01.3522954799E+025.3248377077E+01+
*       6.7800507027E+02               0
GRID*              18301               01.2901510701E+024.4245110579E+01+
*       6.7084638202E+02               0
GRID*              18302               01.3986088837E+026.5479980814E+01+
*       6.8198068099E+02               0
GRID*              18303               01.2001709036E+026.1769585860E+01+
*       7.0157051170E+02               0
GRID*              18304               01.1407228092E+026.1203764676E+01+
*       7.0391714026E+02               0
GRID*              18305               01.2448090451E+026.2583072176E+01+
*       6.9921080094E+02               0
GRID*              18306               01.2963703086E+026.3519798915E+01+
*       6.9544405980E+02               0
GRID*              18307               01.2099957942E+025.5764865621E+01+
*       6.9762905038E+02               0
GRID*              18308               01.2256247609E+025.1943328351E+01+
*       6.9351225733E+02               0
GRID*              18309               01.1733067280E+025.1087683487E+01+
*       6.9613912360E+02               0
GRID*              18310               01.2259278937E+024.8282736907E+01+
*       6.8963917715E+02               0
GRID*              18311               01.2613443250E+025.3205856971E+01+
*       6.9161603825E+02               0
GRID*              18312               01.2402377681E+024.6124488412E+01+
*       6.8524465157E+02               0
GRID*              18313               01.2838889364E+024.8837036601E+01+
*       6.8379777757E+02               0
GRID*              18314               01.2001317530E+024.4792099829E+01+
*       6.8722766562E+02               0
GRID*              18315               01.3643542742E+025.7862986733E+01+
*       6.8208268287E+02               0
GRID*              18316               01.3719030343E+026.5347091385E+01+
*       6.8702342512E+02               0
GRID*              18317               01.3216943737E+025.3057458736E+01+
*       6.8395169266E+02               0
GRID*              18318               01.3018666637E+025.3784413836E+01+
*       6.8769293543E+02               0
GRID*              18319               01.3313902543E+026.4101486058E+01+
*       6.9200305388E+02               0
GRID*              18320               01.2970135547E+025.7165104108E+01+
*       6.9138551138E+02               0
GRID*              18321               01.3286962200E+025.0338548081E+01+
*       6.5115417227E+02               0
GRID*              18322               01.3327445299E+025.3626924489E+01+
*       6.4649774996E+02               0
GRID*              18323               01.2947647864E+024.9433112102E+01+
*       6.4622979415E+02               0
GRID*              18324               01.3562018491E+025.1990232285E+01+
*       6.5537763446E+02               0
GRID*              18325               01.3738157237E+025.3293685580E+01+
*       6.5955089065E+02               0
GRID*              18326               01.3816468586E+025.5763443949E+01+
*       6.5540687262E+02               0
GRID*              18327               01.3192453439E+024.7625976175E+01+
*       6.5554168276E+02               0
GRID*              18328               01.2804574959E+024.3912298110E+01+
*       6.5628247564E+02               0
GRID*              18329               01.3104474220E+024.5715083671E+01+
*       6.6060512988E+02               0
GRID*              18330               01.3024764401E+024.4755553353E+01+
*       6.6561490273E+02               0
GRID*              18331               01.3396863213E+024.8450166496E+01+
*       6.6456377847E+02               0
GRID*              18332               01.2578107856E+024.1334653258E+01+
*       6.6702599412E+02               0
GRID*              18333               01.3926665773E+025.5828265366E+01+
*       6.6266314057E+02               0
GRID*              18334               01.4164790907E+026.0520162244E+01+
*       6.6288708707E+02               0
GRID*              18335               01.3679850377E+025.2013337242E+01+
*       6.6296587202E+02               0
GRID*              18336               01.3365253929E+025.7840343362E+01+
*       6.4238744145E+02               0
GRID*              18337               01.3330029769E+026.2405043731E+01+
*       6.3846003599E+02               0
GRID*              18338               01.2973036116E+025.7771836269E+01+
*       6.3747904622E+02               0
GRID*              18339               01.3675132728E+025.8609831337E+01+
*       6.4701450266E+02               0
GRID*              18340               01.3285480043E+026.7893176173E+01+
*       6.3531339670E+02               0
GRID*              18341               01.3636103846E+026.7925097924E+01+
*       6.3972157284E+02               0
GRID*              18342               01.3157256954E+027.3608384258E+01+
*       6.3255895375E+02               0
GRID*              18343               01.3405847095E+028.0104063281E+01+
*       6.3483511429E+02               0
GRID*              18344               01.2840968248E+026.8689875495E+01+
*       6.3080407556E+02               0
GRID*              18345               01.3792257864E+027.8821639272E+01+
*       6.3981930539E+02               0
GRID*              18346               01.4305669319E+026.4813503895E+01+
*       6.6016491731E+02               0
GRID*              18347               01.4138582570E+026.1636249024E+01+
*       6.5669180065E+02               0
GRID*              18348               01.4470285565E+027.2239884963E+01+
*       6.5976765381E+02               0
GRID*              18349               01.4378405980E+027.4107542525E+01+
*       6.5351620401E+02               0
GRID*              18350               01.3990583371E+026.0429945976E+01+
*       6.5279615517E+02               0
GRID*              18351               01.4002865645E+026.4139234332E+01+
*       6.4882450000E+02               0
GRID*              18352               01.4026034052E+027.8765366391E+01+
*       6.4377643201E+02               0
GRID*              18353               01.4273255020E+027.7149550602E+01+
*       6.4945006618E+02               0
GRID*              18354               01.4184126511E+026.9380228771E+01+
*       6.4962766501E+02               0
GRID*              18355               01.3833290972E+027.2772984575E+01+
*       6.4111435457E+02               0
GRID*              18356               01.3909740565E+026.7854800858E+01+
*       6.4426230476E+02               0
GRID*              18357               01.0574427427E+024.9458585267E+01+
*       6.3062464322E+02               0
GRID*              18358               01.1080808870E+025.2145522740E+01+
*       6.2963117555E+02               0
GRID*              18359               01.0036612228E+024.7595220253E+01+
*       6.3186381831E+02               0
GRID*              18360               09.5231322495E+014.6272128059E+01+
*       6.3358639029E+02               0
GRID*              18361               01.0553150388E+024.5140980153E+01+
*       6.3479570619E+02               0
GRID*              18362               07.9946807305E+014.6678539726E+01+
*       6.4016712267E+02               0
GRID*              18363               07.5342469679E+014.8301913312E+01+
*       6.4250705656E+02               0
GRID*              18364               08.3693039281E+014.3004556878E+01+
*       6.4247101154E+02               0
GRID*              18365               08.5019289168E+014.5833535478E+01+
*       6.3769101122E+02               0
GRID*              18366               08.9899835218E+014.5758466986E+01+
*       6.3552675242E+02               0
GRID*              18367               09.4474729708E+014.2603058627E+01+
*       6.3805595856E+02               0
GRID*              18368               01.0352415470E+023.5641293861E+01+
*       6.5103048975E+02               0
GRID*              18369               01.0936436441E+023.7070439912E+01+
*       6.4931797533E+02               0
GRID*              18370               01.0435887384E+023.8136216577E+01+
*       6.4498379481E+02               0
GRID*              18371               09.7085285470E+013.5133454045E+01+
*       6.5279229267E+02               0
GRID*              18372               09.2415985340E+013.7072794444E+01+
*       6.4877628616E+02               0
GRID*              18373               09.1101689288E+013.5486852094E+01+
*       6.5487016244E+02               0
GRID*              18374               01.0203190726E+023.4029308758E+01+
*       6.5743034382E+02               0
GRID*              18375               01.0070317728E+023.3430347866E+01+
*       6.6355481815E+02               0
GRID*              18376               01.0679709699E+023.3968023907E+01+
*       6.6174967833E+02               0
GRID*              18377               08.7862339837E+013.9717688965E+01+
*       6.4540842300E+02               0
GRID*              18378               08.2515910012E+014.0704813218E+01+
*       6.4782568111E+02               0
GRID*              18379               09.3598071556E+013.9445885839E+01+
*       6.4320215087E+02               0
GRID*              18380               01.0500299480E+024.1294200728E+01+
*       6.3963700090E+02               0
GRID*              18381               01.1054336023E+024.3357790066E+01+
*       6.3832774146E+02               0
GRID*              18382               09.9207128550E+013.9996420923E+01+
*       6.4125301793E+02               0
GRID*              18383               01.1581124240E+025.5198036332E+01+
*       6.2932052080E+02               0
GRID*              18384               01.1611947467E+025.0380942155E+01+
*       6.3315866012E+02               0
GRID*              18385               01.2039576328E+025.9196768580E+01+
*       6.2921673456E+02               0
GRID*              18386               01.2469333511E+026.3397608561E+01+
*       6.2987949289E+02               0
GRID*              18387               01.2544860166E+025.8116876329E+01+
*       6.3326164727E+02               0
GRID*              18388               01.1130083167E+023.4778398658E+01+
*       6.6602191700E+02               0
GRID*              18389               01.0994739373E+023.5017953021E+01+
*       6.7175218951E+02               0
GRID*              18390               01.1551230687E+023.6375044241E+01+
*       6.7004635291E+02               0
GRID*              18391               01.1267631374E+023.5368488464E+01+
*       6.6005436962E+02               0
GRID*              18392               01.1822258446E+023.7554911568E+01+
*       6.5851785471E+02               0
GRID*              18393               01.1400491470E+023.6858458919E+01+
*       6.5403125893E+02               0
GRID*              18394               01.2333709294E+024.0417624550E+01+
*       6.5724365577E+02               0
GRID*              18395               01.2434448279E+024.2534095431E+01+
*       6.5184529540E+02               0
GRID*              18396               01.2215775432E+023.9065738385E+01+
*       6.6290917156E+02               0
GRID*              18397               01.1944517134E+023.8726780977E+01+
*       6.7397667587E+02               0
GRID*              18398               01.1793821775E+023.9609941130E+01+
*       6.7919206932E+02               0
GRID*              18399               01.2083320715E+023.8508947938E+01+
*       6.6849935118E+02               0
GRID*              18400               01.1590234324E+024.5945763697E+01+
*       6.3762863233E+02               0
GRID*              18401               01.2090129968E+024.9323138293E+01+
*       6.3711704090E+02               0
GRID*              18402               01.1561141769E+024.2254345489E+01+
*       6.4260991704E+02               0
GRID*              18403               01.1492262071E+023.9183954115E+01+
*       6.4807328491E+02               0
GRID*              18404               01.2015974096E+024.1992434355E+01+
*       6.4710890873E+02               0
GRID*              18405               01.2552724952E+025.3117567436E+01+
*       6.3720282240E+02               0
GRID*              18406               01.2553666051E+024.8966780560E+01+
*       6.4172295751E+02               0
GRID*              18407               01.2497134866E+024.5352678977E+01+
*       6.4654341533E+02               0
GRID*              18408               07.0855325351E+015.0383188421E+01+
*       6.4550948191E+02               0
GRID*              18409               06.6533495855E+015.3549189757E+01+
*       6.4853087456E+02               0
GRID*              18410               07.3820216494E+014.6182104544E+01+
*       6.4792961116E+02               0
GRID*              18411               07.2802288643E+014.4684156355E+01+
*       6.5344106465E+02               0
GRID*              18412               07.7474407326E+014.2345803117E+01+
*       6.5056346261E+02               0
GRID*              18413               08.1341467475E+013.9156459878E+01+
*       6.5367157161E+02               0
GRID*              18414               08.5502330855E+013.6616098876E+01+
*       6.5717434583E+02               0
GRID*              18415               09.0004748105E+013.4770440474E+01+
*       6.6117808483E+02               0
GRID*              18416               08.0403778374E+013.8409199285E+01+
*       6.5967956165E+02               0
GRID*              18417               01.1282841049E+023.8273262381E+01+
*       6.8074667987E+02               0
GRID*              18418               01.0881706461E+023.6042526241E+01+
*       6.7724591743E+02               0
GRID*              18419               01.0763216468E+023.7703592699E+01+
*       6.8240503522E+02               0
GRID*              18420               01.1657121419E+024.1193411582E+01+
*       6.8409150510E+02               0
GRID*              18421               01.1532605381E+024.3492256145E+01+
*       6.8878657304E+02               0
GRID*              18422               09.4762080623E+013.3776593207E+01+
*       6.6541163088E+02               0
GRID*              18423               09.9617060659E+013.3692325996E+01+
*       6.6957079683E+02               0
GRID*              18424               08.9180273908E+013.4921197362E+01+
*       6.6737088350E+02               0
GRID*              18425               01.0438194906E+023.4460162079E+01+
*       6.7342797187E+02               0
GRID*              18426               09.8736355223E+013.4715434436E+01+
*       6.7525930615E+02               0
GRID*              18427               07.8780768153E+015.5081491289E+01+
*       6.9648364644E+02               0
GRID*              18428               08.2695362518E+014.9273964457E+01+
*       6.9401882895E+02               0
GRID*              18429               07.6810186026E+015.0205148031E+01+
*       6.9059080874E+02               0
GRID*              18430               07.5706915290E+016.2220644092E+01+
*       6.9860966876E+02               0
GRID*              18431               07.0558739572E+016.3297044603E+01+
*       6.9475360056E+02               0
GRID*              18432               08.0658497541E+016.1446361295E+01+
*       7.0135948873E+02               0
GRID*              18433               08.6668399936E+016.0894716750E+01+
*       7.0376144136E+02               0
GRID*              18434               09.4022158756E+014.1482955767E+01+
*       6.8955842777E+02               0
GRID*              18435               09.8607454291E+014.2530300170E+01+
*       6.9174505977E+02               0
GRID*              18436               09.7700949672E+013.8648338086E+01+
*       6.8553931295E+02               0
GRID*              18437               08.8185648968E+014.4411398783E+01+
*       6.9147709257E+02               0
GRID*              18438               08.9359237525E+014.9829114548E+01+
*       6.9760614934E+02               0
GRID*              18439               08.6711181524E+014.0828027344E+01+
*       6.8526403364E+02               0
GRID*              18440               01.1039655557E+025.4668493447E+01+
*       7.0154493906E+02               0
GRID*              18441               01.1248782184E+025.0320802927E+01+
*       6.9765952398E+02               0
GRID*              18442               01.0643724373E+025.0092198755E+01+
*       6.9909473081E+02               0
GRID*              18443               01.0888673844E+026.0872823171E+01+
*       7.0521290297E+02               0
GRID*              18444               01.0245779753E+026.0736441851E+01+
*       7.0598250848E+02               0
GRID*              18445               01.0176789653E+024.5261173013E+01+
*       6.9504775072E+02               0
GRID*              18446               01.0022852386E+024.9897400680E+01+
*       6.9946125665E+02               0
GRID*              18447               01.0549187072E+024.2626200443E+01+
*       6.9145040110E+02               0
GRID*              18448               09.9541176239E+015.5434406182E+01+
*       7.0333193206E+02               0
GRID*              18449               09.7746653609E+016.1645077415E+01+
*       7.0632615074E+02               0
GRID*              18450               09.1374198816E+016.1828953591E+01+
*       7.0549903859E+02               0
GRID*              18451               08.9484800189E+015.5384223612E+01+
*       7.0173946141E+02               0
GRID*              18452               09.4760685201E+015.1055086386E+01+
*       6.9993137828E+02               0
GRID*              18453               08.2046655572E+014.0948071391E+01+
*       6.8151702176E+02               0
GRID*              18454               08.8068514447E+013.7634300868E+01+
*       6.7913894881E+02               0
GRID*              18455               07.5654735106E+014.6778851993E+01+
*       6.8494781526E+02               0
GRID*              18456               07.1921813647E+015.2837875686E+01+
*       6.8831487446E+02               0
GRID*              18457               07.8162156182E+014.3517086263E+01+
*       6.8233496506E+02               0
GRID*              18458               07.2727742500E+014.6391063470E+01+
*       6.7994320787E+02               0
GRID*              18459               07.9092121144E+014.0462527136E+01+
*       6.7608188970E+02               0
GRID*              18460               07.1955551630E+014.4018856074E+01+
*       6.7038972092E+02               0
GRID*              18461               07.1754847411E+014.3709579102E+01+
*       6.6495033425E+02               0
GRID*              18462               06.8519999008E+014.6797603608E+01+
*       6.6767376493E+02               0
GRID*              18463               07.1955063063E+014.5091119968E+01+
*       6.7492388603E+02               0
GRID*              18464               06.9656232432E+014.8338683820E+01+
*       6.7789445642E+02               0
GRID*              18465               07.5270691809E+014.1929869504E+01+
*       6.7255346155E+02               0
GRID*              18466               07.9260472228E+013.9268191142E+01+
*       6.7141219795E+02               0
GRID*              18467               06.5309981762E+015.0264280879E+01+
*       6.6582544801E+02               0
GRID*              18468               06.5658985323E+015.0503002149E+01+
*       6.7090757590E+02               0
GRID*              18469               06.5045289777E+015.0959582984E+01+
*       6.6002671862E+02               0
GRID*              18470               06.2347537096E+015.4415134657E+01+
*       6.6356128730E+02               0
GRID*              18471               05.9505915084E+015.9751771190E+01+
*       6.6251760817E+02               0
GRID*              18472               05.9872503121E+015.9095447697E+01+
*       6.6773002755E+02               0
GRID*              18473               05.7483702687E+016.5436618043E+01+
*       6.6078256052E+02               0
GRID*              18474               05.5955200418E+017.1412035914E+01+
*       6.6557948829E+02               0
GRID*              18475               05.9627727267E+016.1275139828E+01+
*       6.5634275290E+02               0
GRID*              18476               05.6809807403E+016.9812937776E+01+
*       6.7180299251E+02               0
GRID*              18477               06.0522600211E+016.7331076882E+01+
*       6.8231996331E+02               0
GRID*              18478               05.8067473817E+016.8872179845E+01+
*       6.7657350848E+02               0
GRID*              18479               06.7671502487E+015.4694897466E+01+
*       6.8443472031E+02               0
GRID*              18480               06.7664798652E+015.1689963152E+01+
*       6.8012210109E+02               0
GRID*              18481               06.5047596223E+015.6665649857E+01+
*       6.8204010022E+02               0
GRID*              18482               06.9250836874E+015.7724398292E+01+
*       6.8968762333E+02               0
GRID*              18483               06.6834247335E+016.4771790819E+01+
*       6.9134253244E+02               0
GRID*              18484               06.2913227669E+016.6197717264E+01+
*       6.8634725506E+02               0
GRID*              18485               06.2668451015E+016.0701649698E+01+
*       6.8161546225E+02               0
GRID*              18486               06.2366869312E+015.8032862920E+01+
*       6.7742837153E+02               0
GRID*              18487               06.6756165739E+015.0512119113E+01+
*       6.7536035509E+02               0
GRID*              18488               06.3800009737E+015.3739809869E+01+
*       6.7341237684E+02               0
GRID*              18489               05.8758996434E+016.2977634112E+01+
*       6.7192711111E+02               0
GRID*              18490               06.1235514255E+015.8039356737E+01+
*       6.7337941733E+02               0
GRID*              18491               01.1357204370E+024.6190811489E+01+
*       6.9316479884E+02               0
GRID*              18492               01.0991369393E+024.2729138968E+01+
*       6.9036000882E+02               0
GRID*              18493               01.0697419875E+023.9786792753E+01+
*       6.8677766944E+02               0
GRID*              18494               06.2963845560E+015.6743671220E+01+
*       6.5224012862E+02               0
GRID*              18495               06.5516002175E+015.1847963155E+01+
*       6.5453054703E+02               0
GRID*              18496               06.8798201628E+014.7411756767E+01+
*       6.5657458450E+02               0
GRID*              18497               07.2167935506E+014.3771939749E+01+
*       6.5936962458E+02               0
GRID*              18498               01.0285219088E+023.7642590844E+01+
*       6.8353369906E+02               0
GRID*              18499               09.8044140460E+013.6561748594E+01+
*       6.8101356874E+02               0
GRID*              18500               07.5841877138E+014.0791250219E+01+
*       6.6211790138E+02               0
GRID*              18501               07.9812820728E+013.8410214746E+01+
*       6.6556303128E+02               0
GRID*              18502               09.3328003739E+013.5847682179E+01+
*       6.7741834310E+02               0
GRID*              18503               08.8402520821E+013.5905859189E+01+
*       6.7325596431E+02               0
GRID*              18504               08.3839716328E+013.6837991406E+01+
*       6.6935623683E+02               0
GRID*              18505               05.3706101853E+017.6532483128E+01+
*       6.7168136041E+02               0
GRID*              18506               05.2939435225E+017.8039729637E+01+
*       6.6605623448E+02               0
GRID*              18507               05.4714058606E+017.5052961371E+01+
*       6.7720300437E+02               0
GRID*              18508               06.2727199041E+017.1063905924E+01+
*       6.9209036499E+02               0
GRID*              18509               05.9260893040E+017.2268984554E+01+
*       6.8759295085E+02               0
GRID*              18510               06.6302820260E+016.9857841730E+01+
*       6.9659145456E+02               0
GRID*              18511               05.6961782415E+017.3648475821E+01+
*       6.8244462021E+02               0
GRID*              18512               07.0749413065E+016.8892152175E+01+
*       7.0019545033E+02               0
GRID*              18513               07.5409420564E+016.7966675003E+01+
*       7.0364937938E+02               0
GRID*              18514               09.1671429438E+016.6364186850E+01+
*       7.0962992857E+02               0
GRID*              18515               08.6023278565E+016.6710656914E+01+
*       7.0833691784E+02               0
GRID*              18516               09.7494856443E+016.6165762726E+01+
*       7.1037049386E+02               0
GRID*              18517               08.0596727593E+016.7292414482E+01+
*       7.0616576431E+02               0
GRID*              18518               01.4708817654E+027.6532481076E+01+
*       6.7168136806E+02               0
GRID*              18519               01.4608021901E+027.5052959135E+01+
*       6.7720301272E+02               0
GRID*              18520               01.4785484011E+027.8039727804E+01+
*       6.6605624132E+02               0
GRID*              18521               01.3806706884E+027.1063904659E+01+
*       6.9209036971E+02               0
GRID*              18522               01.3449144754E+026.9857840586E+01+
*       6.9659145883E+02               0
GRID*              18523               01.4153337680E+027.2268982967E+01+
*       6.8759295677E+02               0
GRID*              18524               01.4383248991E+027.3648472271E+01+
*       6.8244462634E+02               0
GRID*              18525               01.0329941026E+026.6165762656E+01+
*       7.1037049412E+02               0
GRID*              18526               01.3004485448E+026.8892151126E+01+
*       7.0019545425E+02               0
GRID*              18527               01.2538484798E+026.7966673667E+01+
*       7.0364938437E+02               0
GRID*              18528               01.0912283742E+026.6364186482E+01+
*       7.0962992994E+02               0
GRID*              18529               01.1477098837E+026.6710655657E+01+
*       7.0833691953E+02               0
GRID*              18530               01.2019754070E+026.7292413273E+01+
*       7.0616576882E+02               0
GRID*              18531               05.3276960142E+017.9539565845E+01+
*       6.6045877844E+02               0
GRID*              18532               05.4043668623E+018.1046781931E+01+
*       6.5483376588E+02               0
GRID*              18533               06.4434195073E+018.6397610523E+01+
*       6.3486420248E+02               0
GRID*              18534               06.0858469085E+018.5191524051E+01+
*       6.3936536648E+02               0
GRID*              18535               06.8417544553E+018.7490377314E+01+
*       6.3078593248E+02               0
GRID*              18536               05.7956187385E+018.3890473079E+01+
*       6.4422096476E+02               0
GRID*              18537               05.5708463459E+018.2486011472E+01+
*       6.4946249211E+02               0
GRID*              18538               07.3077457537E+018.8415826389E+01+
*       6.2733212210E+02               0
GRID*              18539               07.7927232645E+018.9241396056E+01+
*       6.2425103841E+02               0
GRID*              18540               09.4631714780E+019.0535411711E+01+
*       6.1942170648E+02               0
GRID*              18541               08.8808293713E+019.0336985702E+01+
*       6.2016224578E+02               0
GRID*              18542               01.0039714050E+029.0709823608E+01+
*       6.1877078247E+02               0
GRID*              18543               08.3353741415E+018.9823154242E+01+
*       6.2207989588E+02               0
GRID*              18544               01.4751731433E+027.9539564026E+01+
*       6.6045878523E+02               0
GRID*              18545               01.4675060642E+028.1046780081E+01+
*       6.5483377279E+02               0
GRID*              18546               01.3636008229E+028.6397609031E+01+
*       6.3486420805E+02               0
GRID*              18547               01.3237673510E+028.7490376231E+01+
*       6.3078593653E+02               0
GRID*              18548               01.3993580889E+028.5191522610E+01+
*       6.3936537186E+02               0
GRID*              18549               01.4283808786E+028.3890470462E+01+
*       6.4422097090E+02               0
GRID*              18550               01.4508580743E+028.2486009317E+01+
*       6.4946250015E+02               0
GRID*              18551               01.2771682262E+028.8415825534E+01+
*       6.2733212529E+02               0
GRID*              18552               01.2286704748E+028.9241395139E+01+
*       6.2425104183E+02               0
GRID*              18553               01.0616256612E+029.0535411483E+01+
*       6.1942170733E+02               0
GRID*              18554               01.1198598718E+029.0336985316E+01+
*       6.2016224722E+02               0
GRID*              18555               01.1744053922E+028.9823153658E+01+
*       6.2207989806E+02               0
GRID*              18556               08.4152693635E+017.2102076006E+01+
*       6.2064083054E+02               0
GRID*              18557               08.0453555682E+017.6197084268E+01+
*       6.2189404526E+02               0
GRID*              18558               07.6907307152E+017.4671981487E+01+
*       6.2358659138E+02               0
GRID*              18559               08.0606445106E+017.0576973225E+01+
*       6.2233337667E+02               0
GRID*              18560               01.2566980089E+025.1143689673E+01+
*       6.9370225343E+02               0
GRID*              18561               01.2832035064E+025.7217379334E+01+
*       6.9665603657E+02               0
GRID*              18562               01.2596763589E+024.7531236375E+01+
*       6.9003013834E+02               0
GRID*              18563               01.2861818565E+025.3604926035E+01+
*       6.9298392148E+02               0
GRID*              18564               01.3115884079E+024.5805902263E+01+
*       6.8030489664E+02               0
GRID*              18565               01.3404616240E+025.1945891040E+01+
*       6.8422878593E+02               0
GRID*              18566               01.3485627340E+024.9219064660E+01+
*       6.7883126721E+02               0
GRID*              18567               01.3843116453E+025.7115797566E+01+
*       6.8256489755E+02               0
GRID*              18568               01.3556554461E+025.6821878300E+01+
*       6.8815887909E+02               0
GRID*              18569               01.3854630919E+026.4032866048E+01+
*       6.8756375932E+02               0
GRID*              18570               08.1887165513E+013.5246528843E+01+
*       6.6885314992E+02               0
GRID*              18571               07.8496519333E+013.6649301112E+01+
*       6.6377725931E+02               0
GRID*              18572               07.7311947247E+013.7645814166E+01+
*       6.7109223751E+02               0
GRID*              18573               07.3921301068E+013.9048586435E+01+
*       6.6601634691E+02               0
GRID*              18574               07.6715959910E+013.8532759841E+01+
*       6.5461888025E+02               0
GRID*              18575               07.4428350765E+013.9105682820E+01+
*       6.6029105649E+02               0
GRID*              18576               08.0784128478E+013.6076378133E+01+
*       6.5810508307E+02               0
GRID*              18577               07.0380656524E+014.1940727875E+01+
*       6.6329081411E+02               0
GRID*              18578               09.4556268030E+016.1156728870E+01+
*       7.0813770911E+02               0
GRID*              18579               01.3799595011E+025.4149815131E+01+
*       6.4882262676E+02               0
GRID*              18580               01.4029809032E+025.5040925363E+01+
*       6.5489746040E+02               0
GRID*              18581               01.4109969468E+025.9934889752E+01+
*       6.5035379626E+02               0
GRID*              18582               01.4340183489E+026.0825999985E+01+
*       6.5642862990E+02               0
GRID*              18583               01.4200285316E+025.6218500870E+01+
*       6.5895923850E+02               0
GRID*              18584               01.4368126618E+025.9748510591E+01+
*       6.6229469611E+02               0
GRID*              18585               01.4555384960E+026.4034996558E+01+
*       6.6753667300E+02               0
GRID*              18586               01.4608806085E+026.6200631849E+01+
*       6.6295314937E+02               0
GRID*              18587               01.1456301697E+027.5101008896E+01+
*       6.1958752221E+02               0
GRID*              18588               01.1442375520E+028.4058685487E+01+
*       6.2023673445E+02               0
GRID*              18589               01.0968738758E+028.5361302352E+01+
*       6.1894234746E+02               0
GRID*              18590               01.0982664934E+027.6403625761E+01+
*       6.1829313521E+02               0
GRID*              18591               06.6028579793E+014.6217214561E+01+
*       6.6948307775E+02               0
GRID*              18592               06.4976151206E+014.8820237763E+01+
*       6.7511212016E+02               0
GRID*              18593               06.9033568135E+014.4148925998E+01+
*       6.7426921594E+02               0
GRID*              18594               01.0461282989E+027.4435791288E+01+
*       6.1788165358E+02               0
GRID*              18595               01.0584756464E+028.0004825100E+01+
*       6.1753156831E+02               0
GRID*              18596               01.0088384582E+027.7968038964E+01+
*       6.1733322979E+02               0
GRID*              18597               09.9649111075E+017.2399005152E+01+
*       6.1768331505E+02               0
GRID*              18598               01.0232274271E+028.5178932592E+01+
*       6.1801092987E+02               0
GRID*              18599               01.0543577619E+026.8901348057E+01+
*       6.1856570253E+02               0
GRID*              18600               09.7703454072E+018.4611397273E+01+
*       6.1806726832E+02               0
GRID*              18601               09.6264557182E+017.7400503645E+01+
*       6.1738956824E+02               0
GRID*              18602               05.5612000820E+017.5222298724E+01+
*       6.5057052851E+02               0
GRID*              18603               05.7732800154E+017.7314032659E+01+
*       6.4487114096E+02               0
GRID*              18604               05.7636336090E+017.0050321258E+01+
*       6.4597917715E+02               0
GRID*              18605               05.4491551143E+017.4004013179E+01+
*       6.5571137962E+02               0
GRID*              18606               05.6059882866E+016.8179529960E+01+
*       6.5144814214E+02               0
GRID*              18607               07.2019381378E+015.4154668196E+01+
*       6.3572473222E+02               0
GRID*              18608               07.4612956865E+015.5214377796E+01+
*       6.3221263128E+02               0
GRID*              18609               07.1074980292E+015.9083086686E+01+
*       6.3306176934E+02               0
GRID*              18610               07.5633625413E+015.9634252190E+01+
*       6.2900405925E+02               0
GRID*              18611               07.7148073665E+015.1567574070E+01+
*       6.3342512378E+02               0
GRID*              18612               08.1460263861E+015.0264979656E+01+
*       6.3157827213E+02               0
GRID*              18613               08.2421017852E+015.3887133891E+01+
*       6.2822451475E+02               0
GRID*              18614               07.8108827656E+015.5189728304E+01+
*       6.3007136640E+02               0
GRID*              18615               07.0098845285E+015.2043489530E+01+
*       6.3931811793E+02               0
GRID*              18616               07.2692420772E+015.3103199130E+01+
*       6.3580601699E+02               0
GRID*              18617               01.1525313048E+023.9316568759E+01+
*       6.4262132579E+02               0
GRID*              18618               01.1987718753E+023.9071686095E+01+
*       6.4720969074E+02               0
GRID*              18619               01.2054604674E+024.2022141527E+01+
*       6.4181967404E+02               0
GRID*              18620               01.1262732733E+023.6203582848E+01+
*       6.4744699094E+02               0
GRID*              18621               01.1725138438E+023.5958700183E+01+
*       6.5203535590E+02               0
GRID*              18622               09.2392175647E+013.2285000544E+01+
*       6.7254720916E+02               0
GRID*              18623               08.7738309881E+013.3229752131E+01+
*       6.6850426983E+02               0
GRID*              18624               08.7078246956E+013.4148441851E+01+
*       6.7438371397E+02               0
GRID*              18625               06.5763135160E+014.5984536641E+01+
*       6.6423042143E+02               0
GRID*              18626               06.7624413138E+014.4753503692E+01+
*       6.5864067572E+02               0
GRID*              18627               07.2308768045E+014.1024106638E+01+
*       6.7174209241E+02               0
GRID*              18628               08.4017449463E+013.3855821646E+01+
*       6.6315151444E+02               0
GRID*              18629               01.2211995341E+024.6304449153E+01+
*       6.9197284032E+02               0
GRID*              18630               01.2024074645E+025.0851226711E+01+
*       6.9723853767E+02               0
GRID*              18631               01.2379059392E+025.5690467231E+01+
*       6.9896795078E+02               0
GRID*              18632               07.1230382717E+015.6162645886E+01+
*       6.9480379132E+02               0
GRID*              18633               06.8765939402E+016.2993276869E+01+
*       6.9583271766E+02               0
GRID*              18634               06.7195131297E+015.7796831892E+01+
*       6.9113822291E+02               0
GRID*              18635               08.3870839324E+014.8241689552E+01+
*       6.9669291500E+02               0
GRID*              18636               07.9489115078E+015.0612264847E+01+
*       6.9626707377E+02               0
GRID*              18637               08.2042982057E+015.3875069707E+01+
*       7.0091320169E+02               0
GRID*              18638               07.3213857587E+016.2061523728E+01+
*       6.9916652282E+02               0
GRID*              18639               06.9303779704E+014.3092395201E+01+
*       6.6695595422E+02               0
GRID*              18640               09.1457870030E+016.7438476021E+01+
*       6.1932324653E+02               0
GRID*              18641               08.7003248681E+016.7552680883E+01+
*       6.2060483629E+02               0
GRID*              18642               08.9167429534E+016.2747597693E+01+
*       6.2145894668E+02               0
GRID*              18643               07.6598161976E+015.4694071545E+01+
*       6.9782308209E+02               0
GRID*              18644               06.3282989196E+015.9054276944E+01+
*       6.8709748051E+02               0
GRID*              18645               06.6555220413E+015.3576524121E+01+
*       6.8610889705E+02               0
GRID*              18646               01.2677246005E+023.9944394814E+01+
*       6.5692706601E+02               0
GRID*              18647               01.2770709934E+024.1956209089E+01+
*       6.5172148764E+02               0
GRID*              18648               01.2295676199E+023.8517051906E+01+
*       6.5249290636E+02               0
GRID*              18649               01.2037544098E+023.6250896955E+01+
*       6.5736500195E+02               0
GRID*              18650               01.1602129238E+023.4541203704E+01+
*       6.5785509305E+02               0
GRID*              18651               01.1914534898E+023.4833400475E+01+
*       6.6318473910E+02               0
GRID*              18652               01.0740111151E+023.1546608300E+01+
*       6.6493689191E+02               0
GRID*              18653               01.1067913785E+023.2664301588E+01+
*       6.7009940425E+02               0
GRID*              18654               01.1638380086E+023.4033655229E+01+
*       6.6841534619E+02               0
GRID*              18655               01.1310577452E+023.2915961940E+01+
*       6.6325283385E+02               0
GRID*              18656               01.2419113905E+023.7678239863E+01+
*       6.6179916161E+02               0
GRID*              18657               01.1169922067E+023.3786586041E+01+
*       6.5347312786E+02               0
GRID*              18658               01.0878370281E+023.2161344277E+01+
*       6.5887086866E+02               0
GRID*              18659               01.2568175779E+023.8916901280E+01+
*       6.7215450282E+02               0
GRID*              18660               01.2695736452E+023.9448771425E+01+
*       6.6674025745E+02               0
GRID*              18661               01.2191157445E+023.6603932037E+01+
*       6.6812583495E+02               0
GRID*              18662               01.3861877597E+025.0467139264E+01+
*       6.6460105595E+02               0
GRID*              18663               01.4147188812E+025.5015492942E+01+
*       6.6224192713E+02               0
GRID*              18664               01.3660791277E+024.7896593989E+01+
*       6.6149085472E+02               0
GRID*              18665               01.3946102493E+025.2444947667E+01+
*       6.5913172589E+02               0
GRID*              18666               01.1130219413E+026.0279481391E+01+
*       7.0668408507E+02               0
GRID*              18667               01.0545995917E+026.0238237874E+01+
*       7.0770274579E+02               0
GRID*              18668               01.0763931712E+025.4153522743E+01+
*       7.0475690578E+02               0
GRID*              18669               01.0946250780E+024.9615990943E+01+
*       7.0069347407E+02               0
GRID*              18670               01.0544448405E+024.4949507804E+01+
*       6.9778693375E+02               0
GRID*              18671               01.0362129337E+024.9487039604E+01+
*       7.0185036546E+02               0
GRID*              18672               09.8864739031E+014.4954855317E+01+
*       6.9809391292E+02               0
GRID*              18673               01.0187705535E+025.4455551172E+01+
*       7.0552308180E+02               0
GRID*              18674               06.7254296343E+018.0164206323E+01+
*       6.3132870000E+02               0
GRID*              18675               07.0021546904E+018.1617939104E+01+
*       6.2887622737E+02               0
GRID*              18676               06.8858297788E+017.4291763844E+01+
*       6.2941899270E+02               0
GRID*              18677               07.1403179973E+016.9214818673E+01+
*       6.2877282423E+02               0
GRID*              18678               07.2453618112E+017.3368746961E+01+
*       6.2709132322E+02               0
GRID*              18679               07.3311986828E+017.5594998370E+01+
*       6.2591426086E+02               0
GRID*              18680               08.8607314984E+017.1987871144E+01+
*       6.1935924078E+02               0
GRID*              18681               08.5318936433E+017.7180024463E+01+
*       6.1964033281E+02               0
GRID*              18682               07.9755024137E+016.3937911491E+01+
*       6.2463148801E+02               0
GRID*              18683               08.3357472137E+016.6854345910E+01+
*       6.2189032111E+02               0
GRID*              18684               07.7003997106E+016.7660538806E+01+
*       6.2507454357E+02               0
GRID*              18685               09.1880032513E+018.4412970521E+01+
*       6.1880780601E+02               0
GRID*              18686               08.6659787429E+018.3957579092E+01+
*       6.1994529904E+02               0
GRID*              18687               08.1233277537E+018.3375825624E+01+
*       6.2211644134E+02               0
GRID*              18688               07.6367896786E+018.2392885429E+01+
*       6.2437015379E+02               0
GRID*              18689               07.5953558967E+016.3506610518E+01+
*       6.2675604458E+02               0
GRID*              18690               01.1328414485E+025.4397602036E+01+
*       7.0338077366E+02               0
GRID*              18691               01.1494997654E+024.9668032983E+01+
*       6.9914111321E+02               0
GRID*              18692               01.1112833950E+024.4886421891E+01+
*       6.9645381362E+02               0
GRID*              18693               01.0716883927E+024.1355621283E+01+
*       6.9328378801E+02               0
GRID*              18694               01.0244801229E+024.1990580023E+01+
*       6.9439562920E+02               0
GRID*              18695               01.0417236751E+023.8396693502E+01+
*       6.8989248345E+02               0
GRID*              18696               01.2879448146E+027.2863213912E+01+
*       6.2702146593E+02               0
GRID*              18697               01.2989171288E+026.6854484969E+01+
*       6.2966715781E+02               0
GRID*              18698               01.3296939155E+027.2108781393E+01+
*       6.3117767868E+02               0
GRID*              18699               01.2507478036E+026.7875446064E+01+
*       6.2586855615E+02               0
GRID*              18700               01.4287854291E+025.8243980372E+01+
*       6.6800817248E+02               0
GRID*              18701               01.4066916485E+025.3510962723E+01+
*       6.6795540350E+02               0
GRID*              18702               01.4090678866E+025.5503321437E+01+
*       6.7315585602E+02               0
GRID*              18703               01.4594496720E+026.9615890191E+01+
*       6.7244160334E+02               0
GRID*              18704               01.4669705615E+027.0951585738E+01+
*       6.6677643659E+02               0
GRID*              18705               01.4608009950E+027.3528910119E+01+
*       6.5531291413E+02               0
GRID*              18706               01.4441106629E+026.6699610984E+01+
*       6.5140135236E+02               0
GRID*              18707               01.4580862955E+026.7278121242E+01+
*       6.5708708315E+02               0
GRID*              18708               01.4430460325E+026.7906423444E+01+
*       6.7750682609E+02               0
GRID*              18709               01.4358209535E+026.1294337623E+01+
*       6.7268435654E+02               0
GRID*              18710               01.4194173140E+025.9584870876E+01+
*       6.7774957928E+02               0
GRID*              18711               01.3584767343E+024.7025228956E+01+
*       6.6629666009E+02               0
GRID*              18712               09.9716505252E+016.0383082031E+01+
*       7.0819082449E+02               0
GRID*              18713               09.0539181517E+017.7635415892E+01+
*       6.1850283979E+02               0
GRID*              18714               09.4332690649E+017.1752958897E+01+
*       6.1824596923E+02               0
GRID*              18715               01.0101594028E+026.5761107565E+01+
*       6.1907440652E+02               0
GRID*              18716               01.2916144839E+024.6486852947E+01+
*       6.8428684152E+02               0
GRID*              18717               01.3204877001E+025.2626841724E+01+
*       6.8821073081E+02               0
GRID*              18718               01.1628498435E+024.5630402693E+01+
*       6.9490792919E+02               0
GRID*              18719               01.3213496025E+025.7799962611E+01+
*       6.9293206976E+02               0
GRID*              18720               01.1501750956E+023.4253455850E+01+
*       6.7402128789E+02               0
GRID*              18721               01.2015398420E+023.6346624472E+01+
*       6.7244401407E+02               0
GRID*              18722               01.2924027674E+024.0785248911E+01+
*       6.6197676755E+02               0
GRID*              18723               01.2796467002E+024.0253378766E+01+
*       6.6739101292E+02               0
GRID*              18724               01.3230828424E+024.3610627579E+01+
*       6.6586807143E+02               0
GRID*              18725               08.5521652990E+016.2049262720E+01+
*       6.2274443150E+02               0
GRID*              18726               01.2819150235E+024.2184290954E+01+
*       6.7665910138E+02               0
GRID*              18727               01.2297618506E+023.8851228119E+01+
*       6.7718672758E+02               0
GRID*              18728               01.2144717041E+023.9684344062E+01+
*       6.8223650872E+02               0
GRID*              18729               01.2666248770E+024.3017406897E+01+
*       6.8170888252E+02               0
GRID*              18730               01.1783971042E+023.6758059496E+01+
*       6.7876400140E+02               0
GRID*              18731               07.0590471833E+015.1942338116E+01+
*       6.8977446546E+02               0
GRID*              18732               06.9144156344E+014.8625180516E+01+
*       6.8443437101E+02               0
GRID*              18733               07.7894694929E+014.5493609105E+01+
*       6.9019794001E+02               0
GRID*              18734               07.8706829655E+014.2142002464E+01+
*       6.8615192773E+02               0
GRID*              18735               07.3410114233E+014.4762502445E+01+
*       6.8379084745E+02               0
GRID*              18736               07.2597979507E+014.8114109086E+01+
*       6.8783685972E+02               0
GRID*              18737               06.3005535411E+015.2108397305E+01+
*       6.7750225087E+02               0
GRID*              18738               06.3048216109E+015.6121041907E+01+
*       6.8293646739E+02               0
GRID*              18739               06.6320447326E+015.0643289084E+01+
*       6.8194788392E+02               0
GRID*              18740               09.8424519728E+013.8904863261E+01+
*       6.9060272556E+02               0
GRID*              18741               09.4841246467E+014.1869138555E+01+
*       6.9430100928E+02               0
GRID*              18742               01.0878071723E+023.8545049063E+01+
*       6.8877756698E+02               0
GRID*              18743               01.1098336098E+023.6508941050E+01+
*       6.8408650518E+02               0
GRID*              18744               01.0637501125E+023.6360585489E+01+
*       6.8520142166E+02               0
GRID*              18745               09.3183810187E+014.6130910644E+01+
*       6.9860599905E+02               0
GRID*              18746               08.7779092537E+015.0646655755E+01+
*       7.0072574053E+02               0
GRID*              18747               09.2841224833E+015.1581585859E+01+
*       7.0279741517E+02               0
GRID*              18748               09.3687672168E+013.7967343661E+01+
*       6.8819832186E+02               0
GRID*              18749               01.0047100848E+023.6048940556E+01+
*       6.8573158464E+02               0
GRID*              18750               09.6243072714E+013.3291897955E+01+
*       6.7751950621E+02               0
GRID*              18751               09.5734160916E+013.5111420956E+01+
*       6.8332718094E+02               0
GRID*              18752               09.1883263849E+013.4104523545E+01+
*       6.7835488390E+02               0
GRID*              18753               08.9795004411E+013.6298426768E+01+
*       6.8370786050E+02               0
GRID*              18754               08.4989987518E+013.6342345074E+01+
*       6.7973669058E+02               0
GRID*              18755               08.3949440911E+013.9597311029E+01+
*       6.8586115565E+02               0
GRID*              18756               08.8121982675E+013.9824149549E+01+
*       6.8847048609E+02               0
GRID*              18757               08.2276419175E+014.3123033810E+01+
*       6.9062378123E+02               0
GRID*              18758               08.9275556973E+014.3725944442E+01+
*       6.9457317351E+02               0
GRID*              18759               01.3197026865E+025.3739224981E+01+
*       6.3924679150E+02               0
GRID*              18760               01.3174237844E+025.8541349410E+01+
*       6.3534237483E+02               0
GRID*              18761               01.2751727120E+025.4095771848E+01+
*       6.3485337942E+02               0
GRID*              18762               01.2389360221E+026.1537697862E+01+
*       6.2728689011E+02               0
GRID*              18763               01.1860017285E+025.8753574126E+01+
*       6.2584530655E+02               0
GRID*              18764               01.1919199815E+025.3287035468E+01+
*       6.2915491279E+02               0
GRID*              18765               01.2448542750E+025.6071159205E+01+
*       6.3059649636E+02               0
GRID*              18766               01.1405142686E+025.4968752841E+01+
*       6.2580755897E+02               0
GRID*              18767               01.1702953170E+024.8368297298E+01+
*       6.3244786262E+02               0
GRID*              18768               01.2281468044E+025.0678171525E+01+
*       6.3340790126E+02               0
GRID*              18769               01.1201959627E+024.5132221336E+01+
*       6.3283776782E+02               0
GRID*              18770               01.1693020062E+024.4055457198E+01+
*       6.3694275588E+02               0
GRID*              18771               01.2726767789E+025.0321624657E+01+
*       6.3780131334E+02               0
GRID*              18772               01.2271534936E+024.6365331424E+01+
*       6.3790279452E+02               0
GRID*              18773               01.3011577615E+024.2436793174E+01+
*       6.7175716045E+02               0
GRID*              18774               01.3445939037E+024.5794041987E+01+
*       6.7023421896E+02               0
GRID*              18775               01.3623254918E+024.8954702164E+01+
*       6.7366253046E+02               0
GRID*              18776               01.3924127552E+025.4388971186E+01+
*       6.7716737884E+02               0
GRID*              18777               06.2816508532E+018.0909146094E+01+
*       6.3619078996E+02               0
GRID*              18778               06.5636612972E+017.4675737577E+01+
*       6.3265528900E+02               0
GRID*              18779               06.7336558399E+016.8889226700E+01+
*       6.3239575725E+02               0
GRID*              18780               06.3782536265E+016.7817440745E+01+
*       6.3689575006E+02               0
GRID*              18781               06.7328292273E+016.2629853042E+01+
*       6.3443668768E+02               0
GRID*              18782               01.1675293774E+026.0828777121E+01+
*       7.0503360403E+02               0
GRID*              18783               01.1890573864E+025.4888857001E+01+
*       7.0147172169E+02               0
GRID*              18784               09.4839104648E+016.2562712643E+01+
*       6.2050615398E+02               0
GRID*              18785               09.6774290455E+016.8084522276E+01+
*       6.1876059236E+02               0
GRID*              18786               01.2346867520E+024.4061790325E+01+
*       6.8745217934E+02               0
GRID*              18787               01.1848906795E+024.0391755213E+01+
*       6.8614419918E+02               0
GRID*              18788               01.1655368173E+023.8372449867E+01+
*       6.8379683310E+02               0
GRID*              18789               01.1359557927E+023.9079861018E+01+
*       6.8770452356E+02               0
GRID*              18790               01.3149689521E+024.3588154221E+01+
*       6.5785707224E+02               0
GRID*              18791               01.3243153450E+024.5599968496E+01+
*       6.5265149388E+02               0
GRID*              18792               01.3532514205E+024.7284897922E+01+
*       6.5694257074E+02               0
GRID*              18793               01.2368157826E+027.4008071309E+01+
*       6.2410732898E+02               0
GRID*              18794               01.1970176574E+027.7858534984E+01+
*       6.2130556642E+02               0
GRID*              18795               01.1881193467E+027.0891146939E+01+
*       6.2194664760E+02               0
GRID*              18796               07.9129496204E+015.9609602699E+01+
*       6.2686279438E+02               0
GRID*              18797               01.3473612756E+025.3336499491E+01+
*       6.4404573621E+02               0
GRID*              18798               01.3546990023E+025.8560775016E+01+
*       6.4000471075E+02               0
GRID*              18799               01.3823575915E+025.8158049525E+01+
*       6.4480365547E+02               0
GRID*              18800               01.3040706329E+024.9052487534E+01+
*       6.4271625218E+02               0
GRID*              18801               01.4508157280E+027.4217480962E+01+
*       6.5092221111E+02               0
GRID*              18802               01.3308311459E+024.6058404483E+01+
*       6.7540295571E+02               0
GRID*              18803               01.3306852358E+024.4481992612E+01+
*       6.6106226606E+02               0
GRID*              18804               01.3616220744E+024.9880875618E+01+
*       6.5270830525E+02               0
GRID*              18805               01.2984098516E+028.1574424285E+01+
*       6.2814960397E+02               0
GRID*              18806               01.3220924392E+027.5442143831E+01+
*       6.2980597541E+02               0
GRID*              18807               01.2020513677E+026.4758521695E+01+
*       6.2370787477E+02               0
GRID*              18808               01.2481466893E+027.6713677587E+01+
*       6.2421970338E+02               0
GRID*              18809               01.2269050712E+028.3555078628E+01+
*       6.2340222283E+02               0
GRID*              18810               01.2871053474E+026.0516736767E+01+
*       6.3108549177E+02               0
GRID*              18811               01.2362562121E+024.1467507338E+01+
*       6.4710288965E+02               0
GRID*              18812               01.2585473476E+024.5096194301E+01+
*       6.4281773336E+02               0
GRID*              18813               01.3474499300E+028.1358100063E+01+
*       6.3244231009E+02               0
GRID*              18814               01.3638415401E+027.4687711311E+01+
*       6.3396218816E+02               0
GRID*              18815               01.3951709419E+026.7754196730E+01+
*       6.4057533537E+02               0
GRID*              18816               01.3859964004E+026.2296197511E+01+
*       6.4148908789E+02               0
GRID*              18817               01.4154713075E+026.4922770757E+01+
*       6.4585121157E+02               0
GRID*              18818               07.4603693715E+014.9125038370E+01+
*       6.3792422953E+02               0
GRID*              18819               01.1198370130E+024.1890433238E+01+
*       6.9221074459E+02               0
GRID*              18820               08.6885097165E+015.5444970739E+01+
*       7.0374002063E+02               0
GRID*              18821               09.1947229461E+015.6379900843E+01+
*       7.0581169527E+02               0
GRID*              18822               07.9747376262E+013.8887036509E+01+
*       6.8002746266E+02               0
GRID*              18823               01.2993621290E+024.5584896052E+01+
*       6.4743633135E+02               0
GRID*              18824               01.3366688584E+024.9865803174E+01+
*       6.4749314272E+02               0
GRID*              18825               01.4351623797E+026.9991588842E+01+
*       6.4694981639E+02               0
GRID*              18826               01.1489851335E+026.6659320572E+01+
*       6.2133630955E+02               0
GRID*              18827               01.1064959564E+027.0869182529E+01+
*       6.1897718416E+02               0
GRID*              18828               01.3278466107E+026.3924132156E+01+
*       6.3319032155E+02               0
GRID*              18829               01.3586233973E+026.9178428579E+01+
*       6.3470084242E+02               0
GRID*              18830               01.1008196525E+025.8750090136E+01+
*       6.2262524194E+02               0
GRID*              18831               01.1463071124E+026.2534911420E+01+
*       6.2266298952E+02               0
GRID*              18832               01.0932408781E+026.4435710298E+01+
*       6.2029142429E+02               0
GRID*              18833               01.3651218286E+026.3943557761E+01+
*       6.3785265747E+02               0
GRID*              18834               01.3886725106E+027.2989067548E+01+
*       6.3742352032E+02               0
GRID*              18835               05.4025944712E+017.1497074703E+01+
*       6.6195115611E+02               0
GRID*              18836               05.4076290844E+017.1052959722E+01+
*       6.6708179847E+02               0
GRID*              18837               05.5162800621E+016.4510305362E+01+
*       6.6297672025E+02               0
GRID*              18838               01.1987830607E+028.3544852160E+01+
*       6.2215438633E+02               0
GRID*              18839               01.0490425191E+026.1295469807E+01+
*       6.2080012828E+02               0
GRID*              18840               06.2082590838E+017.3603951622E+01+
*       6.3715528181E+02               0
GRID*              18841               07.1394913847E+016.2955445015E+01+
*       6.3081375466E+02               0
GRID*              18842               06.4489053718E+016.1796733436E+01+
*       6.3885177402E+02               0
GRID*              18843               01.0689691004E+023.4321052997E+01+
*       6.8072065118E+02               0
GRID*              18844               01.1714034616E+024.2634414040E+01+
*       6.9066486017E+02               0
GRID*              18845               01.1226938967E+023.4894550679E+01+
*       6.7905367348E+02               0
GRID*              18846               06.3610505560E+014.9249439403E+01+
*       6.5980196280E+02               0
GRID*              18847               06.4170064895E+015.0164435869E+01+
*       6.5408408813E+02               0
GRID*              18848               06.0528385293E+015.3570723949E+01+
*       6.5766269106E+02               0
GRID*              18849               01.4724584361E+027.3288773362E+01+
*       6.6223295387E+02               0
GRID*              18850               01.4352047416E+027.8260116143E+01+
*       6.4549010455E+02               0
GRID*              18851               01.4148620141E+027.2823014815E+01+
*       6.4167394019E+02               0
GRID*              18852               01.4205687606E+026.6501939358E+01+
*       6.8274844105E+02               0
GRID*              18853               06.2983027002E+014.9583870022E+01+
*       6.6761564406E+02               0
GRID*              18854               06.1930598415E+015.2186893224E+01+
*       6.7324468647E+02               0
GRID*              18855               06.4732013636E+016.4661395275E+01+
*       6.9189695795E+02               0
GRID*              18856               07.8793725601E+016.0599227134E+01+
*       7.0230593892E+02               0
GRID*              18857               01.0073478158E+023.1236073277E+01+
*       6.6507188205E+02               0
GRID*              18858               09.5883986039E+013.1323610770E+01+
*       6.6080741068E+02               0
GRID*              18859               09.4950839106E+013.1534219749E+01+
*       6.6692943544E+02               0
GRID*              18860               01.0255031598E+023.1634145792E+01+
*       6.6067242054E+02               0
GRID*              18861               01.0451752328E+023.1519406663E+01+
*       6.7039497709E+02               0
GRID*              18862               01.0885589498E+023.3108560925E+01+
*       6.7431686072E+02               0
GRID*              18863               09.8733580804E+013.1817553135E+01+
*       6.7225253047E+02               0
GRID*              18864               01.0348341535E+023.2535063242E+01+
*       6.7598383843E+02               0
GRID*              18865               01.0099290726E+023.4009408063E+01+
*       6.8125081417E+02               0
GRID*              18866               09.0296973340E+013.2478971335E+01+
*       6.6288649610E+02               0
GRID*              18867               08.4896125057E+015.7720953928E+01+
*       6.2497573787E+02               0
GRID*              18868               08.9119173980E+015.8381632954E+01+
*       6.2314937863E+02               0
GRID*              18869               01.0905632307E+023.7587872082E+01+
*       6.4202621456E+02               0
GRID*              18870               06.0124548252E+017.7886335171E+01+
*       6.4032985724E+02               0
GRID*              18871               06.0607677190E+016.5289186607E+01+
*       6.4293605665E+02               0
GRID*              18872               05.9901159737E+017.1309893917E+01+
*       6.4098003269E+02               0
GRID*              18873               06.0667610820E+015.6317544105E+01+
*       6.7727441140E+02               0
GRID*              18874               06.0710291518E+016.0330188707E+01+
*       6.8270862792E+02               0
GRID*              18875               06.9886661358E+014.5418976972E+01+
*       6.7914583374E+02               0
GRID*              18876               06.7062952340E+014.7437085540E+01+
*       6.7665934665E+02               0
GRID*              18877               06.1278175896E+016.5456789659E+01+
*       6.8729088686E+02               0
GRID*              18878               01.0521524002E+023.2691165696E+01+
*       6.5331337529E+02               0
GRID*              18879               01.0614334669E+023.5108162502E+01+
*       6.4728723838E+02               0
GRID*              18880               01.0029180958E+023.3754933747E+01+
*       6.4889941052E+02               0
GRID*              18881               01.0397906559E+023.9397380770E+01+
*       6.3838908808E+02               0
GRID*              18882               01.0320478596E+023.6234643326E+01+
*       6.4363838670E+02               0
GRID*              18883               01.1163728436E+024.1349884430E+01+
*       6.3774440762E+02               0
GRID*              18884               08.7693620586E+013.4707029816E+01+
*       6.5123128680E+02               0
GRID*              18885               09.2265543580E+013.2813567902E+01+
*       6.5528710637E+02               0
GRID*              18886               09.3575499965E+013.4404534438E+01+
*       6.4907158972E+02               0
GRID*              18887               09.8981853191E+013.2163967210E+01+
*       6.5511492717E+02               0
GRID*              18888               09.7327611251E+013.9212241854E+01+
*       6.3845711480E+02               0
GRID*              18889               09.6553331613E+013.6049504410E+01+
*       6.4370641342E+02               0
GRID*              18890               05.7844883164E+016.2097977857E+01+
*       6.7802556165E+02               0
GRID*              18891               05.8197953541E+015.8904966655E+01+
*       6.7265314020E+02               0
GRID*              18892               05.6297096703E+016.4197430035E+01+
*       6.7386389897E+02               0
GRID*              18893               05.4617257567E+017.0728515414E+01+
*       6.7320454169E+02               0
GRID*              18894               05.4987446492E+016.5248993863E+01+
*       6.6860498033E+02               0
GRID*              18895               05.9460941136E+015.4774315774E+01+
*       6.6862341526E+02               0
GRID*              18896               05.6888303330E+015.9956530482E+01+
*       6.6739422156E+02               0
GRID*              18897               07.4044294996E+015.1431266686E+01+
*       6.9317695417E+02               0
GRID*              18898               05.6165044028E+016.8629063236E+01+
*       6.7736620436E+02               0
GRID*              18899               06.8272693358E+015.7701434551E+01+
*       6.3709965056E+02               0
GRID*              18900               08.6181878729E+015.0230737949E+01+
*       6.2942674694E+02               0
GRID*              18901               08.6644066775E+015.4547812917E+01+
*       6.2639815551E+02               0
GRID*              18902               01.0558549632E+024.4218750471E+01+
*       6.3261203493E+02               0
GRID*              18903               01.0943863498E+024.1370208988E+01+
*       6.3711957475E+02               0
GRID*              18904               07.1672107380E+014.1918458638E+01+
*       6.5564091811E+02               0
GRID*              18905               01.0815044973E+024.8461022499E+01+
*       6.2896133998E+02               0
GRID*              18906               09.7120501010E+014.9923366885E+01+
*       7.0176662925E+02               0
GRID*              18907               09.6777915656E+015.5374042100E+01+
*       7.0595804537E+02               0
GRID*              18908               08.9062392104E+016.1587368856E+01+
*       7.0730390989E+02               0
GRID*              18909               01.4080381662E+027.8453371154E+01+
*       6.4040480649E+02               0
GRID*              18910               01.3799924775E+027.9727224824E+01+
*       6.3638408375E+02               0
GRID*              18911               06.3530509058E+015.4508936595E+01+
*       6.4696504614E+02               0
GRID*              18912               06.5941601392E+015.5061488680E+01+
*       6.4242663955E+02               0
GRID*              18913               06.2157961752E+015.9156787565E+01+
*       6.4417876300E+02               0
GRID*              18914               07.2012455208E+014.7803328296E+01+
*       6.4250158265E+02               0
GRID*              18915               05.5240535447E+016.5961523815E+01+
*       6.5720375771E+02               0
GRID*              18916               08.3845984981E+016.0568258861E+01+
*       7.0477302431E+02               0
GRID*              18917               09.1864412297E+013.8674198698E+01+
*       6.4040037172E+02               0
GRID*              18918               01.3789806231E+025.0069052415E+01+
*       6.6965100763E+02               0
GRID*              18919               09.0671452233E+013.6351999788E+01+
*       6.4586611049E+02               0
GRID*              18920               05.7426165553E+016.2784033701E+01+
*       6.5263841430E+02               0
GRID*              18921               05.9186620652E+016.3917922215E+01+
*       6.4722188351E+02               0
GRID*              18922               06.0552903339E+015.8522425956E+01+
*       6.4841215567E+02               0
GRID*              18923               05.7433426317E+016.0050041817E+01+
*       6.5868141959E+02               0
GRID*              18924               05.9619056423E+015.6872551704E+01+
*       6.5411607619E+02               0
GRID*              18925               08.1227102588E+013.6165218564E+01+
*       6.7473259406E+02               0
GRID*              18926               08.6678530881E+013.3968928468E+01+
*       6.5736619180E+02               0
GRID*              18927               08.1799218182E+013.6814479481E+01+
*       6.5197017807E+02               0
GRID*              18928               06.6238341744E+014.9452774263E+01+
*       6.4909036373E+02               0
GRID*              18929               06.2596662142E+015.2859062342E+01+
*       6.5266896666E+02               0
GRID*              18930               08.8409563554E+014.2211612302E+01+
*       6.3647391570E+02               0
GRID*              18931               09.3872762508E+014.2749655458E+01+
*       6.3453065878E+02               0
GRID*              18932               08.2918635752E+014.3940752219E+01+
*       6.3776174485E+02               0
GRID*              18933               08.5676186575E+013.9988442663E+01+
*       6.4117927788E+02               0
GRID*              18934               08.4550274411E+014.5860273393E+01+
*       6.3425550718E+02               0
GRID*              18935               08.9271889279E+014.5826031686E+01+
*       6.3210398199E+02               0
GRID*              18936               09.9080754476E+016.0239297933E+01+
*       6.2081996814E+02               0
GRID*              18937               09.4790849093E+015.8196747904E+01+
*       6.2219658593E+02               0
GRID*              18938               09.9308086293E+015.5142175436E+01+
*       6.2356352626E+02               0
GRID*              18939               09.2367700412E+015.3608907723E+01+
*       6.2515174771E+02               0
GRID*              18940               07.7208675094E+013.8712766601E+01+
*       6.7571331105E+02               0
GRID*              18941               07.5728948768E+014.1434584547E+01+
*       6.8100817966E+02               0
GRID*              18942               01.0012592693E+024.2245922252E+01+
*       6.3388154826E+02               0
GRID*              18943               01.0050447895E+024.6584800979E+01+
*       6.2979322037E+02               0
GRID*              18944               09.1905512366E+014.9291832755E+01+
*       6.2818033914E+02               0
GRID*              18945               09.5525053705E+014.5322298480E+01+
*       6.3145487147E+02               0
GRID*              18946               09.6884937612E+015.0554335254E+01+
*       6.2651868803E+02               0
GRID*              18947               07.2205495892E+014.2091059073E+01+
*       6.7636316595E+02               0
GRID*              18948               01.2682510058E+026.2304650252E+01+
*       7.0001345171E+02               0
GRID*              18949               01.3508630247E+026.3852919097E+01+
*       6.9268548834E+02               0
GRID*              18950               01.2235034064E+026.1352494973E+01+
*       7.0260388365E+02               0
GRID*              18951               05.8412767542E+016.7224578809E+01+
*       6.8260782059E+02               0
GRID*              18952               05.9158929027E+015.5496266938E+01+
*       6.6309892090E+02               0
GRID*              18953               08.0481945153E+014.0904743705E+01+
*       6.4362473865E+02               0
GRID*              18954               08.4483226511E+013.7666243753E+01+
*       6.4664501665E+02               0
GRID*              18955               01.0425846782E+025.7693918262E+01+
*       6.2264508179E+02               0
GRID*              18956               01.0306943237E+025.0827073007E+01+
*       6.2614252542E+02               0
GRID*              18957               01.0801981389E+025.3378815833E+01+
*       6.2522408096E+02               0
GRID*              18958               07.9059346608E+014.7589413311E+01+
*       6.3554333632E+02               0
GRID*              18959               06.0830397402E+015.2848772785E+01+
*       6.6318718543E+02               0
GRID*              18960               07.7724394330E+014.4857053261E+01+
*       6.4020720562E+02               0
GRID*              18961               07.7797936825E+014.0052979433E+01+
*       6.4894990007E+02               0
GRID*              18962               01.3154010356E+026.3804882684E+01+
*       6.9683803816E+02               0
GRID*              18963               01.1418206271E+025.0050959507E+01+
*       6.2954481799E+02               0
GRID*              18964               06.8183972473E+014.5668500158E+01+
*       6.5292280106E+02               0
GRID*              18965               07.5133155823E+014.3535343187E+01+
*       6.4478455874E+02               0
GRID*              18966               07.0563044001E+014.5765165115E+01+
*       6.4773542186E+02               0
GRID*              18967               06.7687752950E+015.1490937444E+01+
*       6.4385652452E+02               0
GRID*              18968               07.4051178908E+014.2015123595E+01+
*       6.5045353891E+02               0
GRID*              18969               01.0039713287E+027.4321417052E+01+
*       6.1488746304E+02               0
GRID*              18970               01.0143188917E+027.4456820507E+01+
*       6.1487734654E+02               0
GRID*              18971               01.0249198047E+027.4854754345E+01+
*       6.1486702023E+02               0
GRID*              18972               01.0331852915E+027.5490575805E+01+
*       6.1487971165E+02               0
GRID*              18973               01.0395599829E+027.6318444128E+01+
*       6.1486396541E+02               0
GRID*              18974               01.0435660617E+027.7380795414E+01+
*       6.1487960385E+02               0
GRID*              18975               01.0449194802E+027.8414852107E+01+
*       6.1488918623E+02               0
GRID*              18976               01.0435632459E+027.9451001936E+01+
*       6.1487842790E+02               0
GRID*              18977               01.0395956101E+028.0511616191E+01+
*       6.1486827278E+02               0
GRID*              18978               01.0332329766E+028.1338683318E+01+
*       6.1488119305E+02               0
GRID*              18979               01.0249539969E+028.1976104650E+01+
*       6.1486528428E+02               0
GRID*              18980               01.0143328284E+028.2374887098E+01+
*       6.1488022414E+02               0
GRID*              18981               01.0039713977E+028.2510647149E+01+
*       6.1489041590E+02               0
GRID*              18982               09.9360996526E+018.2374888695E+01+
*       6.1488022426E+02               0
GRID*              18983               09.8298896788E+018.1976108195E+01+
*       6.1486528002E+02               0
GRID*              18984               09.7470996743E+018.1338688990E+01+
*       6.1488117743E+02               0
GRID*              18985               09.6834715272E+018.0511603243E+01+
*       6.1486826793E+02               0
GRID*              18986               09.6437950261E+017.9451007206E+01+
*       6.1487842854E+02               0
GRID*              18987               09.6302318561E+017.8414859515E+01+
*       6.1488918788E+02               0
GRID*              18988               09.6437665283E+017.7380803670E+01+
*       6.1487960463E+02               0
GRID*              18989               09.6838270861E+017.6318461908E+01+
*       6.1486396275E+02               0
GRID*              18990               09.7475737911E+017.5490591686E+01+
*       6.1487970185E+02               0
GRID*              18991               09.8302298099E+017.4854757886E+01+
*       6.1486701737E+02               0
GRID*              18992               09.9362376874E+017.4456822459E+01+
*       6.1487734639E+02               0
$*
$* ELEMENT CARDS
$*
$*  Mesh Collector: Solid(4)
$*  Mesh: 3d_mesh(1)
CTETRA         1       4     134     724     145    5945    2301   11789+
+          11780   11790   11791    7641
CTETRA         2       4       7     728    1819    6095    5774    5773+
+           5772   11792   11793   11794
CTETRA         3       4     135     724    1821    5941    2303    5781+
+           5780   11795   11796   11797
CTETRA         4       4       7       8     728    6095     154   11798+
+           5774   11792    8026   11793
CTETRA         5       4     601     602     639    5819    1828    1949+
+           1948   11799   11800   11801
CTETRA         6       4     679     680     682    5887    2088    2094+
+           2096   11802   11803   11804
CTETRA         7       4     688    5870    5883    5884   11805    7428+
+          11806   11807    7443    7444
CTETRA         8       4     624    5870     688    5884   11808   11805+
+           2124   11809    7443   11807
CTETRA         9       4     624    5837     625    5870   11810   11811+
+           1968   11808    7401   11812
CTETRA        10       4     145    5819     602    5945    7627   11800+
+          11813    7641    7643   11814
CTETRA        11       4     625    5870    5869    5883   11812    7404+
+          11815   11816    7428    7427
CTETRA        12       4     625    5838    5869    5870   11817    7377+
+          11815   11812    7403    7404
CTETRA        13       4     133     134     144     602     136   11783+
+          11782    1824    1823   11818
CTETRA        14       4     144     602     145    5819   11818   11813+
+            147    7626   11800    7627
CTETRA        15       4     625     626     645    5869    1944    2041+
+           2042   11815   11819   11820
CTETRA        16       4     626    5849    5868    5869   11821    7374+
+          11822   11819    7379    7380
CTETRA        17       4    1807    1813    1811    6075    5739    5735+
+           5737   11823   11824   11825
CTETRA        18       4    1811    6075    1813    6086   11825   11824+
+           5735   11826    8012   11827
CTETRA        19       4    1811    1815    1814    6087    5749    5750+
+           5747   11828   11829   11830
CTETRA        20       4    1811    6086    6087    6088   11826    8016+
+          11828   11831    8015    8011
CTETRA        21       4    1666    6053    1667    6056   11832   11833+
+           5387   11834    7922   11835
CTETRA        22       4      20      21       9    5828      29     550+
+            549   11836   11837    7254
CTETRA        23       4      10    5828     613    5832    7255   11838+
+          11839    7287    7289   11840
CTETRA        24       4    1666    1771    6054    6056    5582   11841+
+          11842   11834   11843    7921
CTETRA        25       4    1771    1772    1774    6058    5584    5586+
+           5591   11844   11845   11846
CTETRA        26       4    1772    6057    6046    6058   11847    7912+
+          11848   11845    7915    7918
CTETRA        27       4    1773    1774    1776    6051    5592    5594+
+           5599   11849   11850   11851
CTETRA        28       4    1588    6259    6260    6271   11852    8608+
+          11853   11854    8607    8606
CTETRA        29       4    1588    6260    1702    6271   11853   11855+
+           5347   11854    8606   11856
CTETRA        30       4    1675    1676    1725    6334    5342    5435+
+           5432   11857   11858   11859
CTETRA        31       4    1676    6334    6261    6335   11858    8832+
+          11860   11861    8834    8830
CTETRA        32       4    1702    6260    1703    6283   11855   11862+
+           5341   11863    8603   11864
CTETRA        33       4     391    1723     393    6338    5422    5427+
+            392   11865   11866   11867
CTETRA        34       4     739    1246    6791    6804    3873   11868+
+          11869   11870   11871   10304
CTETRA        35       4     391     393    1580    6004     392    5122+
+           5123   11872   11873   11874
CTETRA        36       4     739    1241    1246    6804    3869    3872+
+           3873   11870   11875   11871
CTETRA        37       4     738    6791    1246    6798   11876   11868+
+           3880   11877   10301   11878
CTETRA        38       4     861     863     862    7230    2680    2681+
+           2677   11879   11880   11881
CTETRA        39       4     861    7230     862    7233   11879   11881+
+           2677   11882   11710   11883
CTETRA        40       4     813    7090    7089    7188   11884   11412+
+          11885   11886   11568   11570
CTETRA        41       4     862     863     864    7226    2681    2685+
+           2684   11887   11888   11889
CTETRA        42       4    1806    6073    6072    6088   11890    7981+
+          11891   11892    8007    8004
CTETRA        43       4     391    1723    6338    6345    5422   11866+
+          11865   11893   11894    8879
CTETRA        44       4     391     198     196    6345   11895     197+
+          11896   11893    8875    8874
CTETRA        45       4     391     393     198    6338     392   11897+
+          11895   11865   11867    8869
CTETRA        46       4     836    7207    7226    7228   11898   11674+
+          11899   11900   11676   11678
CTETRA        47       4     836    7226     864    7228   11899   11889+
+           2686   11900   11678   11901
CTETRA        48       4    1723    6344    6338    6345   11902    8880+
+          11866   11894    8878    8879
CTETRA        49       4     862    7230    7226    7233   11881   11691+
+          11887   11883   11710   11709
CTETRA        50       4     860     861     862    7233    2673    2677+
+           2676   11903   11882   11883
CTETRA        51       4     804    7089    7090    7148   11904   11412+
+          11905   11906   11411   11410
CTETRA        52       4     391    6338     198    6345   11865    8869+
+          11895   11893    8879    8875
CTETRA        53       4     837    7225     862    7226   11907   11908+
+           2678   11909   11675   11887
CTETRA        54       4     393     395    1630    6021     394    5117+
+           5118   11910   11911   11912
CTETRA        55       4     377     582    1768    6062    2295    5558+
+           5559   11913   11914   11915
CTETRA        56       4     720     721    5917    5919    2248   11916+
+          11917   11918   11919    7544
CTETRA        57       4     721    5919     722    5920   11919   11920+
+           2252   11921    7546   11922
CTETRA        58       4     670     719     721    5917    2242    2247+
+           2249   11923   11924   11916
CTETRA        59       4     669     670     721    5908    2076    2249+
+           2250   11925   11926   11927
CTETRA        60       4    1722    6339    1723    6344   11928   11929+
+           5426   11930    8881   11902
CTETRA        61       4     669    5908     721    5920   11925   11927+
+           2250   11931    7547   11921
CTETRA        62       4    1595    1625    1596    6406    5099    5097+
+           5100   11932   11933   11934
CTETRA        63       4    1596    6411    6419    6420   11935    9089+
+          11936   11937    9085    9087
CTETRA        64       4    1625    1626    6406    6407    5096   11938+
+          11933   11939   11940    9088
CTETRA        65       4    1596    6406    1626    6420   11934   11938+
+           5098   11937    9086   11941
CTETRA        66       4     698    5892    5891    5926   11942    7461+
+          11943   11944    7568    7569
CTETRA        67       4     417     226     419    6151   11945   11946+
+            418   11947    8392   11948
CTETRA        68       4     692    5891     698    5892   11949   11943+
+           2149   11950    7461   11942
CTETRA        69       4     419    1579    6357    6388    4983   11951+
+          11952   11953   11954    9013
CTETRA        70       4     698     710    5926    5927    2202   11955+
+          11944   11956   11957    7578
CTETRA        71       4     698    5890     711    5927   11958   11959+
+           2203   11956    7586   11960
CTETRA        72       4    1577    6357    6358    6377   11961    8962+
+          11962   11963    8961    8958
CTETRA        73       4     693    5890     698    5891   11964   11958+
+           2150   11965    7455   11943
CTETRA        74       4     539     346    7208    7229   11966   11619+
+          11967   11968   11683   11684
CTETRA        75       4     539    7208     835    7229   11967   11969+
+           2578   11968   11684   11970
CTETRA        76       4     539       3       5    7229     540     554+
+          11971   11968   11972   11685
CTETRA        77       4     419     228     226    6357   11973     227+
+          11946   11952    8959    8960
CTETRA        78       4    1487    6191    6140    6192   11974    8357+
+          11975   11976    8352    8354
CTETRA        79       4    1244    6798    6797    6806   11977   10299+
+          11978   11979   10325   10311
CTETRA        80       4    1476    1494    1496    6188    4714    4716+
+           4715   11980   11981   11982
CTETRA        81       4    1476    6188    1496    6190   11980   11982+
+           4715   11983    8337   11984
CTETRA        82       4    1495    6164    1496    6188   11985   11986+
+           4720   11987    8338   11982
CTETRA        83       4    1439    1452    1451    6691    4555    4560+
+           4550   11988   11989   11990
CTETRA        84       4     515     942     940    7113    2933    2934+
+           2924   11991   11992   11993
CTETRA        85       4     940     942    7109    7113    2934   11994+
+          11995   11993   11992   11242
CTETRA        86       4    1452    6686    6687    6692   11996    9972+
+          11997   11998    9966    9971
CTETRA        87       4    1439    1440    1452    6686    4524    4554+
+           4555   11999   12000   11996
CTETRA        88       4     439    1452    6687    6692    4557   11997+
+          12001   12002   11998    9971
CTETRA        89       4    1185    1443    1444    6708    4498    4504+
+           4494   12003   12004   12005
CTETRA        90       4    1135    7074    1137    7077   12006   12007+
+           3571   12008   11199   12009
CTETRA        91       4    1133    1137    7075    7077    3569   12010+
+          12011   12012   12009   11191
CTETRA        92       4    1444    5967    5966    6712   12013    8286+
+          12014   12015   10041   10042
CTETRA        93       4    1433    5966    1444    5967   12016   12014+
+           4497   12017    8286   12013
CTETRA        94       4    1433    1442    1434    5967    4500    4503+
+           4502   12017   12018   12019
CTETRA        95       4    1425    6213    6199    6214   12020    8445+
+          12021   12022    8455    8454
CTETRA        96       4     886     897     887    7014    2731    2735+
+           2736   12023   12024   12025
CTETRA        97       4     887     897    7011    7014    2735   12026+
+          12027   12025   12024   10917
CTETRA        98       4    1418    1425    6199    6214    4451   12021+
+          12028   12029   12022    8454
CTETRA        99       4    1426    6210    6212    6214   12030    8440+
+          12031   12032    8451    8452
CTETRA       100       4     967    6504     978    6853   12033   12034+
+           3015   12035   10483   12036
CTETRA       101       4     978    6853    6504    6854   12036   10483+
+          12034   12037   10485   10488
CTETRA       102       4    1413    1421    1426    6212    4431    4449+
+           4446   12038   12039   12031
CTETRA       103       4    1271    1272    1364    6720    4092    4299+
+           4300   12040   12041   12042
CTETRA       104       4    1174    6756    6774    6782   12043   10207+
+          12044   12045   10209   10208
CTETRA       105       4     591    6042     609    6128   12046   12047+
+           1862   12048    8172   12049
CTETRA       106       4    1020    6816    6498    6827   12050   10358+
+          12051   12052   10386   10387
CTETRA       107       4    1174    6774    6775    6782   12044   10214+
+          12053   12045   10208   10212
CTETRA       108       4    1271    6718    6719    6720   12054   10065+
+          12055   12040   10062   10064
CTETRA       109       4    1437    5970    1449    6690   12056   12057+
+           4539   12058    9957   12059
CTETRA       110       4    1193    1194    1363    6547    3745    4286+
+           4283   12060   12061   12062
CTETRA       111       4    1194    1358    1363    6549    4266    4287+
+           4286   12063   12064   12065
CTETRA       112       4    1194    1363    6547    6549    4286   12062+
+          12061   12063   12065    9415
CTETRA       113       4    1406    1493    6362    6383    4698   12066+
+          12067   12068   12069    8973
CTETRA       114       4    1406    6362    6380    6383   12067    8974+
+          12070   12068    8973    8976
CTETRA       115       4    1194    1195    6549    6551    3748   12071+
+          12063   12072   12073    9432
CTETRA       116       4    1194    1210    1195    6551    3747    3749+
+           3748   12072   12074   12073
CTETRA       117       4    1274    6734    6735    6738   12075   10127+
+          12076   12077   10126   10128
CTETRA       118       4    1286    1321    6740    6743    4129   12078+
+          12079   12080   12081   10144
CTETRA       119       4    1587    1611    1588    6301    5016    5020+
+           5022   12082   12083   12084
CTETRA       120       4    1588    6287    6271    6301   12085    8710+
+          11854   12084    8712    8711
CTETRA       121       4    1274    1322    6734    6738    4126   12086+
+          12075   12077   12087   10126
CTETRA       122       4    1203    1230    1204    6516    3799    3798+
+           3800   12088   12089   12090
CTETRA       123       4    1253    1255    1254    6514    3913    3906+
+           3914   12091   12092   12093
CTETRA       124       4    1203    1204    1255    6639    3800    3905+
+           3908   12094   12095   12096
CTETRA       125       4    1251    6638    1255    6643   12097   12098+
+           3912   12099    9756   12100
CTETRA       126       4    1205    6515    6541    6560   12101    9456+
+          12102   12103    9500    9503
CTETRA       127       4     427    1416    1428    6224    4466    4468+
+           4469   12104   12105   12106
CTETRA       128       4    1225    6541    6516    6554   12107    9453+
+          12108   12109    9455    9454
CTETRA       129       4     493     302     495    6783   12110   12111+
+            494   12112   10224   12113
CTETRA       130       4     493     495     302    6970     494   12111+
+          12110   12114   12115   10874
CTETRA       131       4    1416    1428    6224    6225    4468   12106+
+          12105   12116   12117    8488
CTETRA       132       4     493    1173    6778    6783    3690   12118+
+          12119   12112   12120   10221
CTETRA       133       4    1067    1070    6969    6972    3338   12121+
+          12122   12123   12124   10870
CTETRA       134       4     595    6125    6134    6135   12125    8196+
+          12126   12127    8200    8202
CTETRA       135       4     585     594    6135    6136    2285   12128+
+          12129   12130   12131    8207
CTETRA       136       4    1168    6753    1170    6754   12132   12133+
+           3688   12134   10231   12135
CTETRA       137       4     594    6125     595    6135   12136   12125+
+           1873   12128    8200   12127
CTETRA       138       4     585     594     586    6135    2285    2284+
+           2286   12129   12128   12137
CTETRA       139       4     594    6126    6135    6136   12138    8201+
+          12128   12131    8205    8207
CTETRA       140       4    1171    6779    1173    6781   12139   12140+
+           3695   12141   10219   12142
CTETRA       141       4     491     493    1173    6778     492    3690+
+           3692   12143   12119   12118
CTETRA       142       4    1168    6754    1172    6781   12134   12144+
+           3697   12145   10225   12146
CTETRA       143       4     495    1170    1168    6753    3685    3688+
+           3686   12147   12133   12132
CTETRA       144       4    1173    6781    6778    6783   12142   10220+
+          12118   12120   10222   10221
CTETRA       145       4    1706    5986    5985    6311   12148    7932+
+          12149   12150    8765    8763
CTETRA       146       4    1089    6994    1140    6995   12151   12152+
+           3586   12153   10965   12154
CTETRA       147       4     816    7206     836    7207   12155   12156+
+           2580   12157   11624   11898
CTETRA       148       4     381    5986     188    6064   12158    7942+
+          12159   12160    7938    7940
CTETRA       149       4    1089    6994    6995    7006   12151   10965+
+          12153   12161   10964   10963
CTETRA       150       4    1090    7027    1117    7028   12162   12163+
+           3496   12164   11006   12165
CTETRA       151       4    1663    1696    6040    6041    5301   12166+
+          12167   12168   12169    7880
CTETRA       152       4    1696    5980    6040    6041   12170    7878+
+          12166   12169    7877    7880
CTETRA       153       4    1089    1155    1140    6994    3636    3632+
+           3586   12151   12171   12152
CTETRA       154       4    1088    6995    1142    6996   12172   12173+
+           3587   12174   10959   12175
CTETRA       155       4    1121    7005    7024    7026   12176   10998+
+          12177   12178   10996   10999
CTETRA       156       4    1088    1140    1142    6995    3585    3584+
+           3587   12172   12154   12173
CTETRA       157       4     810    7191     816    7192   12179   12180+
+           2528   12181   11563   12182
CTETRA       158       4    1101    6903    6913    6916   12183   10649+
+          12184   12185   10650   10643
CTETRA       159       4     365     174     367     725   12186   12187+
+            366    2300   12188    5782
CTETRA       160       4    1128    1129    1130    6916    3536    3546+
+           3539   12189   12190   12191
CTETRA       161       4    1128    6915    6904    6916   12192   10641+
+          12193   12189   10648   10651
CTETRA       162       4     365     367     174    5831     366   12187+
+          12186   12194   12195    7278
CTETRA       163       4     369     176     174    5826   12196     175+
+          12197   12198    7259    7279
CTETRA       164       4     367     174     369    5942   12187   12197+
+            368   12199    7654   12200
CTETRA       165       4    1026    1129    1101    6913    3532    3534+
+           3474   12201   12202   12184
CTETRA       166       4     624    5837    5870    5871   11810    7401+
+          11808   12203    7399    7402
CTETRA       167       4     623    5836    5871    5872   12204    7397+
+          12205   12206    7395    7398
CTETRA       168       4    1026    1027    1129    6898    3250    3533+
+           3532   12207   12208   12209
CTETRA       169       4     809     810     816    7192    2507    2528+
+           2527   12210   12181   12182
CTETRA       170       4     503     312     310    6932   12211     311+
+          12212   12213   10739   10740
CTETRA       171       4     503     310     312    7064   12212     311+
+          12211   12214   11145   11146
CTETRA       172       4     503    6932     310    6959   12213   10740+
+          12212   12215   10816   10814
CTETRA       173       4     501     503    1160    7049     502    3646+
+           3644   12216   12217   12218
CTETRA       174       4     667    5860    5857    5861   12219    7338+
+          12220   12221    7334    7340
CTETRA       175       4     666    5857    5859    5861   12222    7335+
+          12223   12224    7340    7332
CTETRA       176       4     815     816     836    7207    2529    2580+
+           2583   12225   12157   11898
CTETRA       177       4      23    5859      12    5861   12226    7319+
+            543   12227    7332    7331
CTETRA       178       4     501     503     308    6959     502   12228+
+          12229   12230   12215   10815
CTETRA       179       4     816    7192    7191    7206   12182   11563+
+          12180   12155   11621   11620
CTETRA       180       4     503     308     310    7049   12228     309+
+          12212   12217   11118   11119
CTETRA       181       4     503    7049     310    7064   12217   11119+
+          12212   12214   11143   11145
CTETRA       182       4     365     614     615    5831    1892    1889+
+           1894   12194   12231   12232
CTETRA       183       4     876    1109    6944    6959    3425   12233+
+          12234   12235   12236   10817
CTETRA       184       4     365     174     172    5831   12186     173+
+          12237   12194    7278    7276
CTETRA       185       4     501    1109     503    6959    3426    3424+
+            502   12230   12236   12215
CTETRA       186       4     614     615    5831    5832    1889   12232+
+          12231   12238   12239    7285
CTETRA       187       4    1109    6944    6959    6960   12233   10817+
+          12236   12240   10822   10823
CTETRA       188       4    1021    6960    6959    6961   12241   10823+
+          12242   12243   10827   10826
CTETRA       189       4     744    7037     769    7048   12244   12245+
+           2362   12246   11097   12247
CTETRA       190       4    1021    1110    1109    6960    3428    3430+
+           3427   12241   12248   12240
CTETRA       191       4    1047    1048    6768    6769    3210   12249+
+          12250   12251   12252   10264
CTETRA       192       4    1045    1048    6759    6768    3218   12253+
+          12254   12255   12249   10261
CTETRA       193       4    1751    1764    1765    6122    5557    5553+
+           5556   12256   12257   12258
CTETRA       194       4    1746    1765    1764    6122    5552    5553+
+           5543   12259   12258   12257
CTETRA       195       4    1630    5973    6020    6021   12260    7766+
+          12261   11912    7768    7763
CTETRA       196       4     584     585    1765    6117    2289    5555+
+           5550   12262   12263   12264
CTETRA       197       4    1569    1573    6350    6451    4959   12265+
+          12266   12267   12268    9227
CTETRA       198       4     950    6769    6810    6830   12269   10398+
+          12270   12271   10403   10400
CTETRA       199       4    1518    6351    1573    6452   12272   12273+
+           4952   12274    9231   12275
CTETRA       200       4    1518    1572    1573    6351    4951    4953+
+           4952   12272   12276   12273
CTETRA       201       4     951    1049    1047    6769    3205    3207+
+           3206   12277   12278   12251
CTETRA       202       4    1000    6585    1009    6588   12279   12280+
+           3160   12281    9617   12282
CTETRA       203       4    1571    6350    1573    6390   12283   12265+
+           4960   12284    9021   12285
CTETRA       204       4    1009    1013    1014    6588    3161    3165+
+           3163   12282   12286   12287
CTETRA       205       4     960    6535    6587    6589   12288    9611+
+          12289   12290    9626    9631
CTETRA       206       4    1525    1535    1536    6492    4788    4793+
+           4797   12291   12292   12293
CTETRA       207       4    1001    6586    6585    6600   12294    9619+
+          12295   12296    9658    9660
CTETRA       208       4    1402    1536    1529    6489    4789    4791+
+           4764   12297   12298   12299
CTETRA       209       4    1525    1536    6491    6492    4797   12300+
+          12301   12291   12293    9368
CTETRA       210       4    1536    6489    6488    6492   12298    9356+
+          12302   12293    9365    9367
CTETRA       211       4     955     998     999    6829    3104    3106+
+           3105   12303   12304   12305
CTETRA       212       4     999    6770    6771    6784   12306   10238+
+          12307   12308   10237   10236
CTETRA       213       4    1286    1288    1290    6741    3971    3973+
+           3972   12309   12310   12311
CTETRA       214       4    1277    1290    6525    6745    3978   12312+
+          12313   12314   12315   10157
CTETRA       215       4     951     955     999    6770    3066    3105+
+           3108   12316   12317   12306
CTETRA       216       4     992     999    6771    6784    3113   12307+
+          12318   12319   12308   10236
CTETRA       217       4    1289    6525    1290    6742   12320   12312+
+           3981   12321   10155   12322
CTETRA       218       4    1290    6741    6742    6745   12311   10153+
+          12322   12315   10151   10154
CTETRA       219       4     948     987     949    6844    3050    3053+
+           3052   12323   12324   12325
CTETRA       220       4    1256    6796    6797    6799   12326   10277+
+          12327   12328   10276   10278
CTETRA       221       4    1256    6797    6796    6805   12327   10277+
+          12326   12329   10309   10312
CTETRA       222       4     955    6829    6770    6830   12303   10405+
+          12317   12330   10406   10404
CTETRA       223       4     950     951    1047    6769    3065    3206+
+           3208   12269   12277   12251
CTETRA       224       4    1256    1258    6796    6799    3922   12331+
+          12326   12328   12332   10276
CTETRA       225       4     944     973    6862    6863    2947   12333+
+          12334   12335   12336   10524
CTETRA       226       4     943     973     944    6863    2945    2947+
+           2946   12337   12336   12335
CTETRA       227       4     955    6819    6818    6829   12338   10378+
+          12339   12303   10394   10393
CTETRA       228       4     878     930     923    7023    2883    2884+
+           2859   12340   12341   12342
CTETRA       229       4     973    6861    6862    6863   12343   10528+
+          12333   12336   10527   10524
CTETRA       230       4     925    6886    6991    7111   12344   10983+
+          12345   12346   11229   11230
CTETRA       231       4     925     926     928    6991    2876    2885+
+           2886   12345   12347   12348
CTETRA       232       4     790     792     791    7177    2425    2427+
+           2426   12349   12350   12351
CTETRA       233       4     790    7163     792    7177   12352   12353+
+           2425   12349   11516   12350
CTETRA       234       4     761     790     762    7181    2413    2416+
+           2415   12354   12355   12356
CTETRA       235       4     928    6990    7108    7112   12357   11234+
+          12358   12359   11233   11236
CTETRA       236       4     926    6990     928    6991   12360   12357+
+           2885   12347   10991   12348
CTETRA       237       4     761     764     790    7181    2382    2414+
+           2413   12354   12361   12355
CTETRA       238       4     925     927     926    6991    2874    2875+
+           2876   12345   12362   12347
CTETRA       239       4     886     897    7014    7015    2731   12024+
+          12023   12363   12364   10926
CTETRA       240       4     890    6998     891    7012   12365   12366+
+           2713   12367   10908   12368
CTETRA       241       4     679     682     681    5900    2096    2097+
+           2090   12369   12370   12371
CTETRA       242       4     886     896     897    7015    2729    2728+
+           2731   12363   12372   12364
CTETRA       243       4     867     893     890    6998    2702    2708+
+           2707   12373   12374   12365
CTETRA       244       4     771     777     778    7086    2335    2334+
+           2337   12375   12376   12377
CTETRA       245       4     774     778    7086    7153    2332   12377+
+          12378   12379   12380   11438
CTETRA       246       4     622     682    5873    5886    2098   12381+
+          12382   12383   12384    7440
CTETRA       247       4     771     778    7085    7086    2337   12385+
+          12386   12375   12377   11449
CTETRA       248       4     588    1757    1755    6079    5487    5494+
+           5492   12387   12388   12389
CTETRA       249       4     588    6079    6080    6102   12387    8081+
+          12390   12391    8076    8080
CTETRA       250       4     681     682    5886    5900    2097   12384+
+          12392   12371   12370    7488
CTETRA       251       4     621    5873     682    5887   12393   12381+
+           2095   12394    7439   11804
CTETRA       252       4     589     598     590    6092    2273    2272+
+           2274   12395   12396   12397
CTETRA       253       4     829    7215    7236    7237   12398   11715+
+          12399   12400   11722   11725
CTETRA       254       4     828     840    7202    7237    2591   12401+
+          12402   12403   12404   11723
CTETRA       255       4     744     785     769    7037    2394    2397+
+           2362   12244   12405   12245
CTETRA       256       4     855    7236    7216    7237   12406   11726+
+          12407   12408   11725   11724
CTETRA       257       4     597    6102    6080    6103   12409    8080+
+          12410   12411    8079    8082
CTETRA       258       4     589    6092    1744    6099   12395   12412+
+           5481   12413    8060   12414
CTETRA       259       4     620     621     680    5874    1932    2093+
+           2083   12415   12416   12417
CTETRA       260       4     677    5875    5888    5889   12418    7434+
+          12419   12420    7433    7435
CTETRA       261       4     676     677    5888    5902    2079   12419+
+          12421   12422   12423    7480
CTETRA       262       4     838     856     860    7221    2652    2668+
+           2670   12424   12425   12426
CTETRA       263       4     853    7216     855    7217   12427   12407+
+           2645   12428   11661   12429
CTETRA       264       4     853    7216    7217    7222   12427   11661+
+          12428   12430   11660   11657
CTETRA       265       4     840    7216     853    7222   12431   12427+
+           2644   12432   11660   12430
CTETRA       266       4     727    5939    1821    5942   12433   12434+
+           5779   12435    7632   12436
CTETRA       267       4     840    7216    7202    7237   12431   11659+
+          12401   12404   11724   11723
CTETRA       268       4     815     836     835    7207    2583    2584+
+           2577   12225   11898   12437
CTETRA       269       4     537     835     539    7208    2576    2578+
+            538   12438   11969   11967
CTETRA       270       4     767     799    7171    7172    2455   12439+
+          12440   12441   12442   11492
CTETRA       271       4     537     815     835    7208    2526    2577+
+           2576   12438   12443   11969
CTETRA       272       4     381    1708     383    5986    5364    5363+
+            382   12158   12444   12445
CTETRA       273       4     767    7083     768    7172   12446   12447+
+           2360   12441   11491   12448
CTETRA       274       4     768    7083    6980    7172   12447   11355+
+          12449   12448   11491   11498
CTETRA       275       4     485     292     290    6941   12450     291+
+          12451   12452   10760   10761
CTETRA       276       4     483    6767    1081    6941   12453   12454+
+           3387   12455   10770   12456
CTETRA       277       4     767    7171    7167    7172   12440   11488+
+          12457   12441   11492   11490
CTETRA       278       4    1458    1500    1501    6168    4735    4739+
+           4740   12458   12459   12460
CTETRA       279       4     724    5942    5941    5944   12461    7634+
+          11796   12462    7653    7652
CTETRA       280       4     932    7106    7107    7117   12463   11276+
+          12464   12465   11271   11275
CTETRA       281       4    1498    1501    1499    6181    4736    4738+
+           4728   12466   12467   12468
CTETRA       282       4     523     933     917    7121    2890    2892+
+           2836   12469   12470   12471
CTETRA       283       4     941    7116    7106    7117   12472   11270+
+          12473   12474   11269   11271
CTETRA       284       4    1031    6774    1049    6787   12475   12476+
+           3201   12477   10268   12478
CTETRA       285       4    1030    1031    1174    6774    3203    3701+
+           3702   12479   12475   12044
CTETRA       286       4    1171    1172    1174    6782    3700    3705+
+           3704   12480   12481   12045
CTETRA       287       4    1133    1134    1141    7075    3570    3577+
+           3576   12011   12482   12483
CTETRA       288       4     866    1134    1137    7075    3564    3568+
+           3566   12484   12482   12010
CTETRA       289       4    1271    1364    1388    6720    4300    4365+
+           4363   12040   12042   12485
CTETRA       290       4     866    1134    7075    7082    3564   12482+
+          12484   12486   12487   11225
CTETRA       291       4     866    7043     867    7082   12488   12489+
+           2701   12486   11223   12490
CTETRA       292       4    1271    1388    6718    6720    4363   12491+
+          12054   12040   12485   10062
CTETRA       293       4    1138    7068    1139    7071   12492   12493+
+           3579   12494   11175   12495
CTETRA       294       4    1193    1363    6529    6547    4283   12496+
+          12497   12060   12062    9402
CTETRA       295       4    1139    7068    7070    7071   12493   11169+
+          12498   12495   11175   11176
CTETRA       296       4    1132    7067    7061    7076   12499   11174+
+          12500   12501   11186   11185
CTETRA       297       4    1191    1218    1192    6602    3724    3727+
+           3726   12502   12503   12504
CTETRA       298       4    1192    6602    6530    6617   12504    9678+
+          12505   12506    9734    9732
CTETRA       299       4    1192    6529    1337    6617   12507   12508+
+           4186   12506    9733   12509
CTETRA       300       4     379     188     186    6064   12510     187+
+          12511   12512    7940    7941
CTETRA       301       4    1138    7067    7068    7071   12513   11177+
+          12492   12494   11172   11175
CTETRA       302       4    1193    6530    1215    6548   12514   12515+
+           3735   12516    9396   12517
CTETRA       303       4    1497    1501    1498    6179    4737    4736+
+           4723   12518   12519   12520
CTETRA       304       4    1138    1139    1149    7071    3579    3611+
+           3612   12494   12495   12521
CTETRA       305       4    1498    6179    1501    6181   12520   12519+
+           4736   12466    8294   12467
CTETRA       306       4     932     933    7107    7120    2896   12522+
+          12464   12523   12524   11278
CTETRA       307       4    1522    1540    6469    6470    4811   12525+
+          12526   12527   12528    9294
CTETRA       308       4     523    6978     797    7040   12529   12530+
+           2444   12531   11077   12532
CTETRA       309       4     521     330     328    7121   12533     329+
+          12534   12535   11282   11281
CTETRA       310       4    1522    6470    6469    6487   12527    9294+
+          12526   12536    9346    9349
CTETRA       311       4     525     798     797    6978    2450    2454+
+           2445   12537   12538   12530
CTETRA       312       4     521     328     330    7040   12534     329+
+          12533   12539   11064   11065
CTETRA       313       4    1501    6169    6168    6179   12540    8233+
+          12460   12519    8283    8292
CTETRA       314       4    1561    6254    6253    6448   12541    8722+
+          12542   12543    9188    9187
CTETRA       315       4    1510    1514    1561    6448    4804    4907+
+           4910   12544   12545   12543
CTETRA       316       4    1514    1515    1560    6448    4806    4909+
+           4906   12545   12546   12547
CTETRA       317       4    1458    6168    1501    6169   12458   12460+
+           4740   12548    8233   12540
CTETRA       318       4     793     797     799    6979    2448    2460+
+           2456   12549   12550   12551
CTETRA       319       4    1515    6439    6446    6448   12552    9192+
+          12553   12546    9186    9195
CTETRA       320       4     793     794     797    6979    2435    2447+
+           2448   12549   12554   12550
CTETRA       321       4    1591    6315    6314    6330   12555    8779+
+          12556   12557    8814    8817
CTETRA       322       4    1732    6327    6328    6330   12558    8824+
+          12559   12560    8823    8815
CTETRA       323       4     523     330     332    6978   12561     331+
+          12562   12529   11075   11076
CTETRA       324       4     767     793     799    7172    2433    2456+
+           2455   12441   12563   12442
CTETRA       325       4     766     767     799    7171    2368    2455+
+           2457   12564   12440   12439
CTETRA       326       4    1075    6938    6764    6954   12565   10765+
+          12566   12567   10803   10802
CTETRA       327       4    1701    6280    6274    6281   12568    8598+
+          12569   12570    8594    8599
CTETRA       328       4    1036    6950    1069    6953   12571   12572+
+           3344   12573   10797   12574
CTETRA       329       4    1177    1463    1466    6227    4562    4580+
+           4579   12575   12576   12577
CTETRA       330       4    1674    1700    6262    6263    5331   12578+
+          12579   12580   12581    8592
CTETRA       331       4    1039    1040    1054    6851    3235    3269+
+           3258   12582   12583   12584
CTETRA       332       4    1055    6840    6839    6849   12585   10443+
+          12586   12587   10465   10466
CTETRA       333       4    1707    5985    6059    6061   12588    7930+
+          12589   12590    7929    7931
CTETRA       334       4    1668    6059    6060    6061   12591    7937+
+          12592   12593    7931    7936
CTETRA       335       4    1466    6221    6222    6226   12594    8499+
+          12595   12596    8498    8495
CTETRA       336       4    1707    5985    1708    6059   12588   12597+
+           5367   12589    7930   12598
CTETRA       337       4    1668    1708    1669    6059    5371    5370+
+           5372   12591   12598   12599
CTETRA       338       4     431    1177    1466    6221    4024    4579+
+           4578   12600   12601   12594
CTETRA       339       4    1466    6222    6221    6227   12595    8499+
+          12594   12577    8511    8514
CTETRA       340       4    1039    1055    6839    6849    3256   12586+
+          12602   12603   12587   10466
CTETRA       341       4    1668    6059    1669    6063   12591   12599+
+           5372   12604    7943   12605
CTETRA       342       4     429    1466    1416    6226    4576    4577+
+           4467   12606   12596   12607
CTETRA       343       4     625     641     637    5838    1966    1967+
+           1943   11817   12608   12609
CTETRA       344       4    1309    5962    1328    6731   12610   12611+
+           4154   12612   10103   12613
CTETRA       345       4    1309    5963    5962    6731   12614    8243+
+          12610   12612   10102   10103
CTETRA       346       4     377    1808    5996    6032    5712   12615+
+          12616   12617   12618    7827
CTETRA       347       4     453    1397    1201    6656    4410    4411+
+           3851   12619   12620   12621
CTETRA       348       4    1799    1804    5994    6033    5700   12622+
+          12623   12624   12625    7837
CTETRA       349       4     931    7106     935    7118   12626   12627+
+           2901   12628   11279   12629
CTETRA       350       4    1804    5993    5994    6033   12630    7838+
+          12622   12625    7834    7837
CTETRA       351       4    1803    5993    1804    6027   12631   12630+
+           5703   12632    7832   12633
CTETRA       352       4     625    5838     637    5839   11817   12609+
+           1943   12634    7378   12635
CTETRA       353       4    1201    6630    6655    6656   12636    9823+
+          12637   12621    9825    9820
CTETRA       354       4     467     274     276    6598   12638     275+
+          12639   12640    9672    9671
CTETRA       355       4     920    7120     931    7124   12641   12642+
+           2899   12643   11299   12644
CTETRA       356       4     471     278     276    6795   12645     277+
+          12646   12647   10280   10281
CTETRA       357       4     469     276     471    6601   12648   12646+
+            470   12649    9665   12650
CTETRA       358       4    1722    1724    6339    6340    5438   12651+
+          11928   12652   12653    8866
CTETRA       359       4     931     932     935    7106    2898    2902+
+           2901   12626   12463   12627
CTETRA       360       4     467     276     274    6809   12639     275+
+          12638   12654   10333   10334
CTETRA       361       4     931    7120    7118    7124   12642   11280+
+          12628   12644   11299   11298
CTETRA       362       4     469    6598     276    6601   12655    9671+
+          12648   12649    9673    9665
CTETRA       363       4    1724    6340    6333    6342   12653    8855+
+          12656   12657    8857    8856
CTETRA       364       4    1728    6333    6332    6342   12658    8847+
+          12659   12660    8856    8859
CTETRA       365       4    1728    6332    1729    6342   12659   12661+
+           5448   12660    8859   12662
CTETRA       366       4    1671    1711    1714    6325    5388    5390+
+           5389   12663   12664   12665
CTETRA       367       4    1712    1713    1714    5984    5397    5393+
+           5395   12666   12667   12668
CTETRA       368       4     994     996     995    6597    3094    3093+
+           3095   12669   12670   12671
CTETRA       369       4    1710    1714    1711    6324    5394    5390+
+           5396   12672   12673   12674
CTETRA       370       4    1714    6308    5983    6325   12675    8760+
+          12676   12665    8806    8805
CTETRA       371       4     995    6597     996    6598   12671   12670+
+           3093   12677    9674   12678
CTETRA       372       4    1589    1609    1590    6316    5000    4999+
+           5001   12679   12680   12681
CTETRA       373       4    1607    6257    6258    6289   12682    8645+
+          12683   12684    8644    8643
CTETRA       374       4      78    7246     852    7247   11763   12685+
+          12686   11768   11765   12687
CTETRA       375       4     471    1011     995    6599    3150    3152+
+           3092   12688   12689   12690
CTETRA       376       4     994     995    1001    6600    3095    3117+
+           3116   12691   12692   12296
CTETRA       377       4     134     602     579    5945    1823    1826+
+           1825   11790   11814   12693
CTETRA       378       4    1009    1010    1013    6573    3158    3162+
+           3161   12694   12695   12696
CTETRA       379       4     962    6584    1000    6587   12697   12698+
+           3123   12699    9614   12700
CTETRA       380       4    1589    1607    1609    6258    5004    5007+
+           5000   12701   12683   12702
CTETRA       381       4    1606    6257    1607    6289   12703   12682+
+           5009   12704    8644   12684
CTETRA       382       4     960    6502    6535    6589   12705    9491+
+          12288   12290    9625    9626
CTETRA       383       4     959    6501    6502    6589   12706    9629+
+          12707   12708    9627    9625
CTETRA       384       4    1262    1265    1267    6513    3957    3959+
+           3962   12709   12710   12711
CTETRA       385       4    1265    6511    6512    6513   12712    9498+
+          12713   12710    9495    9499
CTETRA       386       4    1182    1183    1500    6176    4108    4731+
+           4732   12714   12715   12716
CTETRA       387       4    1183    1432    1500    6176    4492    4733+
+           4731   12715   12717   12716
CTETRA       388       4    1432    6167    1500    6176   12718   12719+
+           4733   12717    8252   12716
CTETRA       389       4    1500    6167    6168    6176   12719    8253+
+          12459   12716    8252    8251
CTETRA       390       4    1182    1500    6172    6176    4732   12720+
+          12721   12714   12716    8254
CTETRA       391       4     852    7245    7210    7247   12722   11759+
+          12723   12687   11764   11766
CTETRA       392       4    1434    1447    1435    5968    4520    4522+
+           4521   12724   12725   12726
CTETRA       393       4    1253    1262    1267    6513    3943    3962+
+           3963   12727   12709   12711
CTETRA       394       4    1446    6684    6685    6693   12728    9982+
+          12729   12730    9978    9981
CTETRA       395       4    1210    1211    1228    6544    3755    3775+
+           3782   12731   12732   12733
CTETRA       396       4      31      78     852    7247     571   12686+
+           2637   12734   11768   12687
CTETRA       397       4    1434    1447    5968    6684    4520   12725+
+          12724   12735   12736    9976
CTETRA       398       4    1210    1221    6544    6546    3750   12737+
+          12731   12738   12739    9408
CTETRA       399       4    1439    1446    6685    6693    4523   12729+
+          12740   12741   12730    9981
CTETRA       400       4    1737    6036    1780    6037   12742   12743+
+           5615   12744    7856   12745
CTETRA       401       4    1415    1428    1416    6225    4470    4468+
+           4472   12746   12117   12116
CTETRA       402       4     852    7246    7245    7247   12685   11761+
+          12722   12687   11765   11764
CTETRA       403       4    1416    1466    1467    6222    4577    4581+
+           4583   12747   12595   12748
CTETRA       404       4     429    6221    1466    6226   12749   12594+
+           4576   12606    8498   12596
CTETRA       405       4    1416    6225    6224    6226   12116    8488+
+          12105   12607    8492    8491
CTETRA       406       4    1425    6148    6199    6213   12750    8386+
+          12021   12020    8444    8445
CTETRA       407       4    1401    6453    6454    6467   12751    9275+
+          12752   12753    9274    9276
CTETRA       408       4    1662    1736    5998    6038    5621   12754+
+          12755   12756   12757    7862
CTETRA       409       4    1401    1424    1422    6467    4437    4438+
+           4424   12753   12758   12759
CTETRA       410       4     834     852    7210    7247    2633   12723+
+          12760   12761   12687   11766
CTETRA       411       4    1197    1383    1357    6634    4351    4355+
+           4255   12762   12763   12764
CTETRA       412       4    1196    1197    1357    6635    3786    4255+
+           4254   12765   12766   12767
CTETRA       413       4    1402    6454    6453    6489   12768    9275+
+          12769   12297    9351    9350
CTETRA       414       4    1402    1422    1423    6147    4423    4426+
+           4418   12770   12771   12772
CTETRA       415       4    1357    6635    6660    6662   12767    9852+
+          12773   12774    9854    9850
CTETRA       416       4    1357    6634    1383    6660   12764   12763+
+           4355   12773    9853   12775
CTETRA       417       4    1355    1371    6658    6661    4313   12776+
+          12777   12778   12779    9846
CTETRA       418       4    1588    1589    1677    6259    5006    5344+
+           5343   11852   12780   12781
CTETRA       419       4    1368    1372    1371    6665    4310    4312+
+           4304   12782   12783   12784
CTETRA       420       4    1366    1368    1371    6665    4297    4304+
+           4303   12785   12782   12784
CTETRA       421       4    1366    1371    6663    6665    4303   12786+
+          12787   12785   12784    9866
CTETRA       422       4    1371    6658    6661    6665   12776    9846+
+          12779   12784    9860    9868
CTETRA       423       4    1780    6037    6036    6038   12745    7856+
+          12743   12788    7864    7863
CTETRA       424       4    1366    1371    1367    6663    4303    4306+
+           4305   12787   12786   12789
CTETRA       425       4    1655    6395    6435    6436   12790    9165+
+          12791   12792    9167    9166
CTETRA       426       4    1655    6435    6434    6436   12791    9164+
+          12793   12792    9166    9169
CTETRA       427       4    1323    6725    1325    6747   12794   12795+
+           4147   12796   10161   12797
CTETRA       428       4    1325    5960    6724    6733   12798   10109+
+          12799   12800   10111   10110
CTETRA       429       4    1325    1326    1327    6733    4149    4156+
+           4152   12800   12801   12802
CTETRA       430       4    1503    1657    1654    6395    5230    5234+
+           5216   12803   12804   12805
CTETRA       431       4    1213    1223    6537    6538    3767   12806+
+          12807   12808   12809    9451
CTETRA       432       4    1213    1223    1224    6537    3767    3766+
+           3768   12807   12806   12810
CTETRA       433       4    1217    1224    1223    6537    3765    3766+
+           3758   12811   12810   12806
CTETRA       434       4    1223    6537    6538    6553   12806    9451+
+          12809   12812    9450    9452
CTETRA       435       4    1216    1223    1222    6553    3757    3759+
+           3752   12813   12812   12814
CTETRA       436       4    1212    1222    1223    6553    3760    3759+
+           3762   12815   12814   12812
CTETRA       437       4    1596    1597    6411    6420    5104   12816+
+          11935   11937   12817    9085
CTETRA       438       4    1216    6552    1223    6553   12818   12819+
+           3757   12813    9448   12812
CTETRA       439       4    1505    1506    6485    6486    4769   12820+
+          12821   12822   12823    9337
CTETRA       440       4     146    1821    5940    5941   12824   12825+
+           7640    7636   11797    7638
CTETRA       441       4    1217    6537    1223    6552   12811   12806+
+           3758   12826    9446   12819
CTETRA       442       4     423    1578    6363    6377    4976   12827+
+          12828   12829   12830    8952
CTETRA       443       4    1036    1071    1069    6950    3346    3342+
+           3344   12571   12831   12572
CTETRA       444       4    1579    6357    6388    6389   11951    9013+
+          11954   12832    9010    9014
CTETRA       445       4    1557    1578    1575    6376    4977    4978+
+           4970   12833   12834   12835
CTETRA       446       4     421    1577    1578    6377    4973    4980+
+           4979   12836   11963   12830
CTETRA       447       4    1063    6968    1071    6977   12837   12838+
+           3340   12839   10895   12840
CTETRA       448       4    1037    1071    6950    6977    3347   12831+
+          12841   12842   12840   10894
CTETRA       449       4    1568    6348    6349    6392   12843    9037+
+          12844   12845    9036    9033
CTETRA       450       4     425    6363    1554    6372   12846   12847+
+           4885   12848    8926   12849
CTETRA       451       4    1063    1066    1071    6968    3336    3339+
+           3340   12837   12850   12838
CTETRA       452       4    1577    6358    1578    6377   11962   12851+
+           4980   11963    8958   12830
CTETRA       453       4     421    1578     423    6377    4979    4976+
+            422   12836   12830   12829
CTETRA       454       4     431     238     236    6369   12852     237+
+          12853   12854    8895    8896
CTETRA       455       4     425    1555     427    6372    4883    4884+
+            426   12848   12855   12856
CTETRA       456       4     733    6534     980    6558   12857   12858+
+           3002   12859    9477   12860
CTETRA       457       4     429    6367    1410    6369   12861   12862+
+           4641   12863    8903   12864
CTETRA       458       4     920     933     931    7120    2893    2897+
+           2899   12641   12524   12642
CTETRA       459       4     920     933    7120    7122    2893   12524+
+          12641   12865   12866   11306
CTETRA       460       4     429     236     234    6367   12867     235+
+          12868   12861    8901    8902
CTETRA       461       4     369     371     726    5938     370    5754+
+           5783   12869   12870   12871
CTETRA       462       4    1712    5985    5984    6312   12872    7928+
+          12666   12873    8762    8761
CTETRA       463       4     916     920    7100    7122    2845   12874+
+          12875   12876   12865   11292
CTETRA       464       4     920    7100    7122    7124   12874   11292+
+          12865   12643   11308   11307
CTETRA       465       4    1709    1710    1717    6309    5381    5407+
+           5409   12877   12878   12879
CTETRA       466       4    1710    6309    6308    6324   12878    8754+
+          12880   12672    8801    8802
CTETRA       467       4     727    1819    5940    6096    5775   12881+
+          12882   12883   12884    8024
CTETRA       468       4    1691    6272    6285    6286   12885    8625+
+          12886   12887    8633    8634
CTETRA       469       4    1685    6267    1692    6286   12888   12889+
+           5284   12890    8636   12891
CTETRA       470       4    1693    6276    6277    6278   12892    8577+
+          12893   12894    8574    8576
CTETRA       471       4    1700    6274    6275    6281   12895    8602+
+          12896   12897    8599    8601
CTETRA       472       4     762     789     763    7180    2417    2412+
+           2418   12898   12899   12900
CTETRA       473       4    1673    1698    6263    6264    5322   12901+
+          12902   12903   12904    8572
CTETRA       474       4    1698    6280    1701    6281   12905   12568+
+           5335   12906    8594   12570
CTETRA       475       4     762     790     789    7162    2416    2419+
+           2417   12907   12908   12909
CTETRA       476       4     433     435    1300    6238     434    4049+
+           4023   12910   12911   12912
CTETRA       477       4     789    7161    7162    7178   12913   11530+
+          12909   12914   11529   11526
CTETRA       478       4     531    7161     789    7178   12915   12913+
+           2420   12916   11529   12914
CTETRA       479       4      63     115     114    5927    5809     125+
+           5807   12917    7574    7573
CTETRA       480       4     745     769     781    7048    2361    2364+
+           2352   12918   12247   12919
CTETRA       481       4    1177    1178    6227    6237    4031   12920+
+          12575   12921   12922    8529
CTETRA       482       4     745     781     746    6982    2352    2351+
+           2353   12923   12924   12925
CTETRA       483       4     429     431     236    6369     430   12853+
+          12867   12863   12854    8896
CTETRA       484       4     746    7132    6982    7133   12926   11343+
+          12925   12927   11345   11348
CTETRA       485       4     746     773    7132    7133    2347   12928+
+          12926   12927   12929   11345
CTETRA       486       4     773     781     780    7133    2354    2356+
+           2355   12929   12930   12931
CTETRA       487       4    1300    1304    6234    6238    4050   12932+
+          12933   12912   12934    8537
CTETRA       488       4     435    1304    1300    6238    4047    4050+
+           4049   12911   12934   12912
CTETRA       489       4    1302    1305    1303    6217    4054    4058+
+           4046   12935   12936   12937
CTETRA       490       4    1759    6108    6107    6116   12938    8108+
+          12939   12940    8132    8134
CTETRA       491       4    1302    6216    1305    6217   12941   12942+
+           4054   12935    8471   12936
CTETRA       492       4     632     635     634    5834    1936    1935+
+           1925   12943   12944   12945
CTETRA       493       4    1302    6217    6204    6220   12935    8473+
+          12946   12947    8472    8475
CTETRA       494       4     600     633     634    5949    1920    1924+
+           1922   12948   12949   12950
CTETRA       495       4     632    5834     634    5949   12943   12945+
+           1925   12951    7669   12950
CTETRA       496       4     698     699     711    5890    2154    2204+
+           2203   11958   12952   11959
CTETRA       497       4    1297    6207    6204    6208   12953    8416+
+          12954   12955    8419    8414
CTETRA       498       4     361     600     634    5817    1832    1922+
+           1923   12956   12957   12958
CTETRA       499       4    1813    6076    6075    6111   12959    8013+
+          11824   12960    8100    8103
CTETRA       500       4     369    5938     726    5942   12869   12871+
+           5783   12200    7630   12961
CTETRA       501       4    1151    7058    1152    7060   12962   12963+
+           3625   12964   11139   12965
CTETRA       502       4      64     115     711    5928    5810   12966+
+           2208   12967    7583   12968
CTETRA       503       4    1152    1167    1158    6875    3674    3673+
+           3649   12969   12970   12971
CTETRA       504       4    1152    7058    6992    7060   12963   11125+
+          12972   12965   11139   11137
CTETRA       505       4    1152    1167    6875    6876    3674   12970+
+          12969   12973   12974   10632
CTETRA       506       4     630     631    5840    6094    1915   12975+
+          12976   12977   12978    8027
CTETRA       507       4     630    5840    5954    6094   12976    8029+
+          12979   12977    8027    8030
CTETRA       508       4     597    6093    6102    6103   12980    8072+
+          12409   12411    8077    8079
CTETRA       509       4    1067    1074    6972    6973    3350   12981+
+          12123   12982   12983   10869
CTETRA       510       4    1072    1074    6952    6972    3355   12984+
+          12985   12986   12981   10860
CTETRA       511       4     135    1821     146    5941    5780   12824+
+          11778   11795   11797    7636
CTETRA       512       4     676    5902    5901    5908   12422    7482+
+          12987   12988    7500    7502
CTETRA       513       4    1072    6952    6951    6972   12985   10806+
+          12989   12986   10860   10862
CTETRA       514       4     621    5834    5873    5874   12990    7388+
+          12393   12416    7387    7389
CTETRA       515       4    1070    6951    6968    6972   12991   10863+
+          12992   12124   10862   10865
CTETRA       516       4     620    5874     680    5888   12415   12417+
+           2083   12993    7436   12994
CTETRA       517       4    1742    6077    6076    6108   12995    8064+
+          12996   12997    8131    8102
CTETRA       518       4    1325    6724    6725    6733   12799   10115+
+          12795   12800   10110   10113
CTETRA       519       4    1741    1759    1742    6108    5497    5496+
+           5498   12998   12938   12997
CTETRA       520       4    1740    1754    1741    6110    5503    5502+
+           5504   12999   13000   13001
CTETRA       521       4    1308    1328    1326    6732    4153    4155+
+           4143   13002   13003   13004
CTETRA       522       4      63     114     709    5927    5807   13005+
+           2195   12917    7573   13006
CTETRA       523       4    1308    6728    6731    6732   13007   10104+
+          13008   13002   10106   10105
CTETRA       524       4    1740    6110    1741    6111   12999   13001+
+           5504   13009    8109   13010
CTETRA       525       4    1595    1596    6405    6406    5100   13011+
+          13012   11932   11934    9077
CTETRA       526       4    1741    1754    6107    6110    5502   13013+
+          13014   13001   13000    8107
CTETRA       527       4      64     711     699    5928    2208    2204+
+           2210   12967   12968   13015
CTETRA       528       4    1812    1813    6076    6086    5734   12959+
+          13016   13017   11827    8014
CTETRA       529       4    1806    1807    1811    6088    5724    5737+
+           5738   11892   13018   11831
CTETRA       530       4    1742    6076    1813    6108   12996   12959+
+           5732   12997    8102   13019
CTETRA       531       4    1448    1450    6699    6702    4544   13020+
+          13021   13022   13023   10003
CTETRA       532       4    1739    1762    1740    6069    5522    5526+
+           5528   13024   13025   13026
CTETRA       533       4    1740    6069    1762    6112   13026   13025+
+           5526   13027    8113   13028
CTETRA       534       4     627     664    5849    5858    2044   13029+
+          13030   13031   13032    7353
CTETRA       535       4    1740    1762    1754    6112    5526    5527+
+           5503   13027   13028   13033
CTETRA       536       4    1380    6632    6631    6674   13034    9816+
+          13035   13036    9895    9896
CTETRA       537       4    1375    1379    1376    6673    4330    4329+
+           4331   13037   13038   13039
CTETRA       538       4    1376    1379    1380    6674    4329    4332+
+           4327   13040   13041   13036
CTETRA       539       4    1379    6673    6669    6674   13038    9897+
+          13042   13041    9902    9894
CTETRA       540       4    1740    6070    6110    6111   13043    8111+
+          12999   13009    8110    8109
CTETRA       541       4    1721    1722    1724    6339    5431    5438+
+           5439   13044   11928   12651
CTETRA       542       4    1197    1229    1202    6648    3787    3791+
+           3788   13045   13046   13047
CTETRA       543       4    1229    6648    6650    6651   13046    9786+
+          13048   13049    9799    9798
CTETRA       544       4    1196    6518    1229    6650   13050   13051+
+           3784   13052    9791   13048
CTETRA       545       4    1726    6334    6333    6340   13053    8836+
+          13054   13055    8858    8855
CTETRA       546       4    1196    6635    6518    6650   12765    9789+
+          13050   13052    9788    9791
CTETRA       547       4    1676    1734    1725    6335    5472    5470+
+           5435   11861   13056   13057
CTETRA       548       4    1728    6333    1734    6337   12658   13058+
+           5471   13059    8845   13060
CTETRA       549       4     731    1219    6605    6606    3728   13061+
+          13062   13063   13064    9693
CTETRA       550       4     731    1002     732    6606    3119    3126+
+           3127   13063   13065   13066
CTETRA       551       4    1219    6532    6605    6606   13067    9676+
+          13061   13064    9683    9693
CTETRA       552       4    1725    6333    1726    6334   13068   13054+
+           5434   11859    8836   13053
CTETRA       553       4    1675    6261    1676    6334   13069   11860+
+           5342   11857    8832   11858
CTETRA       554       4    1703    6260    6261    6283   11862    8604+
+          13070   11864    8603    8605
CTETRA       555       4    1732    1733    1735    6328    5469    5479+
+           5480   12559   13071   13072
CTETRA       556       4     646     664    5867    5868    2047   13073+
+          13074   13075   13076    7375
CTETRA       557       4     734    6557     735    6566   13077   13078+
+           3013   13079    9517   13080
CTETRA       558       4     734    6564    6557    6566   13081    9516+
+          13077   13079    9518    9517
CTETRA       559       4    1676    1677    1734    6336    5346    5473+
+           5472   13082   13083   13084
CTETRA       560       4    1568    6391    6388    6392   13085    9026+
+          13086   12845    9028    9027
CTETRA       561       4    1568    1579    6388    6391    4986   11954+
+          13086   13085   13087    9026
CTETRA       562       4    1676    1702    1677    6260    5340    5345+
+           5346   13088   11855   13089
CTETRA       563       4    1734    6333    6335    6337   13058    8835+
+          13056   13060    8845    8846
CTETRA       564       4    1579    6389    6388    6391   12832    9014+
+          11954   13087    9025    9026
CTETRA       565       4    1571    6350    6390    6391   12283    9021+
+          12284   13090    9023    9022
CTETRA       566       4    1725    1734    1728    6333    5470    5471+
+           5446   13068   13058   12658
CTETRA       567       4    1589    6259    6316    6336   12780    8769+
+          12679   13091    8837    8839
CTETRA       568       4    1733    1734    1735    6328    5474    5478+
+           5479   13071   13092   13072
CTETRA       569       4    1677    1735    1734    6336    5477    5478+
+           5473   13083   13093   13084
CTETRA       570       4    1304    6233    6234    6238   13094    8541+
+          12932   12934    8540    8537
CTETRA       571       4     435     242    6233    6238   13095    8538+
+          13096   12911    8534    8540
CTETRA       572       4     439     246    6205    6240   13097    8412+
+          13098   13099    8544    8546
CTETRA       573       4    1676    6260    1677    6336   13088   13089+
+           5346   13082    8838   13083
CTETRA       574       4    1683    5977    1689    5978   13100   13101+
+           5266   13102    7796   13103
CTETRA       575       4    1412    1413    1470    6152    4430    4599+
+           4600   13104   13105   13106
CTETRA       576       4    1453    1470    6185    6186    4602   13107+
+          13108   13109   13110    8322
CTETRA       577       4    1684    6272    5977    6285   13111    8582+
+          13112   13113    8625    8624
CTETRA       578       4    1542    6442    6441    6495   13114    9223+
+          13115   13116    9377    9376
CTETRA       579       4    1453    6144    1492    6145   13117   13118+
+           4692   13119    8329   13120
CTETRA       580       4    1523    1543    1538    6481    4828    4827+
+           4826   13121   13122   13123
CTETRA       581       4    1545    6494    6496    6497   13124    9388+
+          13125   13126    9387    9389
CTETRA       582       4    1755    1760    6120    6124    5519   13127+
+          13128   13129   13130    8155
CTETRA       583       4     587    6080    6120    6134   13131    8198+
+          13132   13133    8197    8199
CTETRA       584       4    1523    6480    6481    6487   13134    9342+
+          13121   13135    9340    9343
CTETRA       585       4    1533    6479    6480    6482   13136    9324+
+          13137   13138    9323    9325
CTETRA       586       4    1506    1522    6469    6486    4778   12526+
+          13139   12823   13140    9336
CTETRA       587       4    1523    1534    6482    6487    4777   13141+
+          13142   13135   13143    9341
CTETRA       588       4    1523    6482    6480    6487   13142    9325+
+          13134   13135    9341    9340
CTETRA       589       4     598    5955    6092    6093   13144    8043+
+          12396   13145    8041    8044
CTETRA       590       4     636    5954    5955    6093   13146    8040+
+          13147   13148    8038    8041
CTETRA       591       4    1477    1485    6141    6192    4660   13149+
+          13150   13151   13152    8353
CTETRA       592       4    1471    6155    6156    6177   13153    8264+
+          13154   13155    8263    8265
CTETRA       593       4    1476    6187    1494    6188   13156   13157+
+           4714   11980    8350   11981
CTETRA       594       4    1186    6696    6695    6710   13158    9994+
+          13159   13160   10019   10020
CTETRA       595       4    1784    1785    6013    6014    5633   13161+
+          13162   13163   13164    7703
CTETRA       596       4    1185    1315    6708    6709    4073   13165+
+          12003   13166   13167   10031
CTETRA       597       4    1185    1186    1443    6708    4074    4499+
+           4498   12003   13168   12004
CTETRA       598       4     349      54     104    5921    2261    5792+
+          13169   13170   13171    7555
CTETRA       599       4    1443    1446    6684    6694    4516   12728+
+          13172   13173   13174    9984
CTETRA       600       4    1447    5969    5968    6693   13175    8309+
+          12725   13176    9973    9975
CTETRA       601       4    1442    6684    5967    6712   13177    9977+
+          12018   13178   10039   10041
CTETRA       602       4     627     665     664    5858    2048    2050+
+           2044   13031   13179   13032
CTETRA       603       4    1186    6695    6694    6708   13159    9986+
+          13180   13168   10028   10029
CTETRA       604       4      54     723     105    5921    2260   13181+
+           5797   13171   13182    7554
CTETRA       605       4    1439    1446    1440    6685    4523    4514+
+           4524   12740   12729   13183
CTETRA       606       4    1379    1381    1382    6669    4342    4345+
+           4347   13042   13184   13185
CTETRA       607       4     105     723    5920    5921   13181   13186+
+           7550    7554   13182    7553
CTETRA       608       4    1365    1381    1374    6671    4339    4338+
+           4337   13187   13188   13189
CTETRA       609       4    1374    1381    6670    6671    4338   13190+
+          13191   13189   13188    9886
CTETRA       610       4      22     666      23    5861    2059    2057+
+             27   13192   12224   12227
CTETRA       611       4     619    5851     652    5860   13193   13194+
+           1989   13195    7330   13196
CTETRA       612       4      23     666    5859    5861    2057   12223+
+          12226   12227   12224    7332
CTETRA       613       4     626    5849     664    5868   11821   13029+
+           2043   11822    7374   13076
CTETRA       614       4     662     664    5848    5867    2051   13197+
+          13198   13199   13073    7371
CTETRA       615       4    1382    6667    6666    6669   13200    9875+
+          13201   13185    9888    9889
CTETRA       616       4    1381    6664    6667    6671   13202    9872+
+          13203   13188    9884    9892
CTETRA       617       4    1365    6624    6664    6671   13204    9857+
+          13205   13187    9883    9884
CTETRA       618       4    1368    6664    6625    6665   13206    9856+
+          13207   12782    9862    9861
CTETRA       619       4    1287    1289    1290    6742    3970    3981+
+           3980   13208   12321   12322
CTETRA       620       4     652    5851    5856    5860   13194    7326+
+          13209   13196    7330    7337
CTETRA       621       4    1286    6741    1290    6745   12309   12311+
+           3972   13210   10151   12315
CTETRA       622       4    1275    1286    1276    6743    4127    3979+
+           4128   13211   12080   13212
CTETRA       623       4    1364    1374    6623    6624    4340   13213+
+          13214   13215   13216    9887
CTETRA       624       4    1163    6920    6921    6922   13217   10653+
+          13218   13219   10669   10668
CTETRA       625       4    1285    1286    6740    6741    3975   12079+
+          13220   13221   12309   10145
CTETRA       626       4      56     722     720    5919    2253    2251+
+           2246   13222   11920   11918
CTETRA       627       4      56      57     107     720      73    5802+
+           5798    2246    2245   13223
CTETRA       628       4      56     106     722    5919    5796   13224+
+           2253   13222    7542   11920
CTETRA       629       4    1270    6721    6707    6723   13225   10077+
+          13226   13227   10079   10078
CTETRA       630       4    1268    6696    1269    6697   13228   13229+
+           4064   13230   10008   13231
CTETRA       631       4     620    5833     635    5874   13232   13233+
+           1931   12415    7382   13234
CTETRA       632       4    1509    1514    1510    6438    4802    4804+
+           4803   13235   13236   13237
CTETRA       633       4    1510    6253    1511    6319   13238   13239+
+           4911   13240    8783   13241
CTETRA       634       4    1510    6252    6253    6319   13242    8785+
+          13238   13240    8781    8783
CTETRA       635       4    1509    6438    6252    6475   13235    9183+
+          13243   13244    9298    9297
CTETRA       636       4    1269    6707    1270    6721   13245   13226+
+           4070   13246   10077   13225
CTETRA       637       4    1509    6252    1605    6475   13243   13247+
+           5012   13244    9297   13248
CTETRA       638       4    1408    6365    1553    6373   13249   13250+
+           4894   13251    8928   13252
CTETRA       639       4    1269    1314    1270    6707    4069    4071+
+           4070   13245   13253   13226
CTETRA       640       4    1408    6365    6373    6374   13249    8928+
+          13251   13254    8930    8929
CTETRA       641       4    1521    1558    1556    6360    4904    4900+
+           4902   13255   13256   13257
CTETRA       642       4    1185    1313    1315    6709    4084    4087+
+           4073   13166   13258   13167
CTETRA       643       4     634    5834     635    5948   12945   12944+
+           1935   13259    7671   13260
CTETRA       644       4    1407    1558    6360    6374    4905   13256+
+          13261   13262   13263    8932
CTETRA       645       4    1186    1316    1187    6696    4067    4066+
+           4068   13158   13264   13265
CTETRA       646       4    1314    6706    6707    6710   13266   10023+
+          13253   13267   10022   10021
CTETRA       647       4    1314    6707    1316    6710   13253   13268+
+           4076   13267   10021   13269
CTETRA       648       4     453     262     455    6581   13270   13271+
+            454   13272    9608   13273
CTETRA       649       4    1524    1535    1525    6497    4786    4788+
+           4787   13274   13275   13276
CTETRA       650       4     449     451     256    6678     450   13277+
+          13278   13279   13280    9923
CTETRA       651       4    1525    6494    1545    6497   13281   13124+
+           4844   13276    9387   13126
CTETRA       652       4    1525    1535    6492    6497    4788   12292+
+          12291   13276   13275    9386
CTETRA       653       4    1525    6491    6494    6497   12301    9370+
+          13281   13276    9385    9387
CTETRA       654       4     453    1289    6526    6581    3965   13282+
+          13283   13272   13284    9595
CTETRA       655       4     453     260    6629    6656   13285    9826+
+          13286   12619    9822    9828
CTETRA       656       4     451     260     258    6629   13287     259+
+          13288   13289    9826    9827
CTETRA       657       4     359     634     635    5948    1934    1935+
+           1930   13290   13259   13260
CTETRA       658       4    1336    1339    1340    6616    4196    4199+
+           4191   13291   13292   13293
CTETRA       659       4     635    5833    5834    5874   13233    7390+
+          12944   13234    7382    7387
CTETRA       660       4    1335    1339    1336    6591    4197    4196+
+           4198   13294   13295   13296
CTETRA       661       4    1335    6590    1341    6614   13297   13298+
+           4205   13299    9717   13300
CTETRA       662       4    1338    1340    1339    6616    4194    4199+
+           4200   13301   13293   13292
CTETRA       663       4    1212    1223    6538    6553    3762   12809+
+          13302   12815   12812    9452
CTETRA       664       4     451    1396    1397    6629    4406    4409+
+           4408   13289   13303   13304
CTETRA       665       4    1218    6602    1220    6605   12503   13305+
+           3725   13306    9679   13307
CTETRA       666       4    1216    6542    6552    6553   13308    9447+
+          12818   12813    9449    9448
CTETRA       667       4     733    6536    6558    6564   13309    9511+
+          12859   13310    9513    9512
CTETRA       668       4     451     260     453    6526   13287   13285+
+            452   13311    9593   13283
CTETRA       669       4     732    1217    1219    6532    3739    3741+
+           3729   13312   13313   13067
CTETRA       670       4     451    1289    1287    6526    3968    3970+
+           3969   13311   13282   13314
CTETRA       671       4     739     973     740    6792    2943    2942+
+           2944   13315   13316   13317
CTETRA       672       4    1094    1130    6899    6900    3542   13318+
+          13319   13320   13321   10647
CTETRA       673       4     739    6792    6791    6861   13315   10308+
+          11869   13322   10525   10526
CTETRA       674       4    1172    6755    1176    6782   13323   13324+
+           3713   12481   10215   13325
CTETRA       675       4    1101    1129    1128    6916    3534    3536+
+           3535   12185   12190   12189
CTETRA       676       4    1100    1116    6903    6908    3476   13326+
+          13327   13328   13329   10576
CTETRA       677       4    1126    1127    1128    6904    3528    3530+
+           3537   13330   13331   12193
CTETRA       678       4    1171    6779    6781    6782   12139   10219+
+          12141   12480   10213   10216
CTETRA       679       4    1172    1176    1174    6782    3713    3714+
+           3705   12481   13325   12045
CTETRA       680       4    1037    1063    1071    6977    3322    3340+
+           3347   12842   12839   12840
CTETRA       681       4    1038    6892    6964    6977   13332   10838+
+          13333   13334   10893   10897
CTETRA       682       4    1038    6964    1063    6977   13333   13335+
+           3321   13334   10897   12839
CTETRA       683       4    1037    1058    1038    6892    3293    3283+
+           3294   13336   13337   13332
CTETRA       684       4    1031    1171    1174    6775    3703    3704+
+           3701   13338   13339   12053
CTETRA       685       4    1037    1058    6892    6893    3293   13337+
+          13336   13340   13341   10617
CTETRA       686       4    1117    1121    1118    7026    3497    3500+
+           3501   13342   12178   13343
CTETRA       687       4    1089    1121    1117    7026    3493    3497+
+           3494   13344   12178   13342
CTETRA       688       4    1117    7026    1118    7030   13342   13343+
+           3501   13345   11021   13346
CTETRA       689       4    1058    6892    6893    6896   13337   10617+
+          13341   13347   10616   10618
CTETRA       690       4    1117    1118    1123    7030    3501    3507+
+           3509   13345   13346   13348
CTETRA       691       4    1090    1117    1122    7028    3496    3503+
+           3502   12164   12165   13349
CTETRA       692       4    1024    1065    6964    6965    3324   13350+
+          13351   13352   13353   10839
CTETRA       693       4    1089    7026    1117    7027   13344   13342+
+           3494   13354   11001   12163
CTETRA       694       4    1089    1117    1090    7027    3494    3496+
+           3495   13354   12163   12162
CTETRA       695       4     943    6856    6855    6858   13355   10505+
+          13356   13357   10512   10513
CTETRA       696       4    1024    6964    6891    6965   13351   10837+
+          13358   13352   10839   10835
CTETRA       697       4     740     973     943    6863    2942    2945+
+           2939   13359   12336   12337
CTETRA       698       4     943    1082    6855    6856    3391   13360+
+          13356   13355   13361   10505
CTETRA       699       4     943    6858    6855    6863   13357   10513+
+          13356   12337   10523   10519
CTETRA       700       4    1025    1058    1026    6912    3282    3286+
+           3288   13362   13363   13364
CTETRA       701       4    1025    6891    6892    6912   13365   10615+
+          13366   13362   10614   10613
CTETRA       702       4    1037    1038    1063    6977    3294    3321+
+           3322   12842   13334   12839
CTETRA       703       4     940     941    7110    7116    2930   13367+
+          13368   13369   12472   11261
CTETRA       704       4    1043    1058    6896    6897    3287   13347+
+          13370   13371   13372   10620
CTETRA       705       4     932     941     935    7106    2925    2927+
+           2902   12463   12473   12627
CTETRA       706       4    1043    1058    1059    6896    3287    3295+
+           3298   13370   13347   13373
CTETRA       707       4    1025    6891    1038    6892   13365   13374+
+           3281   13366   10615   13332
CTETRA       708       4     517     940     941    7110    2923    2930+
+           2929   13375   13368   13367
CTETRA       709       4    1026    1058    1043    6897    3286    3287+
+           3249   13376   13372   13371
CTETRA       710       4     935     941     938    7116    2927    2928+
+           2920   13377   12472   13378
CTETRA       711       4     521    7107     933    7121   13379   12522+
+           2891   12535   11283   12470
CTETRA       712       4     519    7107     326    7117   13380   11273+
+          13381   13382   11275   11267
CTETRA       713       4    1017    6820    6500    6823   13383   10351+
+          13384   13385   10355   10354
CTETRA       714       4    1012    6500    6501    6572   13386    9574+
+          13387   13388    9573    9575
CTETRA       715       4     932    7107    7106    7120   12464   11276+
+          12463   12523   11278   11277
CTETRA       716       4     505     507    1147    7066     506    3596+
+           3595   13389   13390   13391
CTETRA       717       4    1015    1017    6500    6823    3179   13384+
+          13392   13393   13385   10354
CTETRA       718       4     505     314     507    7066   13394   13395+
+            506   13389   11156   13390
CTETRA       719       4    1017    6501    6500    6820   13396    9574+
+          13384   13383   10349   10351
CTETRA       720       4     987     989     990    6812    3073    3068+
+           3071   13397   13398   13399
CTETRA       721       4     505    7064     312    7066   13400   11146+
+          13401   13389   11153   11155
CTETRA       722       4     949     987     990    6844    3053    3071+
+           3070   12325   12324   13402
CTETRA       723       4     505     876     915    6932    2825    2827+
+           2821   13403   13404   13405
CTETRA       724       4    1067    6972    6969    6973   12123   10870+
+          12122   12982   10869   10871
CTETRA       725       4     949     990     950    6811    3070    3064+
+           3072   13406   13407   13408
CTETRA       726       4     503     505     312    6932     504   13401+
+          12211   12213   13403   10739
CTETRA       727       4     503     312     505    7064   12211   13401+
+            504   12214   11146   13400
CTETRA       728       4     505     312    6932    6937   13401   10739+
+          13403   13409   10737   10741
CTETRA       729       4     876     915    6932    6933    2827   13405+
+          13404   13410   13411   10742
CTETRA       730       4     913    6936    6935    6937   13412   10730+
+          13413   13414   10745   10748
CTETRA       731       4     521     932     933    7107    2894    2896+
+           2891   13379   12464   12522
CTETRA       732       4     915    6933    6936    6937   13411   10744+
+          13415   13416   10743   10745
CTETRA       733       4     919     920     931    7124    2851    2899+
+           2900   13417   12643   12644
CTETRA       734       4     920    7122    7120    7124   12865   11306+
+          12641   12643   11307   11299
CTETRA       735       4     507     913    6935    6937    2818   13413+
+          13418   13419   13414   10748
CTETRA       736       4     786    7039    7045    7080   13420   11091+
+          13421   13422   11214   11213
CTETRA       737       4     517    7039     786    7080   13423   13420+
+           2392   13424   11214   13422
CTETRA       738       4     743     786     785    7045    2398    2400+
+           2395   13425   13421   13426
CTETRA       739       4     649    5864    5878    5879   13427    7413+
+          13428   13429    7412    7414
CTETRA       740       4     917    7121     933    7122   12471   12470+
+           2892   13430   11288   12866
CTETRA       741       4     917     933     920    7122    2892    2893+
+           2846   13430   12866   12865
CTETRA       742       4     649     650     691    5878    2019    2135+
+           2139   13428   13431   13432
CTETRA       743       4     648     649     690    5879    2039    2140+
+           2145   13433   13429   13434
CTETRA       744       4     654     655     660    5845    2004    2023+
+           2022   13435   13436   13437
CTETRA       745       4     649     660     650    5864    2018    2017+
+           2019   13427   13438   13439
CTETRA       746       4     660    5845    5844    5864   13437    7292+
+          13440   13438    7362    7365
CTETRA       747       4     650     660    5863    5864    2017   13441+
+          13442   13439   13438    7366
CTETRA       748       4     655     659     660    5844    2025    2021+
+           2023   13443   13444   13440
CTETRA       749       4     650     660     658    5863    2017    2020+
+           2010   13442   13441   13445
CTETRA       750       4     891    7011     897    7012   13446   12026+
+           2727   12368   10915   13447
CTETRA       751       4     537     346     344    7208   13448     345+
+          13449   12438   11619   11618
CTETRA       752       4     887     897     898    7011    2735    2734+
+           2737   12027   12026   13450
CTETRA       753       4     891     898     897    7011    2732    2734+
+           2727   13446   13450   12026
CTETRA       754       4     890     891     897    7012    2713    2727+
+           2726   12367   12368   13447
CTETRA       755       4     537    7194     344    7209   13451   11579+
+          13449   13452   11627   11625
CTETRA       756       4     813     820     819    7188    2522    2523+
+           2519   11886   13453   13454
CTETRA       757       4     890     897     896    7015    2726    2728+
+           2719   13455   12364   12372
CTETRA       758       4     839    7204    7203    7222   13456   11611+
+          13457   13458   11649   11650
CTETRA       759       4     820    7188    7187    7202   13453   11572+
+          13459   13460   11604   11607
CTETRA       760       4    1188    6619    1189    6701   13461   13462+
+           4393   13463   10012   13464
CTETRA       761       4     804     814     813    7089    2500    2501+
+           2495   11904   13465   11885
CTETRA       762       4     814    7089    7088    7187   13465   11415+
+          13466   13467   11571   11576
CTETRA       763       4     819    7203     839    7204   13468   13457+
+           2592   13469   11611   13456
CTETRA       764       4     819     820     840    7203    2523    2590+
+           2593   13468   13470   13471
CTETRA       765       4     839    7203     840    7222   13457   13471+
+           2594   13458   11650   12432
CTETRA       766       4     764     784    7164    7182    2379   13472+
+          13473   13474   13475   11551
CTETRA       767       4     760     761     824    7182    2381    2549+
+           2539   13476   13477   13478
CTETRA       768       4      39    7230     861    7232   13479   11879+
+           2675   13480   11701   13481
CTETRA       769       4      38      39     861    7232      46    2675+
+           2674   13482   13480   13481
CTETRA       770       4     824    7182    7197    7198   13478   11595+
+          13483   13484   11597   11596
CTETRA       771       4      38      86      39    7232     563     559+
+             46   13482   11700   13480
CTETRA       772       4    1759    6107    6115    6116   12939    8129+
+          13485   12940    8134    8135
CTETRA       773       4    1776    6051    6048    6052   11851    7894+
+          13486   13487    7888    7897
CTETRA       774       4     833     851    7211    7245    2631   13488+
+          13489   13490   13491   11758
CTETRA       775       4     851    7243    7211    7245   13492   11749+
+          13488   13491   11756   11758
CTETRA       776       4     850     851     852    7245    2627    2634+
+           2635   13493   13491   12722
CTETRA       777       4     833     852     851    7245    2632    2634+
+           2631   13490   12722   13491
CTETRA       778       4     527     336     334    7139   13494     335+
+          13495   13496   11379   11382
CTETRA       779       4     525     527     798    7175     526    2449+
+           2450   13497   13498   13499
CTETRA       780       4      57     107     720    5914    5802   13223+
+           2245   13500    7528   13501
CTETRA       781       4    1758    1759    6115    6116    5501   13485+
+          13502   13503   12940    8135
CTETRA       782       4    1756    1759    1758    6116    5499    5501+
+           5500   13504   12940   13503
CTETRA       783       4    1097    1112    6880    6881    3448   13505+
+          13506   13507   13508   10600
CTETRA       784       4    1112    6880    6881    6910   13505   10600+
+          13508   13509   10596   10599
CTETRA       785       4    1284    6724    6746    6747   13510   10164+
+          13511   13512   10166   10167
CTETRA       786       4    1742    6077    6108    6116   12995    8131+
+          12997   13513    8133    8132
CTETRA       787       4     717    5914     720    5915   13514   13501+
+           2243   13515    7530   13516
CTETRA       788       4     717     720     719    5915    2243    2244+
+           2240   13515   13516   13517
CTETRA       789       4    1324    1325    6725    6733    4148   12795+
+          13518   13519   12800   10113
CTETRA       790       4     720    5915    5914    5917   13516    7530+
+          13501   11917    7533    7534
CTETRA       791       4     930    6989    6990    7023   13520   10988+
+          13521   12341   10986   10989
CTETRA       792       4    1035    6895    6953    6954   13522   10794+
+          13523   13524   10801   10811
CTETRA       793       4    1035    1069    1077    6953    3345    3362+
+           3369   13523   12574   13525
CTETRA       794       4    1036    1037    1071    6950    3291    3347+
+           3346   12571   12841   12831
CTETRA       795       4     706     710    5924    5925    2200   13526+
+          13527   13528   13529    7572
CTETRA       796       4    1283    5960    5959    6724   13530    8425+
+          13531   13532   10109   10112
CTETRA       797       4     707     710     709    5924    2197    2198+
+           2196   13533   13526   13534
CTETRA       798       4    1491    6143    6144    6195   13535    8369+
+          13536   13537    8368    8367
CTETRA       799       4    1310    6174    5963    6175   13538    8244+
+          13539   13540    8246    8248
CTETRA       800       4     697     710     706    5925    2201    2200+
+           2174   13541   13529   13528
CTETRA       801       4     709     710     711    5927    2198    2205+
+           2206   13006   11957   11960
CTETRA       802       4    1307    1308    1326    6728    4120    4143+
+           4142   13542   13007   13543
CTETRA       803       4    1324    6725    6726    6729   13518   10097+
+          13544   13545   10096   10094
CTETRA       804       4     681    5900    5899    5906   12371    7490+
+          13546   13547    7508    7510
CTETRA       805       4     671     679     681    5900    2086    2090+
+           2089   13548   12369   12371
CTETRA       806       4     679    5887     682    5900   11802   11804+
+           2096   12369    7486   12370
CTETRA       807       4     681    5886    5899    5900   12392    7489+
+          13546   12371    7488    7490
CTETRA       808       4     539     346       5      77   11966     347+
+          11971   13549   11770      97
CTETRA       809       4    1537    6471    1538    6481   13550   13551+
+           4825   13552    9345   13123
CTETRA       810       4    1454    1491    6185    6195    4688   13553+
+          13554   13555   13537    8370
CTETRA       811       4    1523    6481    1538    6487   13121   13123+
+           4826   13135    9343   13556
CTETRA       812       4      31      77      78    7247     567      99+
+            571   12734   11769   11768
CTETRA       813       4     834    7210    7209    7247   12760   11628+
+          13557   12761   11766   11767
CTETRA       814       4     539      77      31     834   13549     567+
+           2638    2555   13558    2639
CTETRA       815       4    1528    1529    1535    6478    4767    4792+
+           4785   13559   13560   13561
CTETRA       816       4    1453    1491    1492    6144    4689    4693+
+           4692   13117   13536   13118
CTETRA       817       4    1615    1616    1618    6296    5057    5059+
+           5065   13562   13563   13564
CTETRA       818       4    1197    1229    6648    6650    3787   13046+
+          13045   13565   13048    9786
CTETRA       819       4     810     817     816    7191    2533    2534+
+           2528   12179   13566   12180
CTETRA       820       4     817    7191    7205    7206   13566   11613+
+          13567   13568   11620   11622
CTETRA       821       4    1455    1469    6166    6194    4610   13569+
+          13570   13571   13572    8363
CTETRA       822       4    1625    6407    6425    6427   11939    9110+
+          13573   13574    9109    9112
CTETRA       823       4     811    7092    7190    7191   13575   11560+
+          13576   13577   11558   11561
CTETRA       824       4    1638    6416    6412    6417   13578    9060+
+          13579   13580    9062    9061
CTETRA       825       4     401    6412     208    6417   13581    9046+
+          13582   13583    9061    9063
CTETRA       826       4    1632    1639    1637    6413    5162    5157+
+           5160   13584   13585   13586
CTETRA       827       4    1490    6195    6193    6196   13587    8382+
+          13588   13589    8378    8381
CTETRA       828       4    1637    1641    6410    6416    5164   13590+
+          13591   13592   13593    9057
CTETRA       829       4     921    7100    7143    7145   13594   11405+
+          13595   13596   11407   11400
CTETRA       830       4     916    7137    7101    7145   13597   11381+
+          13598   13599   11403   11404
CTETRA       831       4     753    7140    7137    7145   13600   11393+
+          13601   13602   11402   11403
CTETRA       832       4    1637    6410    1642    6415   13591   13603+
+           5166   13604    9055   13605
CTETRA       833       4     928     930     929    7108    2888    2881+
+           2889   12358   13606   13607
CTETRA       834       4    1631    1637    1642    6415    5161    5166+
+           5167   13608   13604   13605
CTETRA       835       4     926    6990    6991    7022   12360   10991+
+          12347   13609   10990   10985
CTETRA       836       4    1640    1642    6418    6419    5169   13610+
+          13611   13612   13613    9073
CTETRA       837       4     511    1135    7076    7078    3553   13614+
+          13615   13616   13617   11195
CTETRA       838       4    1132    1135    1133    7077    3557    3559+
+           3558   13618   12008   12012
CTETRA       839       4    1230    6517    6516    6651   13619    9460+
+          12089   13620    9793    9792
CTETRA       840       4    1641    1642    6410    6418    5168   13603+
+          13590   13621   13610    9072
CTETRA       841       4    1132    7067    7076    7077   12499   11186+
+          12501   13618   11193   11194
CTETRA       842       4    1572    6387    1576    6390   13622   13623+
+           4965   13624    9016   13625
CTETRA       843       4    1576    6378    6386    6387   13626    9004+
+          13627   13623    9006    9007
CTETRA       844       4     877     878     923    7023    2765    2859+
+           2856   13628   12340   12342
CTETRA       845       4     877     923     924    7034    2856    2858+
+           2857   13629   13630   13631
CTETRA       846       4     877     878    7023    7033    2765   12340+
+          13628   13632   13633   11029
CTETRA       847       4     427     429    1416    6226     428    4467+
+           4466   13634   12606   12607
CTETRA       848       4     427    1410     429    6367    4890    4641+
+            428   13635   12862   12861
CTETRA       849       4     425     232     234    6224   13636     233+
+          13637   13638    8481    8482
CTETRA       850       4     923    7023    7022    7034   12342   10992+
+          13639   13630   11036   11032
CTETRA       851       4    1410    6368    1483    6369   13640   13641+
+           4640   12864    8900   13642
CTETRA       852       4     485    6941    1079    6943   12452   13643+
+           3374   13644   10762   13645
CTETRA       853       4    1079    6766    1084    6942   13646   13647+
+           3394   13648   10767   13649
CTETRA       854       4    1454    6185    6184    6194   13554    8321+
+          13650   13651    8371    8364
CTETRA       855       4    1080    6942    6939    6943   13652   10756+
+          13653   13654   10759   10754
CTETRA       856       4     423    1554     425    6363    4886    4885+
+            424   12828   12847   12846
CTETRA       857       4    1084    6766    6765    6942   13647   10511+
+          13655   13649   10767   10766
CTETRA       858       4     427    1555    6367    6372    4884   13656+
+          13635   12856   12855    8917
CTETRA       859       4     431    5971     238    6369   13657    8897+
+          12852   12854    8893    8895
CTETRA       860       4    1456    6165    6177    6178   13658    8270+
+          13659   13660    8272    8275
CTETRA       861       4    1716    6321    6322    6324   13661    8797+
+          13662   13663    8795    8798
CTETRA       862       4    1103    1112    6887    6888    3456   13664+
+          13665   13666   13667   10588
CTETRA       863       4    1098    6909    6880    6910   13668   10595+
+          13669   13670   10591   10596
CTETRA       864       4    1098    1114    6909    6910    3459   13671+
+          13668   13670   13672   10591
CTETRA       865       4    1454    1469    1455    6194    4604    4610+
+           4611   13651   13572   13571
CTETRA       866       4    1302    6216    6217    6220   12941    8471+
+          12935   12947    8469    8472
CTETRA       867       4    1214    6565    6566    6567   13673    9526+
+          13674   13675    9525    9527
CTETRA       868       4    1281    1298    6203    6220    4016   13676+
+          13677   13678   13679    8478
CTETRA       869       4    1189    6618    1448    6701   13680   13681+
+           4532   13464   10006   13682
CTETRA       870       4    1441    1448    6699    6701    4535   13021+
+          13683   13684   13682    9998
CTETRA       871       4    1280    6216    1302    6220   13685   12941+
+           4037   13686    8469   12947
CTETRA       872       4    1189    6619    6618    6701   13462    9918+
+          13680   13464   10012   10006
CTETRA       873       4    1441    6699    6698    6701   13683    9997+
+          13687   13684    9998    9999
CTETRA       874       4    1280    6218    6216    6220   13688    8463+
+          13685   13686    8470    8469
CTETRA       875       4    1303    1304    6233    6239    4052   13094+
+          13689   13690   13691    8550
CTETRA       876       4    1304    6234    6233    6239   12932    8541+
+          13094   13691    8551    8550
CTETRA       877       4    1667    5984    1707    6061   13692   13693+
+           5374   13694    7927   12590
CTETRA       878       4    1503    1657    6395    6463    5230   12804+
+          12803   13695   13696    9238
CTETRA       879       4    1504    6457    6396    6463   13697    9232+
+          13698   13699    9234    9237
CTETRA       880       4     433    1300    6236    6238    4023   13700+
+          13701   12910   12912    8531
CTETRA       881       4     387    1784    6011    6014    5625   13702+
+          13703   13704   13163    7710
CTETRA       882       4    1781    1784    6010    6011    5629   13705+
+          13706   13707   13702    7711
CTETRA       883       4     383    6003     190    6018   13708    7750+
+          13709   13710    7752    7744
CTETRA       884       4    1787    1796    1797    6002    5668    5687+
+           5677   13711   13712   13713
CTETRA       885       4    1596    6405    6406    6419   13011    9077+
+          11934   11936    9076    9078
CTETRA       886       4     431     238     240    6236   12852     239+
+          13714   13715    8523    8524
CTETRA       887       4    1409    1410    1555    6371    4631    4891+
+           4892   13716   13717   13718
CTETRA       888       4    1553    1555    6364    6371    4888   13719+
+          13720   13721   13718    8921
CTETRA       889       4    1409    1482    1410    6368    4630    4632+
+           4631   13722   13723   13640
CTETRA       890       4    1787    6001    1796    6002   13724   13725+
+           5668   13711    7749   13712
CTETRA       891       4    1553    6364    6365    6371   13720    8922+
+          13250   13721    8921    8913
CTETRA       892       4     679     680    5887    5901    2088   11803+
+          11802   13726   13727    7483
CTETRA       893       4     671    5900    5906    5907   13548    7508+
+          13728   13729    7505    7509
CTETRA       894       4     671     672     715    5911    2091    2224+
+           2225   13730   13731   13732
CTETRA       895       4     641    5951    5837    5953   13733    7693+
+          13734   13735    7695    7692
CTETRA       896       4    1477    1489    1494    6196    4706    4708+
+           4707   13736   13737   13738
CTETRA       897       4    1215    6542    1222    6543   13739   13740+
+           3751   13741    9400   13742
CTETRA       898       4    1477    6142    1489    6196   13743   13744+
+           4706   13736    8374   13737
CTETRA       899       4     726    5938    1817    6084   12871   13745+
+           5755   13746    7997   13747
CTETRA       900       4     623    5836     624    5871   12204   13748+
+           1958   12205    7397   12203
CTETRA       901       4     683    5885     686    5898   13749   13750+
+           2109   13751    7492   13752
CTETRA       902       4    1453    6185    6145    6186   13108    8326+
+          13119   13109    8322    8327
CTETRA       903       4    1459    1469    1470    6154    4595    4597+
+           4596   13753   13754   13755
CTETRA       904       4     678    5903    5902    5909   13756    7479+
+          13757   13758    7497    7498
CTETRA       905       4      54      55     105     723      75    5795+
+           5797    2260    2259   13181
CTETRA       906       4    1706    1708    5985    5986    5365   12597+
+          12149   12148   12444    7932
CTETRA       907       4    1215    6542    6543    6548   13739    9400+
+          13741   12517    9399    9401
CTETRA       908       4    1668    1707    6059    6061    5373   12589+
+          12591   12593   12590    7931
CTETRA       909       4    1668    1707    1708    6059    5373    5367+
+           5371   12591   12589   12598
CTETRA       910       4     677    5889    5888    5902   12420    7435+
+          12419   12423    7478    7480
CTETRA       911       4     626    5868     645    5869   11822   13759+
+           2041   11819    7380   11820
CTETRA       912       4     626     664     645    5868    2043    2045+
+           2041   11822   13076   13759
CTETRA       913       4    1581    5974    6019    6020   13760    7754+
+          13761   13762    7756    7755
CTETRA       914       4     363     614     365    5830    1893    1892+
+            364   13763   13764   13765
CTETRA       915       4    1742    1743    1812    6077    5490    5731+
+           5730   12995   13766   13767
CTETRA       916       4    1629    1634    5973    6243    5132   13768+
+          13769   13770   13771    8658
CTETRA       917       4    1743    1812    6077    6101    5731   13767+
+          13766   13772   13773    8065
CTETRA       918       4    1581    1628    5974    6020    5127   13774+
+          13760   13762   13775    7756
CTETRA       919       4    1743    6077    1756    6078   13766   13776+
+           5488   13777    8056   13778
CTETRA       920       4    1742    1812    6076    6077    5730   13016+
+          12996   12995   13767    8064
CTETRA       921       4    1742    1812    1813    6076    5730    5734+
+           5732   12996   13016   12959
CTETRA       922       4     367    1822     725    5942    5785    5788+
+           5782   12199   13779   13780
CTETRA       923       4     724     725    1822    5942    2305    5788+
+           5790   12461   13780   13779
CTETRA       924       4     724    5944    5941    5945   12462    7652+
+          11796   11791    7650    7642
CTETRA       925       4    1806    1811    1814    6088    5738    5747+
+           5746   11892   11831   13781
CTETRA       926       4    1811    1812    1815    6086    5736    5744+
+           5749   11826   13017   13782
CTETRA       927       4    1816    6090    6089    6101   13783    8035+
+          13784   13785    8068    8067
CTETRA       928       4    1801    1813    1807    6075    5740    5739+
+           5716   13786   11824   11823
CTETRA       929       4    1741    1813    1801    6111    5733    5740+
+           5689   13010   12960   13787
CTETRA       930       4    1741    6107    6108    6110   13014    8108+
+          12998   13001    8107    8106
CTETRA       931       4    1741    6107    1759    6108   13014   12939+
+           5497   12998    8108   12938
CTETRA       932       4    1742    1756    1743    6077    5489    5488+
+           5490   12995   13776   13766
CTETRA       933       4     623    5871     686    5885   12205   13788+
+           2110   13789    7447   13750
CTETRA       934       4     638    5835    5836    5872   13790    7396+
+          13791   13792    7392    7395
CTETRA       935       4     623     684    5872    5885    2107   13793+
+          12206   13789   13794    7445
CTETRA       936       4     623    5872    5871    5885   12206    7398+
+          12205   13789    7445    7447
CTETRA       937       4    1747    1764    6113    6122    5542   13795+
+          13796   13797   12257    8137
CTETRA       938       4    1771    1773    6054    6058    5589   13798+
+          11841   11844   13799    7924
CTETRA       939       4    1769    1772    1771    6057    5583    5584+
+           5581   13800   11847   13801
CTETRA       940       4    1751    1752    1764    6121    5517    5547+
+           5557   13802   13803   13804
CTETRA       941       4     365     725     578    5943    2300    2299+
+           2298   13805   13806   13807
CTETRA       942       4     365    5830     614    5831   13765   13764+
+           1892   12194    7277   12231
CTETRA       943       4     365     172    5830    5831   12237    7273+
+          13765   12194    7276    7277
CTETRA       944       4    1752    6113    1764    6121   13808   13795+
+           5547   13803    8142   13804
CTETRA       945       4     363     170     172    5943   13809     171+
+          13810   13811    7657    7659
CTETRA       946       4     365    5943     172    5944   13805    7659+
+          12237   13812    7651    7660
CTETRA       947       4    1772    6045    6046    6057   13813    7914+
+          11848   11847    7913    7912
CTETRA       948       4    1746    1772    6045    6046    5579   13813+
+          13814   13815   11848    7914
CTETRA       949       4    1668    1766    1769    6060    5566    5573+
+           5572   12592   13816   13817
CTETRA       950       4     363     172     170    5830   13810     171+
+          13809   13763    7273    7272
CTETRA       951       4     349     104     156    5921   13169    7556+
+          13818   13170    7555    7557
CTETRA       952       4    1738    5990    1750    5991   13819   13820+
+           5524   13821    7841   13822
CTETRA       953       4    1738    1750    1739    5991    5524    5521+
+           5525   13821   13822   13823
CTETRA       954       4    1737    1738    1789    6026    5606    5647+
+           5646   13824   13825   13826
CTETRA       955       4    1737    1778    1738    6035    5605    5604+
+           5606   13827   13828   13829
CTETRA       956       4    1706    1708    1707    5985    5365    5367+
+           5366   12149   12597   12588
CTETRA       957       4    1669    6059    1708    6064   12599   12598+
+           5370   13830    7939   13831
CTETRA       958       4     588     589    1757    6102    2277    5486+
+           5487   12391   13832   13833
CTETRA       959       4    1807    6075    1811    6088   11823   11825+
+           5737   13018    8006   11831
CTETRA       960       4    1711    6324    1714    6325   12674   12673+
+           5390   12664    8807   12665
CTETRA       961       4    1743    1757    1744    6100    5484    5483+
+           5485   13834   13835   13836
CTETRA       962       4     589    1744    1757    6099    5481    5483+
+           5486   12413   12414   13837
CTETRA       963       4    1683    5976    1684    5977   13838   13839+
+           5254   13100    7783   13112
CTETRA       964       4    1660    1686    1683    6023    5247    5253+
+           5250   13840   13841   13842
CTETRA       965       4    1743    1756    1757    6078    5488    5491+
+           5484   13777   13778   13843
CTETRA       966       4    1743    6078    1757    6100   13777   13843+
+           5484   13834    8054   13835
CTETRA       967       4    1755    1757    6078    6079    5494   13843+
+          13844   12389   12388    8075
CTETRA       968       4    1649    1655    1656    6435    5221    5228+
+           5225   13845   12791   13846
CTETRA       969       4    1649    6431    6403    6434   13847    9149+
+          13848   13849    9153    9152
CTETRA       970       4    1649    6403    1651    6434   13848   13850+
+           5202   13849    9152   13851
CTETRA       971       4     415    6348    1568    6392   13852   12843+
+           4947   13853    9036   12845
CTETRA       972       4    1649    1650    1655    6434    5203    5220+
+           5221   13849   13854   12793
CTETRA       973       4    1510    1511    1608    6319    4911    4996+
+           4998   13240   13241   13855
CTETRA       974       4    1568    6349    6391    6392   12844    9031+
+          13085   12845    9033    9028
CTETRA       975       4    1510    1608    6252    6319    4998   13856+
+          13242   13240   13855    8781
CTETRA       976       4    1605    1606    6251    6257    5014   13857+
+          13858   13859   12703    8649
CTETRA       977       4    1649    6431    6434    6435   13847    9153+
+          13849   13845    9163    9164
CTETRA       978       4    1608    1609    6257    6317    5003   13860+
+          13861   13862   13863    8767
CTETRA       979       4    1608    1610    6317    6319    4997   13864+
+          13862   13855   13865    8787
CTETRA       980       4    1605    6252    1608    6257   13247   13856+
+           5011   13859    8651   13861
CTETRA       981       4    1458    6168    6169    6172   12458    8233+
+          12548   13866    8232    8230
CTETRA       982       4    1499    1501    1500    6168    4738    4739+
+           4734   13867   12460   12459
CTETRA       983       4    1458    6172    6169    6173   13866    8230+
+          12548   13868    8226    8231
CTETRA       984       4    1719    6321    6320    6346   13869    8793+
+          13870   13871    8884    8885
CTETRA       985       4    1601    1623    6426    6428    5085   13872+
+          13873   13874   13875    9114
CTETRA       986       4    1624    6407    1625    6427   13876   11939+
+           5095   13877    9109   13574
CTETRA       987       4    1472    6157    1473    6170   13878   13879+
+           4622   13880    8227   13881
CTETRA       988       4    1473    6169    6170    6173   13882    8235+
+          13881   13883    8231    8234
CTETRA       989       4    1551    6303    6304    6306   13884    8738+
+          13885   13886    8737    8720
CTETRA       990       4     451    1397     453    6629    4408    4410+
+            452   13289   13304   13286
CTETRA       991       4    1512    6314    1591    6318   13887   12556+
+           4989   13888    8774   13889
CTETRA       992       4    1512    6304    6303    6318   13890    8738+
+          13891   13888    8780    8775
CTETRA       993       4    1551    1552    6303    6306    4874   13892+
+          13884   13886   13893    8737
CTETRA       994       4    1396    1397    6629    6679    4409   13304+
+          13303   13894   13895    9921
CTETRA       995       4    1394    1395    1396    6679    4400    4407+
+           4404   13896   13897   13894
CTETRA       996       4    1390    1394    1396    6680    4395    4404+
+           4403   13898   13899   13900
CTETRA       997       4    1512    1513    1591    6314    4879    4990+
+           4989   13887   13901   12556
CTETRA       998       4    1453    1454    1491    6185    4603    4688+
+           4689   13108   13554   13553
CTETRA       999       4    1454    1470    6184    6185    4601   13902+
+          13650   13554   13107    8321
CTETRA      1000       4     739     740    1241    6792    2944    3868+
+           3869   13315   13317   13903
CTETRA      1001       4    1454    1490    1491    6195    4690    4685+
+           4688   13555   13587   13537
CTETRA      1002       4     973    6792    6861    6863   13316   10525+
+          12343   12336   10529   10527
CTETRA      1003       4     739     972     973    6861    2952    2955+
+           2943   13322   13904   12343
CTETRA      1004       4     740     943     741    6855    2939    2941+
+           2940   13905   13356   13906
CTETRA      1005       4    1495    6165    6164    6193   13907    8274+
+          11985   13908    8360    8359
CTETRA      1006       4    1454    1470    1469    6184    4601    4597+
+           4604   13650   13902   13909
CTETRA      1007       4     740    1243    1241    6793    3867    3863+
+           3868   13910   13911   13912
CTETRA      1008       4     584    1745    6044    6117    5548   13913+
+          13914   12262   13915    8140
CTETRA      1009       4     584     593     585    6136    2288    2287+
+           2289   13916   13917   12130
CTETRA      1010       4     584     585    6117    6136    2289   12263+
+          12262   13916   12130    8215
CTETRA      1011       4    1412    1470    1453    6186    4600    4602+
+           4605   13918   13110   13109
CTETRA      1012       4    1283    1325    1327    5960    4150    4152+
+           4151   13530   12798   13919
CTETRA      1013       4    1269    1270    1387    6721    4070    4357+
+           4356   13246   13225   13920
CTETRA      1014       4    1269    6621    6697    6721   13921   10015+
+          13231   13246   10066   10067
CTETRA      1015       4    1384    1385    6620    6621    4361   13922+
+          13923   13924   13925    9947
CTETRA      1016       4     765     796     792    7176    2439    2441+
+           2424   13926   13927   13928
CTETRA      1017       4     765     766     796    7171    2374    2440+
+           2439   13929   12564   13930
CTETRA      1018       4    1384    6620    1393    6703   13923   13931+
+           4388   13932   10016   13933
CTETRA      1019       4    1269    1387    1384    6621    4356    4360+
+           4358   13921   13934   13924
CTETRA      1020       4     796    7171    7174    7176   13930   11504+
+          13935   13927   11512   11513
CTETRA      1021       4    1268    1316    1269    6696    4063    4065+
+           4064   13228   13264   13229
CTETRA      1022       4     525     917     918    7123    2835    2837+
+           2833   13936   13937   13938
CTETRA      1023       4     917    7101     918    7123   13939   13940+
+           2837   13937   11291   13938
CTETRA      1024       4    1187    1268    1188    6698    4060    4062+
+           4061   13941   13942   13943
CTETRA      1025       4    1807    6072    6075    6088   13944    8005+
+          11823   13018    8004    8006
CTETRA      1026       4    1187    1316    1268    6696    4066    4063+
+           4060   13265   13264   13228
CTETRA      1027       4    1186    1187    6695    6696    4068   13945+
+          13159   13158   13265    9994
CTETRA      1028       4    1188    1441    6698    6701    4509   13687+
+          13943   13463   13684    9999
CTETRA      1029       4     925    7111    6991    7112   12346   11230+
+          12345   13946   11232   11231
CTETRA      1030       4    1297    6206    6207    6208   13947    8423+
+          12953   12955    8422    8419
CTETRA      1031       4     928     937     942    7112    2918    2937+
+           2938   12359   13948   13949
CTETRA      1032       4    1297    6204    1301    6208   12954   13950+
+           4035   12955    8414   13951
CTETRA      1033       4    1303    6217    6239    6240   12937    8542+
+          13690   13952    8547    8548
CTETRA      1034       4     928    6991    6990    7112   12348   10991+
+          12357   12359   11231   11233
CTETRA      1035       4     929     930    6989    7108    2881   13520+
+          13953   13607   13606   11235
CTETRA      1036       4     443    6206    1297    6208   13954   13947+
+           4013   13955    8422   12955
CTETRA      1037       4    1294    1296    1295    5958    4009    4011+
+           4010   13956   13957   13958
CTETRA      1038       4     937    7108    7109    7112   13959   11243+
+          13960   13948   11236   11241
CTETRA      1039       4    1088    7006    6995    7020   13961   10963+
+          12172   13962   10970   10958
CTETRA      1040       4    1088    1089    1140    6995    3492    3586+
+           3585   12172   12153   12154
CTETRA      1041       4    1142    1143    6996    7069    3592   13963+
+          12175   13964   13965   11164
CTETRA      1042       4     897    7012    7011    7015   13447   10915+
+          12026   12364   10925   10924
CTETRA      1043       4    1141    1143    1142    7069    3591    3592+
+           3582   13966   13965   13964
CTETRA      1044       4    1140    1142    6995    7070    3584   12173+
+          12154   13967   13968   11167
CTETRA      1045       4    1087    1088    6996    7020    3483   12174+
+          13969   13970   13962   10957
CTETRA      1046       4     968     974    6833    6834    2970   13971+
+          13972   13973   13974   10437
CTETRA      1047       4     945     968     946    6832    2957    2960+
+           2959   13975   13976   13977
CTETRA      1048       4    1026    6898    1129    6913   12207   12209+
+           3532   12201   10627   12202
CTETRA      1049       4    1129    6913    6898    6916   12202   10627+
+          12209   12190   10643   10642
CTETRA      1050       4    1100    1101    1128    6903    3477    3535+
+           3531   13327   12183   13978
CTETRA      1051       4    1025    1101    1116    6902    3473    3475+
+           3469   13979   13980   13981
CTETRA      1052       4    1233    6563    6565    6567   13982    9508+
+          13983   13984    9522    9525
CTETRA      1053       4    1214    1233    6565    6567    3814   13983+
+          13673   13675   13984    9525
CTETRA      1054       4    1280    1332    6215    6218    4181   13985+
+          13986   13688   13987    8461
CTETRA      1055       4    1741    6108    1813    6111   12998   13019+
+           5733   13010    8101   12960
CTETRA      1056       4    1128    6904    6903    6916   12193   10582+
+          13978   12189   10651   10650
CTETRA      1057       4     485    6773     292    6786   13988   10247+
+          12450   13989   10249   10241
CTETRA      1058       4     485     294     292    6943   13990     293+
+          12450   13644   10749   10750
CTETRA      1059       4     483     290     485    6773   13991   12451+
+            484   13992   10248   13988
CTETRA      1060       4     485    1079    1080    6943    3374    3379+
+           3371   13644   13645   13654
CTETRA      1061       4    1594    6424    1627    6430   13993   13994+
+           5106   13995    9137   13996
CTETRA      1062       4    1627    6424    6429    6430   13994    9126+
+          13997   13996    9137    9138
CTETRA      1063       4    1621    1622    1627    6429    5084    5112+
+           5107   13998   13999   13997
CTETRA      1064       4    1075    1078    6765    6938    3378   14000+
+          14001   12565   14002   10764
CTETRA      1065       4    1078    1084    6765    6942    3395   13655+
+          14000   14003   13649   10766
CTETRA      1066       4    1622    6399    6426    6429   14004    9130+
+          14005   13999    9129    9132
CTETRA      1067       4     487    1080    6940    6943    3370   14006+
+          14007   14008   13654   10753
CTETRA      1068       4     485     487     294    6943     486   14009+
+          13990   13644   14008   10749
CTETRA      1069       4    1079    6941    6766    6942   13643   10768+
+          13646   13648   10763   10767
CTETRA      1070       4    1411    6356    6145    6382   14010    8968+
+          14011   14012    8967    8970
CTETRA      1071       4     487     294     296    6777   14009     295+
+          14013   14014   10204   10203
CTETRA      1072       4    1404    6356    1411    6382   14015   14010+
+           4416   14016    8967   14012
CTETRA      1073       4    1492    6382    6144    6383   14017    8977+
+          13118   14018    8978    8972
CTETRA      1074       4    1404    1405    6381    6382    4697   14019+
+          14020   14016   14021    8964
CTETRA      1075       4     485     292     294    6786   12450     293+
+          13990   13989   10241   10240
CTETRA      1076       4     487    1073     489    6940    3353    3352+
+            488   14007   14022   14023
CTETRA      1077       4    1729    6342    6341    6343   12662    8860+
+          14024   14025    8862    8861
CTETRA      1078       4     393    6338    1721    6343   11867   14026+
+           5428   14027    8870   14028
CTETRA      1079       4     487     294    6777    6786   14009   10204+
+          14014   14029   10240   10242
CTETRA      1080       4     401    6329     208    6331   14030    8812+
+          13582   14031    8819    8821
CTETRA      1081       4    1513    6314    6302    6329   13901    8776+
+          14032   14033    8810    8809
CTETRA      1082       4    1730    6330    6329    6331   14034    8818+
+          14035   14036    8820    8819
CTETRA      1083       4    1730    6314    6329    6330   14037    8810+
+          14035   14034    8817    8818
CTETRA      1084       4     487    6940     294    6943   14007   10751+
+          14009   14008   10753   10749
CTETRA      1085       4     951     999     952    6770    3108    3110+
+           3109   12316   12306   14038
CTETRA      1086       4    1604    6298    1611    6301   14039   14040+
+           5017   14041    8716   12083
CTETRA      1087       4    1586    1587    6270    6300    5019   14042+
+          14043   14044   14045    8706
CTETRA      1088       4    1611    6298    6288    6301   14040    8697+
+          14046   12083    8716    8715
CTETRA      1089       4     950    6810    6811    6830   12270   10401+
+          13408   12271   10400   10402
CTETRA      1090       4    1049    6769    6770    6787   12278   10253+
+          14047   12478   10252   10251
CTETRA      1091       4    1048    6768    6769    6788   12249   10264+
+          12252   14048   10258   10262
CTETRA      1092       4    1009    6586    6573    6588   14049    9621+
+          12694   12282    9620    9623
CTETRA      1093       4     475    1019    1010    6577    3186    3185+
+           3155   14050   14051   14052
CTETRA      1094       4    1428    6209    6224    6225   14053    8480+
+          12106   12117    8487    8488
CTETRA      1095       4    1415    1467    6223    6225    4584   14054+
+          14055   12746   14056    8485
CTETRA      1096       4    1010    1019    1013    6573    3185    3187+
+           3162   12695   14057   12696
CTETRA      1097       4    1415    6210    6209    6225   14058    8453+
+          14059   12746    8484    8487
CTETRA      1098       4    1010    1011    6574    6586    3156   14060+
+          14061   14062   14063    9622
CTETRA      1099       4     515     324     322    7110   14064     323+
+          14065   14066   11245   11244
CTETRA      1100       4     515     322     324    7080   14065     323+
+          14064   14067   11211   11212
CTETRA      1101       4    1183    5965    1432    6176   14068   14069+
+           4492   12715    8260   12717
CTETRA      1102       4     940    7109    7110    7113   11995   11247+
+          13368   11993   11242   11246
CTETRA      1103       4     513     515     320    7113     514   14070+
+          14071   14072   11991   11237
CTETRA      1104       4     937     940     942    7109    2932    2934+
+           2937   13960   11995   11994
CTETRA      1105       4     513     320     515    7073   14071   14070+
+            514   14073   11202   14074
CTETRA      1106       4     515     742    1136    7073    2393    3563+
+           3562   14074   14075   14076
CTETRA      1107       4     941    7110    7116    7117   13367   11261+
+          12472   12474   11268   11269
CTETRA      1108       4    1751    1760    1752    6121    5512    5515+
+           5517   13802   14077   13803
CTETRA      1109       4     938     940    7109    7116    2931   11995+
+          14078   13378   13369   11260
CTETRA      1110       4     517    7110     941    7117   13375   13367+
+           2929   14079   11268   12474
CTETRA      1111       4     515     940     517    7110    2924    2923+
+            516   14066   13368   13375
CTETRA      1112       4     590    6092    5956    6098   12397    8046+
+          14080   14081    8048    8047
CTETRA      1113       4    1721    6339    1724    6342   13044   12651+
+           5439   14082    8865   12657
CTETRA      1114       4     586    6134    6119    6135   14083    8203+
+          14084   12137    8202    8204
CTETRA      1115       4     515     517     742    7080     516    2390+
+           2393   14067   13424   14085
CTETRA      1116       4     431     240     238    5971   13714     239+
+          12852   13657    9958    8897
CTETRA      1117       4     595    6125    6081    6134   12125    8188+
+          14086   12126    8196    8195
CTETRA      1118       4     517     326     324    7117   14087     325+
+          14088   14079   11267   11266
CTETRA      1119       4     517     786     742    7080    2392    2391+
+           2390   13424   13422   14085
CTETRA      1120       4    1820    6097    6091    6098   14089    8033+
+          14090   14091    8053    8049
CTETRA      1121       4    1667    1707    1668    6061    5374    5373+
+           5375   13694   12590   12593
CTETRA      1122       4     517     326     519    7039   14087   13381+
+            518   13423   11055   14092
CTETRA      1123       4    1707    5984    5985    6061   13693    7928+
+          12588   12590    7927    7929
CTETRA      1124       4     513     318     320    7078   14093     319+
+          14071   14094   11197   11198
CTETRA      1125       4    1695    1696    5981    6040    5315   14095+
+          14096   14097   12166    7868
CTETRA      1126       4     513     320     318    7111   14071     319+
+          14093   14098   11228   11227
CTETRA      1127       4    1662    1663    6038    6041    5272   14099+
+          12756   14100   12168    7882
CTETRA      1128       4     513    1136    1135    7078    3560    3561+
+           3554   14094   14101   13617
CTETRA      1129       4     513     515    1136    7073     514    3562+
+           3560   14073   14074   14076
CTETRA      1130       4     349     156     158    5910   13818     157+
+          14102   14103    7495    7494
CTETRA      1131       4     768     769    6980    6981    2365   14104+
+          12449   14105   14106   11069
CTETRA      1132       4     942    7111    7112    7113   14107   11232+
+          13949   11992   11239   11240
CTETRA      1133       4     678    5903    5909    5910   13756    7497+
+          13758   14108    7496    7499
CTETRA      1134       4     927    6886    6885    6991   14109   10735+
+          14110   12362   10983   10982
CTETRA      1135       4     511     925     513    7111    2872    2873+
+            512   14111   12346   14098
CTETRA      1136       4     942    7112    7109    7113   13949   11241+
+          11994   11992   11240   11242
CTETRA      1137       4     511     513     318    7111     512   14093+
+          14112   14111   14098   11227
CTETRA      1138       4     511     318    6886    7111   14112   10733+
+          14113   14111   11227   11229
CTETRA      1139       4     925    6886     927    6991   12344   14109+
+           2874   12345   10983   12362
CTETRA      1140       4     505     314     312    6937   13394     313+
+          13401   13409   10738   10737
CTETRA      1141       4     507    1148    1147    7066    3602    3603+
+           3596   13390   14114   13391
CTETRA      1142       4     363    5820     614    5830   14115   14116+
+           1893   13763    7269   13764
CTETRA      1143       4     614    5830    5821    5832   13764    7271+
+          14117   12238    7284    7281
CTETRA      1144       4     613     614    5821    5832    1891   14117+
+          14118   11840   12238    7281
CTETRA      1145       4     813     814     820    7187    2501    2516+
+           2522   14119   13467   13459
CTETRA      1146       4     756     814     804    7088    2498    2500+
+           2469   14120   13466   14121
CTETRA      1147       4     757     814    7088    7186    2499   13466+
+          14122   14123   14124   11574
CTETRA      1148       4     615    5827    5826    5831   14125    7268+
+          14126   12232    7286    7280
CTETRA      1149       4     757     821     814    7186    2513    2515+
+           2499   14123   14127   14124
CTETRA      1150       4     525     918    7102    7123    2833   14128+
+          14129   13936   13938   11296
CTETRA      1151       4     523     332     330    7123   12562     331+
+          12561   14130   11286   11285
CTETRA      1152       4    1738    5991    1739    5992   13821   13823+
+           5525   14131    7799   14132
CTETRA      1153       4     525     332     527    7175   14133   14134+
+            526   13497   11501   13498
CTETRA      1154       4    1789    6026    1803    6027   13826   14135+
+           5696   14136    7801   12632
CTETRA      1155       4     527     529     795    7173     528    2437+
+           2451   14137   14138   14139
CTETRA      1156       4    1752    1761    1764    6113    5546    5545+
+           5547   13808   14140   13795
CTETRA      1157       4    1747    6113    6046    6122   13796    8124+
+          14141   13797    8137    8136
CTETRA      1158       4    1747    1764    1761    6113    5542    5545+
+           5538   13796   13795   14140
CTETRA      1159       4     525    7102     332    7123   14129   11294+
+          14133   13936   11296   11286
CTETRA      1160       4    1626    6407    6247    6420   11940    9080+
+          14142   11941    9082    9081
CTETRA      1161       4    1713    5983    5984    6053   14143    7908+
+          12667   14144    7906    7909
CTETRA      1162       4     521     330     523    7040   12533   12561+
+            522   12539   11065   12531
CTETRA      1163       4     788     794    7041    7042    2429   14145+
+          14146   14147   14148   11063
CTETRA      1164       4    1182    1500    1458    6172    4732    4735+
+           4627   12721   12720   13866
CTETRA      1165       4    1667    1713    1707    5984    5383    5384+
+           5374   13692   12667   13693
CTETRA      1166       4     523     797     794    7040    2444    2447+
+           2446   12531   12532   14149
CTETRA      1167       4    1524    1533    1535    6479    4776    4784+
+           4786   14150   13136   14151
CTETRA      1168       4     527    7173     795    7175   14137   14139+
+           2451   13498   11508   14152
CTETRA      1169       4    1528    6478    1535    6479   13559   13561+
+           4785   14153    9330   14151
CTETRA      1170       4    1524    6479    1535    6497   14150   14151+
+           4786   13274    9391   13275
CTETRA      1171       4    1535    6479    6478    6492   14151    9330+
+          13561   12292    9390    9366
CTETRA      1172       4    1457    1458    1501    6169    4629    4740+
+           4741   14154   12548   12540
CTETRA      1173       4     132    5946     143    5956   14155    7679+
+          11784   14156   11773   11772
CTETRA      1174       4    1598    1618    1616    6246    5060    5059+
+           5058   14157   14158   14159
CTETRA      1175       4     131     590     599    5956    2271    2270+
+           2269   14160   14080   14161
CTETRA      1176       4     640    5950     644    5953   14162   14163+
+           1975   14164    7689   14165
CTETRA      1177       4    1474    1498    1499    6181    4725    4728+
+           4727   14166   12466   12468
CTETRA      1178       4     639    5819     644    5950   11801   14167+
+           1976   14168    7673   14163
CTETRA      1179       4    1474    1499    6180    6181    4727   14169+
+          14170   14166   12468    8296
CTETRA      1180       4     602     644     639    5819    1984    1976+
+           1949   11800   14167   11801
CTETRA      1181       4    1433    1474    1499    6180    4678    4727+
+           4729   14171   14170   14169
CTETRA      1182       4    1432    1433    1499    6167    4496    4729+
+           4730   12718   14172   14173
CTETRA      1183       4    1326    6732    1328    6733   13004   13003+
+           4155   12801   10117   14174
CTETRA      1184       4     638    5836    5835    5950   13791    7396+
+          13790   14175    7688    7676
CTETRA      1185       4    1326    6729    6728    6732   14176   10090+
+          13543   13004   10118   10106
CTETRA      1186       4    1326    6729    6732    6733   14176   10118+
+          13004   12801   10114   10117
CTETRA      1187       4    1307    6728    1326    6729   13542   13543+
+           4142   14177   10090   14176
CTETRA      1188       4     605    6129     609    6130   14178   14179+
+           1869   14180    8170   14181
CTETRA      1189       4    1278    6525    1289    6581   14182   12320+
+           3966   14183    9590   13284
CTETRA      1190       4     371     176     178    5938   14184     177+
+          14185   12870    7628    7629
CTETRA      1191       4     371    5825     605    6130   14186   14187+
+           1845   14188    8169   14180
CTETRA      1192       4     453    1278    1289    6581    3964    3966+
+           3965   13272   14183   13284
CTETRA      1193       4     371     180     178    6130   14189     179+
+          14185   14188    8166    8168
CTETRA      1194       4    1181    1458    1473    6173    4626    4628+
+           4620   14190   13868   13883
CTETRA      1195       4    1458    1500    6168    6172    4735   12459+
+          12458   13866   12720    8232
CTETRA      1196       4    1277    1290    1289    6525    3978    3981+
+           3983   12313   12312   12320
CTETRA      1197       4     371     178     180    6085   14185     179+
+          14189   14191    7995    7993
CTETRA      1198       4     451     453    1289    6526     452    3965+
+           3968   13311   13283   13282
CTETRA      1199       4     371    5938     178    6085   12870    7629+
+          14185   14191    7996    7995
CTETRA      1200       4     832    7212    7211    7243   14192   11631+
+          14193   14194   11748   11749
CTETRA      1201       4     847     851     848    7243    2629    2626+
+           2628   14195   13492   14196
CTETRA      1202       4     817     818     838    7205    2532    2587+
+           2585   13567   14197   14198
CTETRA      1203       4     818    7204     838    7205   14199   14200+
+           2587   14197   11614   14198
CTETRA      1204       4     812    7090     813    7189   14201   11884+
+           2497   14202   11567   14203
CTETRA      1205       4    1241    1242    1245    6802    3864    3871+
+           3870   14204   14205   14206
CTETRA      1206       4    1241    6802    1245    6804   14204   14206+
+           3870   11875   10306   14207
CTETRA      1207       4     820    7201     828    7202   14208   14209+
+           2564   13460   11608   12402
CTETRA      1208       4    1244    6798    1246    6804   11977   11878+
+           3875   14210   10300   11871
CTETRA      1209       4    1245    1258    1256    6799    3918    3922+
+           3924   14211   12332   12328
CTETRA      1210       4    1241    1245    1246    6804    3870    3874+
+           3872   11875   14207   11871
CTETRA      1211       4     838    7204     839    7221   14200   13456+
+           2588   12424   11647   14212
CTETRA      1212       4    1626    6248    6247    6407   14213    8704+
+          14142   11940    9083    9080
CTETRA      1213       4     752     753     916    7145    2490    2843+
+           2844   14214   13602   13599
CTETRA      1214       4    1147    7065    7064    7066   14215   11152+
+          14216   13391   11154   11153
CTETRA      1215       4    1148    7061    7062    7066   14217   11163+
+          14218   14114   11162   11159
CTETRA      1216       4    1617    1618    6247    6299    5066   14219+
+          14220   14221   14222    8699
CTETRA      1217       4    1145    1147    1149    7065    3601    3613+
+           3609   14223   14215   14224
CTETRA      1218       4     507    7061    1148    7066   14225   14217+
+           3602   13390   11162   14114
CTETRA      1219       4     521     523     794    7040     522    2446+
+           2430   12539   12531   14149
CTETRA      1220       4    1458    6169    1473    6173   12548   13882+
+           4628   13868    8231   13883
CTETRA      1221       4    1096    1113    7025    7036    3454   14226+
+          14227   14228   14229   11049
CTETRA      1222       4    1118    1121    7024    7026    3500   12177+
+          14230   13343   12178   10999
CTETRA      1223       4     521     523     330    7121     522   12561+
+          12533   12535   12469   11282
CTETRA      1224       4     521     328    7040    7042   12534   11064+
+          12539   14231   11054   11066
CTETRA      1225       4     866     895    7043    7044    2696   14232+
+          12488   14233   14234   11084
CTETRA      1226       4     387    6011     194    6014   13703    7708+
+          14235   13704    7710    7698
CTETRA      1227       4    1119    1120    1121    7005    3498    3499+
+           3491   14236   14237   12176
CTETRA      1228       4    1120    1121    7005    7024    3499   12176+
+          14237   14238   12177   10998
CTETRA      1229       4    1150    1161    7050    7059    3654   14239+
+          14240   14241   14242   11131
CTETRA      1230       4    1088    7005    1121    7006   14243   12176+
+           3490   13961   10971   14244
CTETRA      1231       4    1088    1121    1089    7006    3490    3493+
+           3492   13961   14244   12161
CTETRA      1232       4    1150    1153    1151    7056    3620    3622+
+           3621   14245   14246   14247
CTETRA      1233       4    1071    6968    6950    6977   12838   10864+
+          12831   12840   10895   10894
CTETRA      1234       4    1199    1200    1380    6654    3857    4324+
+           4325   14248   14249   14250
CTETRA      1235       4    1066    1070    1071    6968    3337    3341+
+           3339   12850   12992   12838
CTETRA      1236       4    1037    6950    6893    6977   12841   10796+
+          13340   12842   10894   10892
CTETRA      1237       4     501     308    7049    7054   12229   11118+
+          12216   14251   11114   11120
CTETRA      1238       4    1035    1036    1069    6953    3279    3344+
+           3345   13523   12573   12574
CTETRA      1239       4    1069    6950    1071    6968   12572   12831+
+           3342   14252   10864   12838
CTETRA      1240       4     503    1144    7049    7064    3598   14253+
+          12217   12214   14254   11143
CTETRA      1241       4     769    6980    6981    7037   14104   11069+
+          14106   12245   11068   11070
CTETRA      1242       4     797    6978     798    7170   12530   12538+
+           2454   14255   11496   14256
CTETRA      1243       4     387    1709    1717    6313    5405    5409+
+           5401   14257   14258   14259
CTETRA      1244       4     980    6535     982    6559   14260   14261+
+           3023   14262    9482   14263
CTETRA      1245       4     961     980     962    6534    3009    3008+
+           3010   14264   12858   14265
CTETRA      1246       4     961     962    1000    6587    3010    3123+
+           3124   14266   12699   12700
CTETRA      1247       4     733    6533    6534    6558   14267    9479+
+          12857   12859    9478    9477
CTETRA      1248       4    1002    6585    6584    6596   14268    9615+
+          14269   14270    9661    9662
CTETRA      1249       4    1001    6585    1002    6596   12295   14268+
+           3120   14271    9661   14270
CTETRA      1250       4    1024    6965    6890    6966   13352   10836+
+          14272   14273   10855   10843
CTETRA      1251       4     731     994    6596    6607    3103   14274+
+          14275   14276   14277    9695
CTETRA      1252       4     731    6596    6606    6607   14275    9685+
+          13063   14276    9695    9694
CTETRA      1253       4    1104    6889    6946    6966   14278   10774+
+          14279   14280   10842   10844
CTETRA      1254       4     385     387     194    6313     386   14235+
+          14281   14282   14257    8745
CTETRA      1255       4     387     389    1784    6014     388    5626+
+           5625   13704   14283   13163
CTETRA      1256       4     507    6935     314    6937   13418   10747+
+          13395   13419   10748   10738
CTETRA      1257       4     916    7101     917    7122   13598   13939+
+           2839   12876   11290   13430
CTETRA      1258       4     916     917     920    7122    2839    2846+
+           2845   12876   13430   12865
CTETRA      1259       4    1097    1113    1112    6881    3451    3446+
+           3448   13507   14284   13508
CTETRA      1260       4    1102    1112    1113    6887    3447    3446+
+           3445   14285   13664   14286
CTETRA      1261       4    1093    1167    6876    6901    3677   12974+
+          14287   14288   14289   10628
CTETRA      1262       4    1670    1671    1714    5983    5299    5389+
+           5392   14290   14291   12676
CTETRA      1263       4     753     918     916    7137    2842    2838+
+           2843   13601   14292   13597
CTETRA      1264       4     753    7137     916    7145   13601   13597+
+           2843   13602   11403   13599
CTETRA      1265       4    1092    6905    1126    6914   14293   14294+
+           3523   14295   10634   14296
CTETRA      1266       4     916    7101    7100    7145   13598   11293+
+          12875   13599   11404   11407
CTETRA      1267       4     809     816     815    7192    2527    2529+
+           2525   12210   12182   14297
CTETRA      1268       4    1126    6914    6905    6915   14296   10634+
+          14294   14298   10637   10640
CTETRA      1269       4     836    7206     837    7226   12156   14299+
+           2581   11899   11673   11909
CTETRA      1270       4     383     190     188    5986   13709     189+
+          14300   12445    8764    7942
CTETRA      1271       4     815    7192     816    7207   14297   12182+
+           2529   12225   11623   12157
CTETRA      1272       4     817    7205     837    7206   13567   14301+
+           2582   13568   11622   14299
CTETRA      1273       4    1324    6726    6725    6734   13544   10097+
+          13518   14302   10129   10130
CTETRA      1274       4    1092    1093    1167    6876    3525    3677+
+           3678   14303   14287   12974
CTETRA      1275       4     837     860     862    7225    2671    2676+
+           2678   11907   14304   11908
CTETRA      1276       4    1094    6901    6900    6919   14305   10639+
+          13320   14306   10663   10664
CTETRA      1277       4     837    7206    7205    7225   14299   11622+
+          14301   11907   11663   11662
CTETRA      1278       4     872    1113    1096    7036    3444    3454+
+           3452   14307   14229   14228
CTETRA      1279       4    1033    1055    6763    6848    3264   14308+
+          14309   14310   14311   10461
CTETRA      1280       4    1033    1055    1054    6763    3264    3257+
+           3261   14309   14308   14312
CTETRA      1281       4      32     850     852    7246    2624    2635+
+           2636   14313   14314   12685
CTETRA      1282       4      32      79     850    7246     568   14315+
+           2624   14313   11762   14314
CTETRA      1283       4    1040    1041    1056    6761    3241    3275+
+           3271   14316   14317   14318
CTETRA      1284       4    1041    6761    6925    6927   14317   10696+
+          14319   14320   10698   10694
CTETRA      1285       4    1054    6763    1055    6849   14312   14308+
+           3257   14321   10463   12587
CTETRA      1286       4     947    6839    6840    6845   14322   10443+
+          14323   14324   10442   10432
CTETRA      1287       4    1033    6763    6764    6848   14309   10464+
+          14325   14310   10461   10455
CTETRA      1288       4     385     194     192    6313   14281     193+
+          14326   14282    8745    8744
CTETRA      1289       4    1007    1017    1015    6823    3175    3179+
+           3181   14327   13385   13393
CTETRA      1290       4    1012    1016    6500    6572    3176   14328+
+          13386   13388   14329    9573
CTETRA      1291       4    1013    6573    6572    6588   12696    9568+
+          14330   12286    9623    9624
CTETRA      1292       4    1208    1209    1244    6806    3832    3877+
+           3878   14331   14332   11979
CTETRA      1293       4     850    7244     851    7245   14333   14334+
+           2627   13493   11757   13491
CTETRA      1294       4     851    7244    7243    7245   14334   11753+
+          13492   13491   11757   11756
CTETRA      1295       4    1244    6805    1261    6806   14335   14336+
+           3929   11979   10310   14337
CTETRA      1296       4      32      78      79    7246     570      98+
+            568   14313   11763   11762
CTETRA      1297       4      79    7244     850    7246   11755   14333+
+          14315   11762   11760   14314
CTETRA      1298       4    1209    6798    6806    6807   14338   10325+
+          14332   14339   10321   10324
CTETRA      1299       4     919     921     920    7124    2850    2849+
+           2851   13417   14340   12643
CTETRA      1300       4    1096    1113    1097    7025    3454    3451+
+           3455   14227   14226   14341
CTETRA      1301       4    1184    1444    5965    6713    4493   14342+
+          14343   14344   14345   10045
CTETRA      1302       4    1444    5966    5965    6713   12014    8258+
+          14342   14345   10048   10045
CTETRA      1303       4    1144    1147    1145    7065    3599    3601+
+           3600   14346   14215   14223
CTETRA      1304       4    1185    6708    1444    6713   12003   12005+
+           4494   14347   10047   14345
CTETRA      1305       4      31     852     834    7247    2637    2633+
+           2639   12734   12687   12761
CTETRA      1306       4    1185    6711    6709    6713   14348   10037+
+          13166   14347   10044   10046
CTETRA      1307       4    1319    5964    6704    6711   14349   10032+
+          14350   14351   10034   10033
CTETRA      1308       4    1310    5963    5964    6175   13539    8249+
+          14352   13540    8248    8250
CTETRA      1309       4    1244    6797    1256    6805   11978   12327+
+           3925   14335   10309   12329
CTETRA      1310       4    1182    6175    1183    6176   14353   14354+
+           4108   12714    8256   12715
CTETRA      1311       4    1310    5963    1319    5964   13539   14355+
+           4106   14352    8249   14349
CTETRA      1312       4     387    1717     389    6310    5401    5400+
+            388   14356   14357   14358
CTETRA      1313       4     773    7131    7132    7133   14359   11347+
+          12928   12929   11346   11345
CTETRA      1314       4     773     780    7084    7133    2355   14360+
+          14361   12929   12931   11356
CTETRA      1315       4     772     779     773    7131    2344    2349+
+           2350   14362   14363   14359
CTETRA      1316       4     773    7132    7131    7156   12928   11347+
+          14359   14364   11451   11450
CTETRA      1317       4     747    7132     773    7156   14365   12928+
+           2346   14366   11451   14364
CTETRA      1318       4    1378    1379    6666    6674    4336   14367+
+          14368   14369   13041    9893
CTETRA      1319       4    1386    6673    6672    6681   14370    9903+
+          14371   14372    9934    9933
CTETRA      1320       4    1238    6637    1252    6645   14373   14374+
+           3895   14375    9768   14376
CTETRA      1321       4      62     709     114    5924    2194   13005+
+           5808   14377   13534    7575
CTETRA      1322       4     710    5924    5926    5927   13526    7571+
+          11955   11957    7577    7578
CTETRA      1323       4     731     732    1219    6606    3127    3729+
+           3728   13063   13066   13064
CTETRA      1324       4      63     709     711    5927    2195    2206+
+           2207   12917   13006   11960
CTETRA      1325       4    1057    1059    6894    6926    3290   14378+
+          14379   14380   14381   10687
CTETRA      1326       4     144    5952     644    5953    7678   14382+
+          14383    7694    7696   14165
CTETRA      1327       4     643    5951     644    5952   14384   14385+
+           1980   14386    7682   14382
CTETRA      1328       4     144     644    5819    5953   14383   14167+
+           7626    7694   14165    7690
CTETRA      1329       4     639     644     640    5950    1976    1975+
+           1963   14168   14163   14162
CTETRA      1330       4     640     644     641    5953    1975    1977+
+           1965   14164   14165   13735
CTETRA      1331       4     724     725    5944    5945    2305   14387+
+          12462   11791   14388    7650
CTETRA      1332       4     644    5950    5819    5953   14163    7673+
+          14167   14165    7689    7690
CTETRA      1333       4    1517    1542    1518    6442    4829    4832+
+           4831   14389   13114   14390
CTETRA      1334       4    1540    6470    1541    6474   12528   14391+
+           4823   14392    9292   14393
CTETRA      1335       4     593    6126    6127    6133   14394    8191+
+          14395   14396    8190    8186
CTETRA      1336       4     592    6127     593    6137   14397   14395+
+           1866   14398    8217   14399
CTETRA      1337       4    1542    6493    6442    6495   14400    9373+
+          13114   13116    9380    9377
CTETRA      1338       4     387     389     196    6310     388   14401+
+          14402   14356   14358    8756
CTETRA      1339       4     593    6127     610    6133   14395   14403+
+           1867   14396    8186   14404
CTETRA      1340       4    1542    1545    6493    6496    4842   14405+
+          14400   14406   13125    9382
CTETRA      1341       4     593    6126     594    6136   14394   12138+
+           1883   13917    8205   12131
CTETRA      1342       4    1544    6353    6352    6493   14407    9002+
+          14408   14409    9374    9372
CTETRA      1343       4    1523    6480    1543    6481   13134   14410+
+           4828   13121    9342   13122
CTETRA      1344       4    1517    1573    1566    6452    4955    4956+
+           4932   14411   12275   14412
CTETRA      1345       4    1571    6390    6389    6391   12284    9020+
+          14413   13090    9022    9025
CTETRA      1346       4     592     609     610    6128    1864    1868+
+           1865   14414   12049   14415
CTETRA      1347       4     592     610    6127    6128    1865   14403+
+          14397   14414   14415    8185
CTETRA      1348       4     606     610    6129    6133    1878   14416+
+          14417   14418   14404    8177
CTETRA      1349       4     593     610     612    6133    1867    1882+
+           1881   14396   14404   14419
CTETRA      1350       4     748     779    7155    7156    2338   14420+
+          14421   14422   14423   11456
CTETRA      1351       4     779    7155    7156    7157   14420   11456+
+          14423   14424   11453   11455
CTETRA      1352       4    1603    6248    1624    6249   14425   14426+
+           5090   14427    8696   14428
CTETRA      1353       4     385    1706    1709    6311    5362    5376+
+           5377   14429   12150   14430
CTETRA      1354       4     878    7001     879    7023   14431   14432+
+           2774   12340   10987   14433
CTETRA      1355       4     877    7033    7023    7034   13632   11029+
+          13628   13629   11037   11036
CTETRA      1356       4     877    7031    7033    7034   14434   11038+
+          13632   13629   11035   11037
CTETRA      1357       4    1624    1626    1625    6407    5094    5096+
+           5095   13876   11940   11939
CTETRA      1358       4    1596    1626    1597    6420    5098    5103+
+           5104   11937   11941   12817
CTETRA      1359       4    1602    6249    1624    6427   14435   14428+
+           5088   14436    9108   13877
CTETRA      1360       4     869     870    7019    7021    2723   14437+
+          14438   14439   14440   10977
CTETRA      1361       4     869    7019    7009    7021   14438   10981+
+          14441   14439   10977   10980
CTETRA      1362       4    1602    6427    1623    6428   14436   14442+
+           5086   14443    9123   13875
CTETRA      1363       4    1601    1602    1623    6428    5045    5086+
+           5085   13874   14443   13875
CTETRA      1364       4    1621    6424    6398    6429   14444    9127+
+          14445   13998    9126    9125
CTETRA      1365       4    1621    6399    1622    6429   14446   14004+
+           5084   13998    9129   13999
CTETRA      1366       4    1073    6952    1074    6971   14447   12984+
+           3357   14448   10859   14449
CTETRA      1367       4    1309    1310    1329    5963    4117    4159+
+           4158   12614   13539   14450
CTETRA      1368       4    1456    1472    1457    6178    4618    4623+
+           4625   13660   14451   14452
CTETRA      1369       4    1622    6399    6400    6426   14004    9131+
+          14453   14005    9130    9115
CTETRA      1370       4    1603    1611    1604    6298    5039    5017+
+           5040   14454   14040   14039
CTETRA      1371       4    1604    6300    6298    6301   14455    8717+
+          14039   14041    8714    8716
CTETRA      1372       4     403    6408    1645    6417   14456   14457+
+           5176   14458    9070   14459
CTETRA      1373       4     401     210     403    6417   14460   14461+
+            402   13583    9064   14458
CTETRA      1374       4     401     403     210    6329     402   14461+
+          14460   14030   14462    8811
CTETRA      1375       4    1072    6952    1076    6955   12985   14463+
+           3359   14464   10807   14465
CTETRA      1376       4    1709    6311    6312    6313   14430    8749+
+          14466   14258    8748    8750
CTETRA      1377       4     403     210     405    6408   14461   14467+
+            404   14456    9068   14468
CTETRA      1378       4     403    1730    1513    6329    5454    5456+
+           4876   14462   14035   14033
CTETRA      1379       4    1070    1072    6951    6972    3354   12989+
+          12991   12124   12986   10862
CTETRA      1380       4     403     405     210    6302     404   14467+
+          14461   14469   14470    8741
CTETRA      1381       4    1603    1604    1617    6298    5040    5062+
+           5064   14454   14039   14471
CTETRA      1382       4    1606    6250    1612    6251   14472   14473+
+           5026   13857    8657   14474
CTETRA      1383       4    1617    1626    1624    6248    5092    5094+
+           5091   14475   14213   14426
CTETRA      1384       4    1301    6204    1302    6217   13950   12946+
+           4041   14476    8473   12935
CTETRA      1385       4    1296    6203    1298    6207   14477   13676+
+           4018   14478    8417   14479
CTETRA      1386       4    1042    1059    6926    6928    3297   14381+
+          14480   14481   14482   10706
CTETRA      1387       4    1281    1298    1282    6203    4016    4015+
+           4017   13677   13676   14483
CTETRA      1388       4     969    6864    6865    6866   14484   10540+
+          14485   14486   10539   10536
CTETRA      1389       4     968    6865    6833    6866   14487   10534+
+          13972   14488   10536   10533
CTETRA      1390       4    1301    1302    1303    6217    4041    4046+
+           4045   14476   12935   12937
CTETRA      1391       4     433    6236     240    6238   13701    8524+
+          14489   12910    8531    8533
CTETRA      1392       4     433     240     242    6238   14489     241+
+          14490   12910    8533    8534
CTETRA      1393       4     593     612    6126    6133    1881   14491+
+          14394   14396   14419    8190
CTETRA      1394       4       2     612     607    6132    1887    1886+
+           1837   14492   14493   14494
CTETRA      1395       4     737    6790    1209    6807   14495   14496+
+           3829   14497   10320   14339
CTETRA      1396       4    1716    6322    6309    6324   13662    8799+
+          14498   13663    8798    8801
CTETRA      1397       4     607    5824    5823    6133   14499    7266+
+          14500   14501    8176    8179
CTETRA      1398       4    1234    6506    1236    6507   14502   14503+
+           3822   14504    9533   14505
CTETRA      1399       4     736     737    1236    6789    2991    3821+
+           3820   14506   14507   14508
CTETRA      1400       4     606    5824     607    6133   14509   14499+
+           1840   14418    8176   14501
CTETRA      1401       4    1037    1059    1058    6893    3292    3295+
+           3293   13340   14510   13341
CTETRA      1402       4      20     607     581    5829    1836    1838+
+           1841   14511   14512   14513
CTETRA      1403       4     737    6789    6790    6807   14507   10322+
+          14495   14497   10317   10320
CTETRA      1404       4     737    1209    1236    6807    3829    3831+
+           3821   14497   14339   14514
CTETRA      1405       4       9    5823     607    5829    7251   14500+
+          14515    7260    7261   14512
CTETRA      1406       4    1236    6507    6789    6807   14505   10316+
+          14508   14514   10318   10317
CTETRA      1407       4       1     607    5823    6132   14516   14500+
+           7250    8182   14494    8180
CTETRA      1408       4     375     182    5996    6074   14517    7826+
+          14518   14519    7974    7971
CTETRA      1409       4     736    1236    1234    6506    3820    3822+
+           3817   14520   14503   14502
CTETRA      1410       4     735    6505     736    6506   14521   14522+
+           2999   14523    9520   14520
CTETRA      1411       4    1755    6079    6078    6124   12389    8075+
+          13844   13129    8154    8157
CTETRA      1412       4    1042    1043    1059    6928    3255    3298+
+           3297   14481   14524   14482
CTETRA      1413       4    1208    1235    1236    6508    3825    3824+
+           3826   14525   14526   14527
CTETRA      1414       4    1236    6508    6507    6807   14527    9529+
+          14505   14514   10323   10318
CTETRA      1415       4    1813    6108    6076    6111   13019    8102+
+          12959   12960    8101    8100
CTETRA      1416       4    1209    6790    6798    6807   14496   10302+
+          14338   14339   10320   10321
CTETRA      1417       4     387     194     196    6014   14235     195+
+          14402   13704    7698    7697
CTETRA      1418       4    1168    6754    6781    6783   12134   10225+
+          12145   14528   10227   10222
CTETRA      1419       4     588    1757    6079    6102    5487   12388+
+          12387   12391   13833    8076
CTETRA      1420       4    1029    1030    6757    6788    3213   14529+
+          14530   14531   14532   10265
CTETRA      1421       4    1047    1049    1048    6769    3207    3209+
+           3210   12251   12278   12252
CTETRA      1422       4    1755    6078    1756    6124   13844   13778+
+           5495   13129    8157   14533
CTETRA      1423       4    1756    6078    6116    6124   13778    8158+
+          13504   14533    8157    8159
CTETRA      1424       4    1029    1048    1030    6788    3212    3211+
+           3213   14531   14048   14532
CTETRA      1425       4       7    1819    1820    6095    5772    5760+
+           5768   11792   11794   14534
CTETRA      1426       4    1029    6758    1048    6788   14535   14536+
+           3212   14531   10259   14048
CTETRA      1427       4    1046    1048    6758    6759    3220   14536+
+          14537   14538   12253   10260
CTETRA      1428       4     728    5940    1819    6095   14539   12881+
+           5773   11793    8025   11794
CTETRA      1429       4    1816    1820    1819    6095    5758    5760+
+           5759   14540   14534   11794
CTETRA      1430       4     727    1821    5939    5940    5779   12434+
+          12433   12882   12825    7639
CTETRA      1431       4     726    1818     727    5939    5769    5771+
+           5770   14541   14542   12433
CTETRA      1432       4    1670    5983    6053    6055   14290    7906+
+          14543   14544    7903    7907
CTETRA      1433       4    1670    5983    1713    6053   14290   14143+
+           5386   14543    7906   14144
CTETRA      1434       4     996    6598    6604    6611   12678    9691+
+          14545   14546    9698    9699
CTETRA      1435       4    1276    1286    1290    6745    3979    3972+
+           3976   14547   13210   12315
CTETRA      1436       4    1286    6743    6741    6745   12080   10146+
+          12309   13210   10152   10151
CTETRA      1437       4    1350    6524    6744    6745   14548   10150+
+          14549   14550   10160   10159
CTETRA      1438       4    1667    1668    1769    6060    5375    5572+
+           5574   14551   12592   13817
CTETRA      1439       4    1709    6312    6309    6313   14466    8751+
+          12877   14258    8750    8752
CTETRA      1440       4    1662    5998    5997    6038   12755    7787+
+          14552   12756    7862    7881
CTETRA      1441       4    1328    6732    5961    6733   13003   10108+
+          14553   14174   10117   10116
CTETRA      1442       4    1736    6036    5998    6038   14554    7861+
+          12754   12757    7863    7862
CTETRA      1443       4    1309    1320    6704    6731    4118   14555+
+          14556   12612   14557   10100
CTETRA      1444       4     816    7192    7206    7207   12182   11621+
+          12155   12157   11623   11624
CTETRA      1445       4    1663    1779    1780    6039    5614    5620+
+           5624   14558   14559   14560
CTETRA      1446       4    1778    1779    5989    6037    5619   14561+
+          14562   14563   14564    7849
CTETRA      1447       4    1355    6657    6658    6659   14565    9833+
+          12777   14566    9832    9834
CTETRA      1448       4    1661    1690    5997    6024    5261   14567+
+          14568   14569   14570    7786
CTETRA      1449       4    1679    1690    1689    5978    5270    5265+
+           5267   14571   14572   13103
CTETRA      1450       4    1679    1690    5978    5979    5270   14572+
+          14571   14573   14574    7792
CTETRA      1451       4     959     979    6502    6822    3020   14575+
+          12707   14576   14577   10344
CTETRA      1452       4    1696    5980    1697    5981   12170   14578+
+           5316   14095    7879   14579
CTETRA      1453       4    1215    1218    1216    6531    3733    3736+
+           3738   14580   14581   14582
CTETRA      1454       4    1192    6530    6529    6617   12505    9398+
+          12507   12506    9732    9733
CTETRA      1455       4     387    6310     194    6313   14356    8755+
+          14235   14257    8757    8745
CTETRA      1456       4     132    5946     642    5952   14155   14583+
+           1981   14584    7680   14585
CTETRA      1457       4    1751    1765    6118    6122    5556   14586+
+          14587   12256   12258    8145
CTETRA      1458       4     355     162    5875    5889   14588    7385+
+          14589   14590    7431    7433
CTETRA      1459       4    1012    6588    6572    6589   14591    9624+
+          13388   14592    9630    9628
CTETRA      1460       4     678    5889    5902    5903   14593    7478+
+          13757   13756    7477    7479
CTETRA      1461       4     836    7207    7206    7226   11898   11624+
+          12156   11899   11674   11673
CTETRA      1462       4     960    1014    1012    6589    3170    3166+
+           3168   12290   14594   14592
CTETRA      1463       4     676    5888    5901    5902   12421    7481+
+          12987   12422    7480    7482
CTETRA      1464       4     959    6502     960    6589   12707   12705+
+           3021   12708    9625   12290
CTETRA      1465       4    1793    1798    6029    6030    5679   14595+
+          14596   14597   14598    7815
CTETRA      1466       4     733     734    1224    6564    3003    3764+
+           3763   13310   13081   14599
CTETRA      1467       4     733    1224    6536    6564    3763   14600+
+          13309   13310   14599    9513
CTETRA      1468       4     381     188     383    6003   12159   14300+
+            382   14601    7751   13708
CTETRA      1469       4     835    7207     836    7228   12437   11898+
+           2584   14602   11676   11900
CTETRA      1470       4    1793    1798    1794    6029    5679    5682+
+           5684   14596   14595   14603
CTETRA      1471       4    1793    6029    1794    6031   14596   14603+
+           5684   14604    7835   14605
CTETRA      1472       4    1515    6439    1539    6440   12552   14606+
+           4807   14607    9193   14608
CTETRA      1473       4    1515    1539    1541    6440    4807    4815+
+           4814   14607   14608   14609
CTETRA      1474       4     135       7     146     728     141   11779+
+          11778    5777    5774   14610
CTETRA      1475       4    1793    6030    6031    6032   14597    7819+
+          14604   14611    7818    7820
CTETRA      1476       4     379    1793    1808    6032    5681    5709+
+           5711   14612   14611   12618
CTETRA      1477       4    1614    6288    6250    6289   14613    8652+
+          14614   14615    8648    8653
CTETRA      1478       4     815    7207     835    7208   12225   12437+
+           2577   12443   11617   11969
CTETRA      1479       4    1781    1784    1782    6010    5629    5631+
+           5630   13706   13705   14616
CTETRA      1480       4    1785    6012    6013    6014   14617    7702+
+          13161   13164    7701    7703
CTETRA      1481       4    1607    6258    6287    6289   12683    8640+
+          14618   12684    8643    8646
CTETRA      1482       4    1784    6010    6011    6014   13705    7711+
+          13702   13163    7705    7710
CTETRA      1483       4    1739    6069    1740    6070   13024   13026+
+           5528   14619    7992   13043
CTETRA      1484       4    1698    1701    1700    6281    5335    5336+
+           5332   12906   12570   12897
CTETRA      1485       4    1740    6070    6069    6110   13043    7992+
+          13026   12999    8111    8118
CTETRA      1486       4    1739    1750    1762    6068    5521    5523+
+           5522   14620   14621   14622
CTETRA      1487       4    1739    6068    1762    6069   14620   14622+
+           5522   13024    7987   13025
CTETRA      1488       4    1698    1700    6263    6281    5332   12581+
+          12901   12906   12897    8590
CTETRA      1489       4    1740    1754    6110    6112    5503   13000+
+          12999   13027   13033    8119
CTETRA      1490       4    1749    1763    1762    6109    5536    5530+
+           5534   14623   14624   14625
CTETRA      1491       4    1294    5959    5958    6746   14626    8429+
+          13956   14627   10163   10165
CTETRA      1492       4    1294    1296    5958    5959    4009   13957+
+          13956   14626   14628    8429
CTETRA      1493       4    1293    1294    5958    6749    4002   13956+
+          14629   14630   14631   10168
CTETRA      1494       4    1763    6109    6106    6112   14624    8115+
+          14632   14633    8114    8117
CTETRA      1495       4    1748    1749    1776    6048    5541    5607+
+           5595   14634   14635   13486
CTETRA      1496       4    1794    1804    1799    6033    5706    5700+
+           5704   14636   12625   12624
CTETRA      1497       4     587     595     596    6134    2278    1851+
+           2279   13133   12126   14637
CTETRA      1498       4    1739    5991    1750    6068   13823   13822+
+           5521   14620    7983   14621
CTETRA      1499       4    1794    1795    1804    6033    5673    5707+
+           5706   14636   14638   12625
CTETRA      1500       4     587     596    6080    6134    2279   14639+
+          13131   13133   14637    8197
CTETRA      1501       4    1738    5991    5992    6026   13821    7799+
+          14131   13825    7798    7797
CTETRA      1502       4     715    5912     717    5915   14640   14641+
+           2231   14642    7523   13515
CTETRA      1503       4    1738    1778    1750    5990    5604    5601+
+           5524   13819   14643   13820
CTETRA      1504       4     587    1760    6119    6120    5518   14644+
+          14645   13132   13127    8161
CTETRA      1505       4    1747    1748    6047    6105    5539   14646+
+          14647   14648   14649    8098
CTETRA      1506       4    1750    5990    1777    6049   13820   14650+
+           5602   14651    7892   14652
CTETRA      1507       4     379     381    1793    6030     380    5678+
+           5681   14653   14654   14597
CTETRA      1508       4     381    6003    1798    6030   14601   14655+
+           5680   14654    7814   14598
CTETRA      1509       4     579    5943     725    5945   14656   13806+
+           2304   12693    7647   14388
CTETRA      1510       4     367     725     174    5942    5782   12188+
+          12187   12199   13780    7654
CTETRA      1511       4     601    5818    5943    5945   14657    7646+
+          14658   14659    7645    7647
CTETRA      1512       4     379     186     188    6030   12511     187+
+          12510   14653    7813    7812
CTETRA      1513       4    1708    5985    5986    6059   12597    7932+
+          12444   12598    7930    7933
CTETRA      1514       4    1666    1771    1773    6054    5582    5589+
+           5588   11842   11841   13798
CTETRA      1515       4     381    1669    1708    6064    5368    5370+
+           5364   12160   13830   13831
CTETRA      1516       4    1666    1670    1713    6053    5297    5386+
+           5385   11832   14543   14144
CTETRA      1517       4    1693    1697    1694    6278    5314    5317+
+           5318   12894   14660   14661
CTETRA      1518       4     622    5873    5872    5886   12382    7393+
+          14662   12383    7440    7442
CTETRA      1519       4    1679    1699    6276    6279    5321   14663+
+          14664   14665   14666    8579
CTETRA      1520       4    1673    1693    1698    6264    5313    5323+
+           5322   12903   14667   12904
CTETRA      1521       4    1650    6434    6433    6436   13854    9158+
+          14668   14669    9169    9170
CTETRA      1522       4     411    1652    1650    6433    5213    5214+
+           5200   14670   14671   14668
CTETRA      1523       4    1649    1651    1650    6434    5202    5201+
+           5203   13849   13851   13854
CTETRA      1524       4    1650    6402    6433    6434   14672    9157+
+          14668   13854    9154    9158
CTETRA      1525       4     409    1650    6402    6433    5199   14672+
+          14673   14674   14668    9157
CTETRA      1526       4    1618    1626    6247    6420    5093   14142+
+          14219   14675   11941    9081
CTETRA      1527       4    1615    6297    6296    6299   14676    8693+
+          13562   14677    8708    8700
CTETRA      1528       4    1586    6297    1615    6300   14678   14676+
+           5051   14044    8707   14679
CTETRA      1529       4    1719    6340    6346    6347   14680    8886+
+          13871   14681    8890    8891
CTETRA      1530       4    1675    1725    1726    6334    5432    5434+
+           5433   11857   11859   13053
CTETRA      1531       4    1722    1726    1724    6340    5440    5441+
+           5438   12652   13055   12653
CTETRA      1532       4    1674    1675    1726    6347    5333    5433+
+           5436   14682   14683   14684
CTETRA      1533       4    1719    1726    1722    6340    5437    5440+
+           5424   14680   13055   12652
CTETRA      1534       4    1675    6262    6334    6347   14685    8833+
+          11857   14683    8887    8889
CTETRA      1535       4    1625    6407    6406    6425   11939    9088+
+          11933   13573    9110    9111
CTETRA      1536       4    1676    1725    6334    6335    5435   11859+
+          11858   11861   13057    8834
CTETRA      1537       4    1626    6406    6407    6420   11938    9088+
+          11940   11941    9086    9082
CTETRA      1538       4    1624    6248    6407    6427   14426    9083+
+          13876   13877    9107    9109
CTETRA      1539       4    1700    6261    6262    6275   14686    8597+
+          12578   12896    8596    8595
CTETRA      1540       4    1680    1689    1691    6272    5269    5277+
+           5279   14687   14688   12885
CTETRA      1541       4    1617    1618    1626    6247    5066    5093+
+           5092   14220   14219   14142
CTETRA      1542       4    1679    1689    1680    6279    5267    5269+
+           5268   14665   14689   14690
CTETRA      1543       4    1680    6272    6273    6279   14687    8588+
+          14691   14690    8583    8587
CTETRA      1544       4    1680    1691    1681    6273    5279    5281+
+           5280   14691   14692   14693
CTETRA      1545       4    1597    6246    6411    6420   14694    9052+
+          12816   12817    9084    9085
CTETRA      1546       4     815    7193    7207    7208   14695   11616+
+          12225   12443   11615   11617
CTETRA      1547       4    1680    1681    1701    6273    5280    5348+
+           5330   14691   14693   14696
CTETRA      1548       4    1595    1625    6406    6430    5099   11933+
+          11932   14697   14698    9140
CTETRA      1549       4     537    7193     815    7208   14699   14695+
+           2526   12438   11615   12443
CTETRA      1550       4    1475    1488    1487    6189    4679    4680+
+           4670   14700   14701   14702
CTETRA      1551       4    1488    6189    6183    6191   14701    8334+
+          14703   14704    8342    8341
CTETRA      1552       4    1605    1606    1612    6251    5014    5026+
+           5023   13858   13857   14474
CTETRA      1553       4    1463    6228    1464    6232   14705   14706+
+           4566   14707    8515   14708
CTETRA      1554       4    1607    6257    1609    6258   12682   13860+
+           5007   12683    8645   12702
CTETRA      1555       4    1461    1465    6229    6230    4569   14709+
+          14710   14711   14712    8504
CTETRA      1556       4    1606    1607    1614    6289    5009    5035+
+           5037   12704   12684   14615
CTETRA      1557       4    1179    1462    1465    6229    4572    4574+
+           4564   14713   14714   14709
CTETRA      1558       4    1456    1471    1472    6177    4616    4615+
+           4618   13659   13155   14715
CTETRA      1559       4    1607    6288    1614    6289   14716   14613+
+           5035   12684    8648   14615
CTETRA      1560       4    1568    1570    1569    6349    4949    4945+
+           4950   12844   14717   14718
CTETRA      1561       4    1439    1447    1446    6693    4525    4519+
+           4523   12741   13176   12730
CTETRA      1562       4    1560    6446    1567    6447   14719   14720+
+           4934   14721    9196   14722
CTETRA      1563       4    1565    6444    1566    6451   14723   14724+
+           4939   14725    9220   14726
CTETRA      1564       4    1445    6685    6694    6700   14727    9983+
+          14728   14729    9988    9985
CTETRA      1565       4    1566    6444    6443    6451   14724    9207+
+          14730   14726    9220    9221
CTETRA      1566       4    1442    1443    1446    6684    4505    4516+
+           4517   13177   13172   12728
CTETRA      1567       4    1515    1516    1567    6443    4816    4930+
+           4933   14731   14732   14733
CTETRA      1568       4    1440    6685    1445    6700   13183   14727+
+           4512   14734    9988   14729
CTETRA      1569       4    1560    1567    1563    6447    4934    4937+
+           4921   14721   14722   14735
CTETRA      1570       4    1569    1571    6349    6350    4957   14736+
+          14718   12266   12283    9032
CTETRA      1571       4    1427    6151    6464    6465   14737    9266+
+          14738   14739    9265    9264
CTETRA      1572       4    1427    1429    6150    6151    4474   14740+
+          14741   14737   14742    8395
CTETRA      1573       4    1566    1573    6451    6452    4956   12268+
+          14726   14412   12275    9226
CTETRA      1574       4     815    7193    7192    7207   14695   11555+
+          14297   12225   11616   11623
CTETRA      1575       4    1525    6492    6491    6497   12291    9368+
+          12301   13276    9386    9385
CTETRA      1576       4    1529    6489    1536    6492   12299   12298+
+           4791   14743    9365   12293
CTETRA      1577       4     417    6151    1427    6465   11947   14737+
+           4461   14744    9265   14739
CTETRA      1578       4    1402    1529    6454    6489    4764   14745+
+          12768   12297   12299    9351
CTETRA      1579       4    1420    1427    6150    6464    4464   14741+
+          14746   14747   14738    9270
CTETRA      1580       4    1529    1535    6478    6492    4792   13561+
+          13560   14743   12292    9366
CTETRA      1581       4    1335    6591    1353    6595   13294   14748+
+           4253   14749    9648   14750
CTETRA      1582       4    1528    1531    1529    6454    4766    4765+
+           4767   14751   14752   14745
CTETRA      1583       4    1476    1485    1477    6192    4662    4660+
+           4663   14753   13152   13151
CTETRA      1584       4    1353    6591    6593    6595   14748    9637+
+          14754   14750    9648    9649
CTETRA      1585       4    1348    6594    6580    6595   14755    9642+
+          14756   14757    9652    9651
CTETRA      1586       4    1346    1353    1347    6593    4244    4247+
+           4246   14758   14754   14759
CTETRA      1587       4    1476    1477    1494    6187    4663    4707+
+           4714   13156   14760   13157
CTETRA      1588       4    1348    6580    1352    6595   14756   14761+
+           4251   14757    9651   14762
CTETRA      1589       4     764     765    7163    7164    2385   14763+
+          14764   13473   14765   11517
CTETRA      1590       4    1479    1480    1487    6191    4650    4674+
+           4684   14766   14767   11974
CTETRA      1591       4    1256    1258    1257    6796    3922    3921+
+           3923   12326   12331   14768
CTETRA      1592       4    1485    1487    6140    6192    4672   11975+
+          14769   13152   11976    8354
CTETRA      1593       4    1480    1485    1487    6140    4673    4672+
+           4674   14770   14769   11975
CTETRA      1594       4    1486    6141    6140    6366   14771    8355+
+          14772   14773    8908    8905
CTETRA      1595       4    1245    1256    6797    6799    3924   12327+
+          14774   14211   12328   10278
CTETRA      1596       4     471    1257    1258    6801    3919    3921+
+           3916   14775   14776   14777
CTETRA      1597       4    1470    6153    6154    6184   14778    8315+
+          13755   13902    8314    8316
CTETRA      1598       4    1410    6368    6367    6371   13640    8904+
+          12862   13717    8915    8916
CTETRA      1599       4    1222    6543    6553    6555   13742    9461+
+          12814   14779    9463    9462
CTETRA      1600       4    1480    6140    6139    6370   14770    8358+
+          14780   14781    8906    8909
CTETRA      1601       4    1215    1222    1221    6543    3751    3753+
+           3744   13741   13742   14782
CTETRA      1602       4    1212    1222    6553    6555    3760   12814+
+          12815   14783   14779    9462
CTETRA      1603       4    1480    1481    6140    6370    4638   14784+
+          14770   14781   14785    8906
CTETRA      1604       4    1432    5966    1433    6167   14786   12016+
+           4496   12718    8259   14172
CTETRA      1605       4    1434    1442    1447    6684    4503    4518+
+           4520   12735   13177   12736
CTETRA      1606       4    1269    6697    6696    6707   13231   10008+
+          13229   13245   10018   10017
CTETRA      1607       4    1216    1222    6542    6553    3752   13740+
+          13308   12813   12814    9449
CTETRA      1608       4    1384    6697    6620    6703   14787   10014+
+          13923   13932   10009   10016
CTETRA      1609       4    1268    1384    1393    6703    4359    4388+
+           4386   14788   13932   13933
CTETRA      1610       4    1169    1172    6754    6755    3698   12144+
+          14789   14790   13323   10226
CTETRA      1611       4    1269    6696    1316    6707   13229   13264+
+           4065   13245   10017   13268
CTETRA      1612       4    1324    1326    1325    6733    4144    4149+
+           4148   13519   12801   12800
CTETRA      1613       4    1171    6775    6779    6782   13339   10201+
+          12139   12480   10212   10213
CTETRA      1614       4    1168    1169    1172    6754    3689    3698+
+           3697   12134   14789   12144
CTETRA      1615       4    1391    1392    1393    6675    4384    4391+
+           4389   14791   14792   14793
CTETRA      1616       4    1391    1393    6620    6675    4389   13931+
+          14794   14791   14793    9913
CTETRA      1617       4    1384    1391    1393    6620    4390    4389+
+           4388   13923   14794   13931
CTETRA      1618       4    1268    6697    1384    6703   13230   14787+
+           4359   14788   10009   13932
CTETRA      1619       4    1188    6619    6701    6703   13461   10012+
+          13463   14795   10013   10011
CTETRA      1620       4    1027    1131    6898    6917    3543   14796+
+          12208   14797   14798   10675
CTETRA      1621       4    1027    1028    1131    6917    3247    3544+
+           3543   14797   14799   14798
CTETRA      1622       4    1028    1095    1131    6917    3548    3550+
+           3544   14799   14800   14798
CTETRA      1623       4    1095    1131    6917    6923    3550   14798+
+          14800   14801   14802   10676
CTETRA      1624       4    1129    6898    1131    6899   12209   14796+
+           3545   14803   10644   14804
CTETRA      1625       4    1363    6528    6529    6547   14805    9404+
+          12496   12062    9403    9402
CTETRA      1626       4    1129    1131    1130    6899    3545    3547+
+           3546   14803   14804   13318
CTETRA      1627       4    1094    6899    1131    6923   13319   14804+
+           3551   14806   10673   14802
CTETRA      1628       4    1192    1193    1337    6529    3734    4187+
+           4186   12507   12497   12508
CTETRA      1629       4    1194    6547    6546    6549   12061    9410+
+          14807   12063    9415    9437
CTETRA      1630       4    1362    6528    1363    6550   14808   14805+
+           4285   14809    9411   14810
CTETRA      1631       4    1363    6547    6549    6550   12062    9415+
+          12065   14810    9414    9416
CTETRA      1632       4    1081    1082    1083    6856    3386    3392+
+           3393   14811   13361   14812
CTETRA      1633       4    1254    6514    1255    6515   12093   12092+
+           3906   14813    9502   14814
CTETRA      1634       4     481    1082    1081    6767    3384    3386+
+           3385   14815   14816   12454
CTETRA      1635       4    1079    1081    6766    6941    3388   14817+
+          13646   13643   12456   10768
CTETRA      1636       4    1081    6766    6767    6856   14817   10496+
+          12454   14811   10495   10494
CTETRA      1637       4     483    1081    1079    6941    3387    3388+
+           3375   12455   12456   13643
CTETRA      1638       4    1337    1363    1347    6528    4282    4284+
+           4249   14818   14805   14819
CTETRA      1639       4    1192    1215    1193    6530    3732    3735+
+           3734   12505   12515   12514
CTETRA      1640       4    1347    6592    6528    6593   14820    9634+
+          14819   14759    9636    9632
CTETRA      1641       4    1311    1318    6715    6722    4098   14821+
+          14822   14823   14824   10072
CTETRA      1642       4     735    6557    6505    6566   13078    9488+
+          14521   13080    9517    9519
CTETRA      1643       4    1337    6529    6528    6592   12508    9404+
+          14818   14825    9635    9634
CTETRA      1644       4     735    1234    1214    6566    3816    3818+
+           3771   13080   14826   13674
CTETRA      1645       4     735     981    6505    6557    3011   14827+
+          14521   13078   14828    9488
CTETRA      1646       4    1279    6235    6241    6242   14829    8556+
+          14830   14831    8560    8561
CTETRA      1647       4    1180    1181    1473    6157    4178    4620+
+           4619   14832   14833   13879
CTETRA      1648       4    1270    1311    1271    6719    4078    4080+
+           4079   14834   14835   12055
CTETRA      1649       4    1306    1324    1322    6726    4134    4136+
+           4124   14836   13544   14837
CTETRA      1650       4     523     330    7121    7123   12561   11282+
+          12469   14130   11285   11287
CTETRA      1651       4    1273    1306    1322    6727    4096    4124+
+           4123   14838   14839   14840
CTETRA      1652       4    1306    1317    1307    6730    4097    4101+
+           4102   14841   14842   14843
CTETRA      1653       4     917    7121    7122    7123   12471   11288+
+          13430   13937   11287   11289
CTETRA      1654       4    1274    6734    1321    6735   12075   14844+
+           4131   12076   10127   14845
CTETRA      1655       4     918    7101    7102    7123   13940   11297+
+          14128   13938   11291   11296
CTETRA      1656       4    1285    6740    1321    6747   13220   12078+
+           4137   14846   10184   14847
CTETRA      1657       4     916    7100    7101    7122   12875   11293+
+          13598   12876   11292   11290
CTETRA      1658       4    1322    6726    1324    6734   14837   13544+
+           4136   12086   10129   14302
CTETRA      1659       4     858     861     860    7233    2672    2673+
+           2669   14848   11882   11903
CTETRA      1660       4    1284    1323    1325    6747    4145    4147+
+           4146   13512   12796   12797
CTETRA      1661       4    1272    1306    1273    6727    4094    4096+
+           4095   14849   14839   14838
CTETRA      1662       4    1273    6727    1322    6738   14838   14840+
+           4123   14850   10132   12087
CTETRA      1663       4    1321    1322    1323    6734    4132    4140+
+           4139   14844   12086   14851
CTETRA      1664       4     860    7221    7224    7225   12426   11665+
+          14852   14304   11664   11666
CTETRA      1665       4    1284    1285    1323    6747    3990    4138+
+           4145   13512   14846   12796
CTETRA      1666       4     860    7225    7224    7233   14304   11666+
+          14852   11903   11708   11706
CTETRA      1667       4    1370    6625    6624    6717   14853    9858+
+          14854   14855   10055   10054
CTETRA      1668       4    1369    6625    1370    6739   14856   14853+
+           4292   14857   10135   14858
CTETRA      1669       4     594     611    6125    6126    1872   14859+
+          12136   12138   14860    8194
CTETRA      1670       4     594     612     611    6126    1879    1880+
+           1872   12138   14491   14860
CTETRA      1671       4    1364    1365    1374    6624    4302    4337+
+           4340   13215   13204   13216
CTETRA      1672       4    1322    6727    6726    6738   14840   10099+
+          14837   12087   10132   10131
CTETRA      1673       4    1273    6717    6727    6739   14861   10093+
+          14838   14862   10134   10136
CTETRA      1674       4     979    6815     983    6854   14863   14864+
+           3036   14865   10490   14866
CTETRA      1675       4    1273    6727    6738    6739   14838   10132+
+          14850   14862   10136   10137
CTETRA      1676       4     720     722     721    5919    2251    2252+
+           2248   11918   11920   11919
CTETRA      1677       4     720    5917    5914    5919   11917    7534+
+          13501   11918    7544    7543
CTETRA      1678       4     443     250     445    6206   14867   14868+
+            444   13954    8420   14869
CTETRA      1679       4     670     671     719    5907    2085    2241+
+           2242   14870   13729   14871
CTETRA      1680       4     715    5915     719    5918   14642   13517+
+           2239   14872    7536   14873
CTETRA      1681       4    1282    1298    1296    6203    4015    4018+
+           4007   14483   13676   14477
CTETRA      1682       4     978    6503     979    6854   14874   14875+
+           3027   12037   10489   14865
CTETRA      1683       4     719    5915     720    5917   13517   13516+
+           2244   11924    7533   11917
CTETRA      1684       4     670    5907     719    5917   14870   14871+
+           2242   11923    7531   11924
CTETRA      1685       4    1301    6205    6204    6217   14876    8415+
+          13950   14476    8474    8473
CTETRA      1686       4     682    5887    5886    5900   11804    7441+
+          12384   12370    7486    7488
CTETRA      1687       4     681     682     684    5886    2097    2099+
+           2100   12392   12384   14877
CTETRA      1688       4    1247    6638    1251    6644   14878   12097+
+           3902   14879    9758   14880
CTETRA      1689       4    1203    1255    1248    6639    3908    3909+
+           3884   12094   12096   14881
CTETRA      1690       4    1247    1251    1252    6644    3902    3900+
+           3896   14879   14880   14882
CTETRA      1691       4    1251    6643    6641    6644   12099    9755+
+          14883   14880    9757    9760
CTETRA      1692       4    1251    6638    6643    6644   12097    9756+
+          12099   14880    9758    9757
CTETRA      1693       4    1250    1251    6641    6644    3901   14883+
+          14884   14885   14880    9760
CTETRA      1694       4     670    5901     679    5907   14886   13726+
+           2084   14870    7503   14887
CTETRA      1695       4    1204    6516    6515    6639   12090    9457+
+          14888   12095    9753    9750
CTETRA      1696       4    1203    1230    6516    6651    3799   12089+
+          12088   14889   13620    9792
CTETRA      1697       4    1204    6516    1225    6541   12090   12108+
+           3801   14890    9453   12107
CTETRA      1698       4     671     679    5900    5907    2086   12369+
+          13548   13729   14887    7505
CTETRA      1699       4     679    5887    5900    5901   11802    7486+
+          12369   13726    7483    7487
CTETRA      1700       4    1230    6517    6545    6554   13619    9429+
+          14891   14892    9458    9459
CTETRA      1701       4    1227    1228    1230    6545    3783    3793+
+           3796   14893   14894   14891
CTETRA      1702       4    1204    1230    1225    6516    3798    3794+
+           3801   12090   12089   12108
CTETRA      1703       4     539     346      77    7209   11966   11770+
+          13549   14895   11626   11771
CTETRA      1704       4      31      78      32     852     571     570+
+             50    2637   12686    2636
CTETRA      1705       4    1225    6540    6554    6556   14896    9472+
+          12109   14897    9474    9468
CTETRA      1706       4    1225    6541    6540    6568   12107    9473+
+          14896   14898    9534    9536
CTETRA      1707       4      32      79      33     850     568     569+
+             49    2624   14315    2623
CTETRA      1708       4     809    7094    7192    7193   14899   11554+
+          12210   14900   11553   11555
CTETRA      1709       4    1225    1228    1226    6556    3792    3776+
+           3795   14897   14901   14902
CTETRA      1710       4     835    7208    7207    7228   11969   11617+
+          12437   14602   11677   11676
CTETRA      1711       4     816     837     836    7206    2579    2581+
+           2580   12155   14299   12156
CTETRA      1712       4     816    7191     817    7206   12180   13566+
+           2534   12155   11620   13568
CTETRA      1713       4    1193    1221    6546    6548    3743   12739+
+          14903   12516   14904    9406
CTETRA      1714       4    1217    6531    1219    6532   14905   14906+
+           3741   13313    9440   13067
CTETRA      1715       4    1212    1223    1213    6538    3762    3767+
+           3769   13302   12809   12808
CTETRA      1716       4    1211    1222    1212    6555    3756    3760+
+           3761   14907   14779   14783
CTETRA      1717       4    1215    6530    6531    6542   12515    9394+
+          14580   13739    9393    9395
CTETRA      1718       4    1042    1059    1057    6926    3297    3290+
+           3296   14480   14381   14380
CTETRA      1719       4    1063    6976    6968    6977   14908   10891+
+          12837   12839   10896   10895
CTETRA      1720       4    1174    6756    1175    6774   12043   14909+
+           3710   12044   10207   14910
CTETRA      1721       4    1174    1176    6756    6782    3714   14911+
+          12043   12045   13325   10209
CTETRA      1722       4    1029    6758    6918    6930   14535   10710+
+          14912   14913   10712   10711
CTETRA      1723       4     780    6981    7083    7133   14914   11353+
+          14915   12931   11349   11354
CTETRA      1724       4     772     773    7084    7131    2350   14361+
+          14916   14362   14359   11350
CTETRA      1725       4    1030    1174    1175    6774    3702    3710+
+           3707   12479   12044   14910
CTETRA      1726       4    1030    1049    1031    6774    3202    3201+
+           3203   12479   12476   12475
CTETRA      1727       4    1030    1048    1049    6788    3211    3209+
+           3202   14532   14048   14917
CTETRA      1728       4     775    7153    7155    7157   14918   11452+
+          14919   14920   11448   11453
CTETRA      1729       4    1047    6810    6768    6847   14921   10399+
+          12250   14922   10449   10448
CTETRA      1730       4     952    1031    1049    6787    3199    3201+
+           3204   14923   12477   12478
CTETRA      1731       4     747    7132    7156    7158   14365   11451+
+          14366   14924   11458   11465
CTETRA      1732       4     952    6775    1031    6787   14925   13338+
+           3199   14923   10256   12477
CTETRA      1733       4    1030    1175    6757    6774    3707   14926+
+          14529   12479   14910   10211
CTETRA      1734       4     773    7131     779    7156   14359   14363+
+           2349   14364   11450   14423
CTETRA      1735       4     984     986     985    6814    3044    3046+
+           3045   14927   14928   14929
CTETRA      1736       4     731    6606    6605    6607   13063    9693+
+          13062   14276    9694    9687
CTETRA      1737       4     986    6814    6813    6843   14928   10348+
+          14930   14931   10411   10410
CTETRA      1738       4     923     930     926    7022    2884    2887+
+           2878   13639   14932   13609
CTETRA      1739       4     926     930     928    6990    2887    2888+
+           2885   12360   13521   12357
CTETRA      1740       4     922     926    6885    7022    2877   14933+
+          14934   14935   13609   10984
CTETRA      1741       4     988    6813    6841    6843   14936   10408+
+          14937   14938   10410   10412
CTETRA      1742       4     988    6841    6842    6843   14937   10413+
+          14939   14938   10412   10414
CTETRA      1743       4     964     965     985    6835    2987    3039+
+           3047   14940   14941   14942
CTETRA      1744       4     871     901     900    7003    2752    2759+
+           2758   14943   14944   14945
CTETRA      1745       4     900    7003    7002    7032   14945   10975+
+          14946   14947   11027   11024
CTETRA      1746       4     964    6834     975    6835   14948   14949+
+           2982   14940   10420   14950
CTETRA      1747       4     964     974     975    6834    2980    2979+
+           2982   14948   13974   14949
CTETRA      1748       4     781    6982    6981    7133   12924   11098+
+          14951   12930   11348   11349
CTETRA      1749       4     744     745     894    7046    2363    2704+
+           2703   14952   14953   14954
CTETRA      1750       4    1075    1077    1076    6955    3364    3363+
+           3365   14955   14956   14465
CTETRA      1751       4    1072    1077    6951    6955    3361   14957+
+          12989   14464   14956   10804
CTETRA      1752       4    1075    6954    1077    6955   12567   14958+
+           3364   14955   10812   14956
CTETRA      1753       4     745    7000     894    7046   14959   14960+
+           2704   14953   11080   14954
CTETRA      1754       4     487    1080    1073    6940    3370    3372+
+           3353   14007   14006   14022
CTETRA      1755       4     487     296     294    6940   14013     295+
+          14009   14007   10752   10751
CTETRA      1756       4    1074    6971    6952    6972   14449   10859+
+          12984   12981   10861   10860
CTETRA      1757       4    1072    1073    1076    6952    3358    3360+
+           3359   12985   14447   14463
CTETRA      1758       4     489     296    6940    6971   14961   10752+
+          14023   14962   10856   10858
CTETRA      1759       4    1715    6310    6322    6345   14963    8800+
+          14964   14965    8876    8877
CTETRA      1760       4     899    6984    6983    7158   14966   10905+
+          14967   14968   11459   11457
CTETRA      1761       4     746     899    6983    7158    2738   14967+
+          14969   14970   14968   11457
CTETRA      1762       4     894    6999    7043    7046   14971   11081+
+          14972   14954   11079   11083
CTETRA      1763       4    1187    1445    6695    6700    4507   14973+
+          13945   14974   14729    9987
CTETRA      1764       4    1268    6698    6696    6703   13942    9995+
+          13228   14788   10010   10007
CTETRA      1765       4     891    6998    6999    7012   12366   10909+
+          14975   12368   10908   10907
CTETRA      1766       4    1502    6459    1503    6461   14976   14977+
+           4745   14978    9250   14979
CTETRA      1767       4    1188    6701    6698    6703   13463    9999+
+          13943   14795   10011   10010
CTETRA      1768       4     843     845     849    7242    2606    2619+
+           2622   14980   14981   14982
CTETRA      1769       4     844     847     846    7238    2607    2609+
+           2608   14983   14984   14985
CTETRA      1770       4    1385    6620    6621    6683   13922    9947+
+          13925   14986    9946    9945
CTETRA      1771       4     845    7239     849    7242   14987   14988+
+           2619   14981   11742   14982
CTETRA      1772       4     846    7238     847    7241   14985   14984+
+           2609   14989   11738   14990
CTETRA      1773       4     761    7181     825    7197   12354   14991+
+           2551   14992   11585   14993
CTETRA      1774       4     825     832     831    7212    2558    2572+
+           2571   14994   14192   14995
CTETRA      1775       4     825     831    7197    7212    2571   14996+
+          14993   14994   14995   11642
CTETRA      1776       4    1379    6669    6666    6674   13042    9889+
+          14367   13041    9894    9893
CTETRA      1777       4     825     826     832    7196    2553    2557+
+           2558   14997   14998   14999
CTETRA      1778       4     802     803    7091    7141    2477   15000+
+          15001   15002   15003   11384
CTETRA      1779       4     802    7091     811    7092   15001   15004+
+           2509   15005   11391   13575
CTETRA      1780       4    1359    6657    6520    6662   15006    9831+
+          15007   15008    9847    9848
CTETRA      1781       4     812    7189     818    7190   14202   15009+
+           2520   15010   11566   15011
CTETRA      1782       4     803     813     812    7090    2494    2497+
+           2496   15012   11884   14201
CTETRA      1783       4    1359    1361    6521    6657    4274   15013+
+          15014   15006   15015    9830
CTETRA      1784       4    1354    1361    1355    6659    4270    4273+
+           4275   15016   15017   14566
CTETRA      1785       4    1503    6461    6459    6462   14979    9250+
+          14977   15018    9246    9251
CTETRA      1786       4     704    5932     705    5936   15019   15020+
+           2182   15021    7613   15022
CTETRA      1787       4     703     705     704    5932    2179    2182+
+           2181   15023   15020   15019
CTETRA      1788       4     705    5932    5931    5936   15020    7603+
+          15024   15022    7613    7614
CTETRA      1789       4     670     721    5908    5917    2249   11927+
+          11926   11923   11916    7532
CTETRA      1790       4     669    5902    5908    5909   15025    7500+
+          11925   15026    7498    7501
CTETRA      1791       4    1202    1203    1248    6639    3803    3884+
+           3881   15027   12094   14881
CTETRA      1792       4    1198    1202    6647    6648    3790   15028+
+          15029   15030   13047    9774
CTETRA      1793       4    1202    6649    6648    6651   15031    9783+
+          13047   15032    9796    9799
CTETRA      1794       4     669     721     723    5920    2250    2255+
+           2257   11931   11921   13186
CTETRA      1795       4     669     678    5902    5909    2069   13757+
+          15025   15026   13758    7498
CTETRA      1796       4     719     720     721    5917    2244    2248+
+           2247   11924   11917   11916
CTETRA      1797       4    1340    6592    6616    6617   15033    9727+
+          13293   15034    9737    9736
CTETRA      1798       4     353    5889     678    5903   15035   14593+
+           2071   15036    7477   13756
CTETRA      1799       4     676     678     677    5902    2078    2074+
+           2079   12422   13757   12423
CTETRA      1800       4    1596    1625    1626    6406    5097    5096+
+           5098   11934   11933   11938
CTETRA      1801       4    1191    1340    6608    6617    4189   15037+
+          15038   15039   15034    9735
CTETRA      1802       4    1337    6529    6592    6617   12508    9635+
+          14825   12509    9733    9737
CTETRA      1803       4     668     678    5909    5910    2067   13758+
+          15040   15041   14108    7499
CTETRA      1804       4    1336    6591    6592    6593   13296    9638+
+          15042   15043    9637    9636
CTETRA      1805       4    1337    6592    1340    6617   14825   15033+
+           4190   12509    9737   15034
CTETRA      1806       4     371     178    5825    6130   14185    7253+
+          14186   14188    8168    8169
CTETRA      1807       4     369     580     605    5825    1844    1843+
+           1842   15044   15045   14187
CTETRA      1808       4     369     605     371    5825    1842    1845+
+            370   15044   14187   14186
CTETRA      1809       4     732    6532    1219    6606   13312   13067+
+           3729   13066    9683   13064
CTETRA      1810       4    1002    6596    6584    6606   14270    9662+
+          14269   13065    9685    9684
CTETRA      1811       4    1220    6602    6603    6605   13305    9680+
+          15046   13307    9679    9681
CTETRA      1812       4    1218    6531    6602    6605   14581    9677+
+          12503   13306    9675    9679
CTETRA      1813       4     580    5824     605    5825   15047   15048+
+           1843   15045    7258   14187
CTETRA      1814       4     605    5824     606    6129   15048   14509+
+           1848   14178    8165   14417
CTETRA      1815       4     751     921     884    7143    2855    2854+
+           2805   15049   13595   15050
CTETRA      1816       4     839     856    7221    7222    2651   12425+
+          14212   13458   15051   11651
CTETRA      1817       4    1012    6572    6501    6589   13388    9575+
+          13387   14592    9628    9627
CTETRA      1818       4     759    7165    7183    7184   15052   11548+
+          15053   15054   11543   11549
CTETRA      1819       4    1016    6500    6572    6576   14328    9573+
+          14329   15055    9576    9567
CTETRA      1820       4    1221    6543    6544    6546   14782    9407+
+          12737   12739    9405    9408
CTETRA      1821       4    1223    6552    6537    6553   12819    9446+
+          12806   12812    9448    9450
CTETRA      1822       4     784    7165    7164    7183   15056   11485+
+          13472   15057   11548   11550
CTETRA      1823       4     784    7164    7182    7183   13472   11551+
+          13475   15057   11550   11552
CTETRA      1824       4     749     775     776    7152    2319    2322+
+           2310   15058   15059   15060
CTETRA      1825       4    1215    6531    1216    6542   14580   14582+
+           3738   13739    9395   13308
CTETRA      1826       4    1215    6530    1218    6531   12515   15061+
+           3733   14580    9394   14581
CTETRA      1827       4     776    7152    7153    7154   15060   11444+
+          15062   15063   11443   11440
CTETRA      1828       4    1717    6309    6310    6313   12879    8758+
+          14357   14259    8752    8757
CTETRA      1829       4    1535    6479    6492    6497   14151    9390+
+          12292   13275    9391    9386
CTETRA      1830       4     882    7104    7126    7130   15064   11324+
+          15065   15066   11335   11337
CTETRA      1831       4    1524    1545    6496    6497    4837   13125+
+          15067   13274   13126    9389
CTETRA      1832       4     936    7119    7118    7130   15068   11300+
+          15069   15070   11342   11341
CTETRA      1833       4     881     906     912    7126    2808    2810+
+           2809   15071   15072   15073
CTETRA      1834       4    1539    6439    6438    6472   14606    9185+
+          15074   15075    9282    9283
CTETRA      1835       4    1087    6996    7010    7020   13969   10936+
+          15076   13970   10957   10960
CTETRA      1836       4    1538    6471    6470    6481   13551    9296+
+          15077   13123    9345    9344
CTETRA      1837       4    1139    1140    1146    7072    3583    3607+
+           3606   15078   15079   15080
CTETRA      1838       4    1571    6349    6350    6391   14736    9032+
+          12283   13090    9031    9023
CTETRA      1839       4    1208    1244    1261    6806    3878    3929+
+           3936   14331   11979   14337
CTETRA      1840       4    1153    1155    1154    7057    3633    3634+
+           3624   15081   15082   15083
CTETRA      1841       4    1572    6351    6387    6390   12276    9015+
+          13622   13624    9017    9016
CTETRA      1842       4    1140    6994    7057    7072   12152   11123+
+          15084   15079   11180   11184
CTETRA      1843       4    1588    1607    1589    6259    5005    5004+
+           5006   11852   15085   12780
CTETRA      1844       4    1606    1609    1607    6257    5008    5007+
+           5009   12703   13860   12682
CTETRA      1845       4    1424    6466    6149    6467   15086    9279+
+          15087   12758    9280    9278
CTETRA      1846       4    1607    6287    1611    6288   14618   15088+
+           5021   14716    8647   14046
CTETRA      1847       4    1606    6251    6257    6289   13857    8649+
+          12703   12704    8656    8644
CTETRA      1848       4    1611    6288    6287    6301   14046    8647+
+          15088   12083    8715    8712
CTETRA      1849       4    1607    6287    6288    6289   14618    8647+
+          14716   12684    8646    8648
CTETRA      1850       4    1401    1422    6453    6467    4424   15089+
+          12751   12753   12759    9274
CTETRA      1851       4     878     900     902    7033    2764    2767+
+           2766   13633   15090   15091
CTETRA      1852       4     902    7001    7002    7018   15092   10952+
+          15093   15094   10951   10950
CTETRA      1853       4     900    7032    7002    7033   14947   11024+
+          14946   15090   11026   11025
CTETRA      1854       4     437     244     242    6689   15095     243+
+          15096   15097    9951    9950
CTETRA      1855       4     877    7023     923    7034   13628   12342+
+           2856   13629   11036   13630
CTETRA      1856       4     433    1437    1449    6690    4540    4539+
+           4542   15098   12058   12059
CTETRA      1857       4     433     242     435    6238   14490   13095+
+            434   12910    8534   12911
CTETRA      1858       4     435    6233    1304    6238   13096   13094+
+           4047   12911    8540   12934
CTETRA      1859       4     902    6988    7001    7018   15099   10954+
+          15092   15094   10949   10951
CTETRA      1860       4    1400    1424    1401    6467    4433    4437+
+           4439   15100   12758   12753
CTETRA      1861       4    1491    6144    6185    6195   13536    8328+
+          13553   13537    8367    8370
CTETRA      1862       4    1411    6145    1492    6382   14011   13120+
+           4694   14012    8970   14017
CTETRA      1863       4    1032    6832    6831    6859   15101   10460+
+          15102   15103   10515   10514
CTETRA      1864       4    1453    6144    6145    6185   13117    8329+
+          13119   13108    8328    8326
CTETRA      1865       4     971    6862    6864    6866   15104   10537+
+          15105   15106   10531   10539
CTETRA      1866       4    1800    5993    1802    6071   15107   15108+
+           5693   15109    7988   15110
CTETRA      1867       4    1242    6800    6802    6803   15111   10287+
+          14205   15112   10286   10288
CTETRA      1868       4    1801    6071    6070    6111   15113    7990+
+          15114   13787    8105    8110
CTETRA      1869       4    1801    1802    6070    6071    5692   15115+
+          15114   15113   15110    7990
CTETRA      1870       4    1543    6495    6481    6496   15116    9379+
+          13122   15117    9381    9383
CTETRA      1871       4    1260    6510    1261    6805   15118   15119+
+           3930   15120   10326   14336
CTETRA      1872       4    1207    6508    1208    6509   15121   14525+
+           3828   15122    9550   15123
CTETRA      1873       4    1537    1541    1538    6471    4821    4824+
+           4825   13550   15124   13551
CTETRA      1874       4     131    1820     590    6098    5767    5757+
+           2271   15125   14091   14081
CTETRA      1875       4    1206    1207    1259    6509    3839    3933+
+           3934   15126   15122   15127
CTETRA      1876       4    1543    6481    6480    6496   13122    9342+
+          14410   15117    9383    9384
CTETRA      1877       4    1076    6952    6939    6955   14463   10808+
+          15128   14465   10807   10810
CTETRA      1878       4     383     188     190    6003   14300     189+
+          13709   13708    7751    7750
CTETRA      1879       4    1079    1081    1084    6766    3388    3396+
+           3394   13646   14817   13647
CTETRA      1880       4     379     381     188    6064     380   12159+
+          12510   12512   12160    7940
CTETRA      1881       4     379     188     381    6030   12510   12159+
+            380   14653    7812   14654
CTETRA      1882       4     383    1797    6003    6018    5675   15129+
+          13708   13710   15130    7752
CTETRA      1883       4     381     188    6003    6030   12159    7751+
+          14601   14654    7812    7814
CTETRA      1884       4    1797    6002    6003    6018   13713    7753+
+          15129   15130    7748    7752
CTETRA      1885       4     485     991    1005    6786    3075    3130+
+           3128   13989   15131   15132
CTETRA      1886       4    1073    1080    6939    6940    3372   13653+
+          15133   14022   14006   10755
CTETRA      1887       4    1554    6363    6364    6372   12847    8927+
+          15134   12849    8926    8923
CTETRA      1888       4    1288    6750    6741    6752   15135   10176+
+          12310   15136   10190   10189
CTETRA      1889       4    1284    6747    6746    6752   13512   10167+
+          13511   15137   10185   10187
CTETRA      1890       4    1283    1325    5960    6724    4150   12798+
+          13530   13532   12799   10109
CTETRA      1891       4     447    1392    6676    6677    4380   15138+
+          15139   15140   15141    9908
CTETRA      1892       4     447    1390     449    6676    4381    4382+
+            448   15139   15142   15143
CTETRA      1893       4     669    5909    5920    5921   15026    7548+
+          11931   15144    7551    7553
CTETRA      1894       4     449    1390    1396    6678    4382    4403+
+           4405   13279   15145   15146
CTETRA      1895       4     459     461    1341    6615     460    4208+
+           4203   15147   15148   15149
CTETRA      1896       4    1390    6676    6675    6680   15142    9910+
+          15150   13898    9926    9927
CTETRA      1897       4    1385    1386    1394    6681    4369    4398+
+           4397   15151   14372   15152
CTETRA      1898       4    1385    6621    6682    6683   13925    9939+
+          15153   14986    9945    9944
CTETRA      1899       4    1374    1389    6622    6670    4376   15154+
+          15155   13191   15156    9881
CTETRA      1900       4     349    5910     668    5921   14103   15041+
+           2066   13170    7552   15157
CTETRA      1901       4    1381    6667    1382    6669   13203   13200+
+           4345   13184    9888   13185
CTETRA      1902       4     731    6605    1220    6607   13062   13307+
+           3723   14276    9687   15158
CTETRA      1903       4    1811    6086    1815    6087   11826   13782+
+           5749   11828    8016   11829
CTETRA      1904       4    1012    1016    1017    6500    3176    3178+
+           3173   13386   14328   13384
CTETRA      1905       4    1016    6499    6500    6576   15159    9578+
+          14328   15055    9577    9576
CTETRA      1906       4    1812    1815    6086    6089    5744   13782+
+          13017   15160   15161    8062
CTETRA      1907       4    1815    1816    1819    6089    5745    5759+
+           5761   15161   13784   15162
CTETRA      1908       4     587    6120    6119    6134   13132    8161+
+          14645   13133    8199    8203
CTETRA      1909       4    1815    6087    6089    6096   11829    8022+
+          15161   15163    8020    8017
CTETRA      1910       4    1234    6506    6507    6567   14502    9533+
+          14504   15164    9532    9531
CTETRA      1911       4    1233    1235    6562    6567    3842   15165+
+          15166   13984   15167    9523
CTETRA      1912       4    1235    6507    6508    6562   15168    9529+
+          14526   15165    9528    9530
CTETRA      1913       4     736    1236    6506    6789    3820   14503+
+          14520   14506   14508   10319
CTETRA      1914       4    1192    1337    1340    6617    4186    4190+
+           4188   12506   12509   15034
CTETRA      1915       4    1585    1586    6269    6297    5053   15169+
+          15170   15171   14678    8686
CTETRA      1916       4    1585    6293    1616    6297   15172   15173+
+           5055   15171    8687   15174
CTETRA      1917       4    1584    1585    1692    6268    5056    5283+
+           5282   15175   15176   15177
CTETRA      1918       4    1338    6609    6608    6616   15178    9712+
+          15179   13301    9730    9731
CTETRA      1919       4    1585    1682    6268    6269    5287   15180+
+          15176   15170   15181    8616
CTETRA      1920       4    1207    1237    1235    6571    3837    3838+
+           3827   15182   15183   15184
CTETRA      1921       4    1206    1231    1237    6571    3833    3835+
+           3834   15185   15186   15183
CTETRA      1922       4    1584    1616    1585    6293    5047    5055+
+           5056   15187   15173   15172
CTETRA      1923       4     461     266     268    6615   15188     267+
+          15189   15148    9720    9719
CTETRA      1924       4    1615    6296    1618    6299   13562   13564+
+           5065   14677    8700   14222
CTETRA      1925       4    1615    1618    1617    6299    5065    5066+
+           5063   14677   14222   14221
CTETRA      1926       4    1604    1615    1617    6299    5054    5063+
+           5062   15190   14677   14221
CTETRA      1927       4    1206    1237    1207    6571    3834    3837+
+           3839   15185   15183   15182
CTETRA      1928       4    1615    1616    6296    6297    5057   13563+
+          13562   14676   15174    8693
CTETRA      1929       4    1259    6509    6510    6569   15127    9553+
+          15191   15192    9552    9539
CTETRA      1930       4    1206    6569    6568    6571   15193    9542+
+          15194   15185    9554    9557
CTETRA      1931       4    1585    1615    1586    6297    5052    5051+
+           5053   15171   14676   14678
CTETRA      1932       4    1206    1207    6509    6571    3839   15122+
+          15126   15185   15182    9551
CTETRA      1933       4    1227    6517    6518    6545   15195    9430+
+          15196   14893    9429    9426
CTETRA      1934       4    1386    6673    6681    6682   14370    9934+
+          14372   15197    9937    9938
CTETRA      1935       4    1518    1542    6352    6442    4832   15198+
+          15199   14390   13114    9230
CTETRA      1936       4    1546    6354    6353    6494   15200    8984+
+          15201   15202    9369    9371
CTETRA      1937       4    1589    6258    1609    6316   12701   12702+
+           5000   12679    8768   12680
CTETRA      1938       4    1590    1610    6315    6317    4994   15203+
+          15204   15205   13864    8771
CTETRA      1939       4    1591    6315    1610    6318   12555   15203+
+           4993   13889    8777   15206
CTETRA      1940       4    1529    1536    1535    6492    4791    4793+
+           4792   14743   12293   12292
CTETRA      1941       4    1608    6317    6257    6319   13862    8767+
+          13861   13855    8787    8782
CTETRA      1942       4    1511    1512    1610    6318    4882    4991+
+           4992   15207   13888   15206
CTETRA      1943       4    1590    1609    1610    6317    4999    5002+
+           4994   15205   13863   13864
CTETRA      1944       4    1410    6367    1555    6371   12862   13656+
+           4891   13717    8916   13718
CTETRA      1945       4    1409    1481    1482    6370    4633    4636+
+           4630   15208   14785   15209
CTETRA      1946       4    1394    1395    6679    6681    4400   13897+
+          13896   15152   15210    9931
CTETRA      1947       4    1537    1542    6441    6495    4830   13115+
+          15211   15212   13116    9376
CTETRA      1948       4    1409    1553    6365    6371    4893   13250+
+          15213   13716   13721    8913
CTETRA      1949       4    1620    6399    6468    6476   15214    9301+
+          15215   15216    9303    9302
CTETRA      1950       4    1528    1535    1533    6479    4785    4784+
+           4783   14153   14151   13136
CTETRA      1951       4    1389    6622    6670    6682   15154    9881+
+          15156   15217    9936    9935
CTETRA      1952       4    1593    6397    1619    6424   15218   15219+
+           5076   15220    9143   15221
CTETRA      1953       4    1519    6352    1548    6379   15222   15223+
+           4855   15224    8999   15225
CTETRA      1954       4    1544    1546    1548    6353    4852    4854+
+           4853   14407   15201   15226
CTETRA      1955       4    1542    1545    1544    6493    4842    4843+
+           4839   14400   14405   14409
CTETRA      1956       4    1593    6397    6424    6432   15218    9143+
+          15220   15227    9145    9144
CTETRA      1957       4    1593    6396    6397    6432   15228    9162+
+          15218   15227    9159    9145
CTETRA      1958       4    1375    6673    1386    6682   13037   14370+
+           4371   15229    9937   15197
CTETRA      1959       4    1544    1545    1546    6494    4843    4845+
+           4852   15230   13124   15202
CTETRA      1960       4    1518    6442    6351    6452   14390    9229+
+          12272   12274    9224    9231
CTETRA      1961       4    1520    6378    1576    6387   15231   13626+
+           4962   15232    9006   13623
CTETRA      1962       4     586    6119    6118    6135   14084    8152+
+          15233   12137    8204    8208
CTETRA      1963       4    1177    1178    1463    6227    4031    4561+
+           4562   12575   12920   12576
CTETRA      1964       4    1177    6227    6221    6236   12575    8514+
+          12601   15234    8522    8521
CTETRA      1965       4     431    1177    6221    6236    4024   12601+
+          12600   13715   15234    8521
CTETRA      1966       4    1519    6352    6379    6387   15222    8999+
+          15224   15235    9001    9000
CTETRA      1967       4     431     433    1177    6236     432    4021+
+           4024   13715   13701   15234
CTETRA      1968       4    1464    6228    6230    6232   14706    8505+
+          15236   14708    8515    8516
CTETRA      1969       4    1178    6235    6228    6237   15237    8525+
+          15238   12922    8527    8526
CTETRA      1970       4    1178    1463    6227    6228    4561   12576+
+          12920   15238   14705    8517
CTETRA      1971       4    1177    6227    6236    6237   12575    8522+
+          15234   12921    8529    8530
CTETRA      1972       4    1178    1299    6235    6237    4026   15239+
+          15237   12922   15240    8527
CTETRA      1973       4    1178    1300    1299    6237    4030    4032+
+           4026   12922   15241   15240
CTETRA      1974       4     449    1396     451    6678    4405    4406+
+            450   13279   15146   13280
CTETRA      1975       4    1569    1573    1571    6350    4959    4960+
+           4957   12266   12265   12283
CTETRA      1976       4    1519    6351    6352    6387   15242    9018+
+          15222   15235    9015    9001
CTETRA      1977       4    1518    1544    1519    6352    4838    4841+
+           4840   15199   14408   15222
CTETRA      1978       4     959    6501    1017    6820   12706   13396+
+           3172   15243   10349   13383
CTETRA      1979       4     451     256     258    6751   13277     257+
+          13288   15244   10178   10177
CTETRA      1980       4    1395    6672    6679    6681   15245    9920+
+          13897   15210    9933    9931
CTETRA      1981       4    1544    1546    6353    6494    4852   15201+
+          14407   15230   15202    9371
CTETRA      1982       4    1557    1575    6359    6376    4970   15246+
+          15247   12833   12835    8948
CTETRA      1983       4    1693    1694    6276    6278    5318   15248+
+          12892   12894   14661    8574
CTETRA      1984       4    1357    1383    1367    6660    4355    4354+
+           4308   12773   12775   15249
CTETRA      1985       4    1672    1697    1693    6265    5310    5314+
+           5311   15250   15251   15252
CTETRA      1986       4    1366    1367    1382    6663    4305    4349+
+           4346   12787   12789   15253
CTETRA      1987       4    1367    1382    6663    6668    4349   15253+
+          12789   15254   15255    9869
CTETRA      1988       4    1693    6277    6264    6278   12893    8570+
+          14667   12894    8576    8566
CTETRA      1989       4    1356    6660    6661    6662   15256    9851+
+          15257   15258    9850    9849
CTETRA      1990       4    1306    1307    1324    6730    4102    4135+
+           4134   14841   14843   15259
CTETRA      1991       4    1281    1302    1298    6220    4036    4039+
+           4016   13678   12947   13679
CTETRA      1992       4    1283    1284    6724    6746    3999   13510+
+          13532   15260   13511   10164
CTETRA      1993       4    1325    6725    6724    6747   12795   10115+
+          12799   12797   10161   10166
CTETRA      1994       4    1367    1383    1382    6668    4354    4353+
+           4349   15254   15261   15255
CTETRA      1995       4    1283    1284    1325    6724    3999    4146+
+           4150   13532   13510   12799
CTETRA      1996       4    1335    1336    1353    6591    4198    4250+
+           4253   13294   13296   14748
CTETRA      1997       4    1339    6591    6614    6616   13295    9718+
+          15262   13292    9726    9728
CTETRA      1998       4    1336    1340    1337    6592    4191    4190+
+           4192   15042   15033   14825
CTETRA      1999       4    1282    6203    5960    6219   14483    8426+
+          15263   15264    8467    8466
CTETRA      2000       4    1307    1317    6715    6730    4101   15265+
+          15266   14843   14842   10087
CTETRA      2001       4    1285    1288    1286    6741    3974    3971+
+           3975   13221   12310   12309
CTETRA      2002       4    1274    1321    1275    6735    4131    4130+
+           4133   12076   14845   15267
CTETRA      2003       4    1285    1286    1321    6740    3975    4129+
+           4137   13220   12079   12078
CTETRA      2004       4    1364    6623    1388    6720   13214   15268+
+           4365   12042   10057   12485
CTETRA      2005       4    1270    1271    6718    6719    4079   12054+
+          15269   14834   12055   10065
CTETRA      2006       4    1272    6717    6716    6727   15270   10053+
+          15271   14849   10093   10092
CTETRA      2007       4    1568    1569    1571    6349    4950    4957+
+           4958   12844   14718   14736
CTETRA      2008       4    1272    1317    1306    6716    4093    4097+
+           4094   15271   15272   15273
CTETRA      2009       4    1317    6715    6716    6719   15265   10060+
+          15272   15274   10059   10058
CTETRA      2010       4    1477    1485    1486    6141    4660    4659+
+           4661   13150   13149   14771
CTETRA      2011       4    1485    6140    6141    6192   14769    8355+
+          13149   13152    8354    8353
CTETRA      2012       4    1271    6716    1272    6720   15275   15271+
+           4092   12040   10052   12041
CTETRA      2013       4    1409    6365    1481    6370   15213   15276+
+           4633   15208    8911   14785
CTETRA      2014       4    1311    1314    1312    6722    4081    4083+
+           4082   14823   15277   15278
CTETRA      2015       4    1311    6715    6719    6722   14822   10059+
+          14835   14823   10072   10084
CTETRA      2016       4    1481    6366    6140    6370   15279    8905+
+          14784   14785    8907    8906
CTETRA      2017       4    1311    1314    6722    6723    4081   15277+
+          14823   15280   15281   10081
CTETRA      2018       4    1270    1314    1311    6723    4071    4081+
+           4078   13227   15281   15280
CTETRA      2019       4    1481    1486    1485    6140    4657    4659+
+           4658   14784   14772   14769
CTETRA      2020       4    1499    1500    6167    6168    4734   12719+
+          14173   13867   12459    8253
CTETRA      2021       4    1096    1118    1120    7024    3489    3488+
+           3487   15282   14230   14238
CTETRA      2022       4    1182    6172    6175    6176   12721    8255+
+          14353   12714    8254    8256
CTETRA      2023       4    1752    1753    1761    6114    5508    5532+
+           5546   15283   15284   15285
CTETRA      2024       4    1096    1118    7024    7025    3489   14230+
+          15282   14227   15286   11022
CTETRA      2025       4    1117    7028    7026    7030   12165   11023+
+          13342   13345   11019   11021
CTETRA      2026       4    1096    1097    1118    7025    3455    3506+
+           3489   14227   14341   15286
CTETRA      2027       4    1118    7026    7024    7030   13343   10999+
+          14230   13346   11021   11020
CTETRA      2028       4     373     180     182    6074   15287     181+
+          15288   15289    7975    7974
CTETRA      2029       4     872    6882    1113    7036   15290   15291+
+           3444   14307   11046   14229
CTETRA      2030       4     373     375     182    6042     374   14517+
+          15288   15292   15293    7967
CTETRA      2031       4     377     184     182    6067   15294     183+
+          15295   15296    7962    7963
CTETRA      2032       4     871    1096    1120    7035    3453    3487+
+           3485   15297   15298   15299
CTETRA      2033       4     377     379    1808    6032     378    5711+
+           5712   12617   14612   12618
CTETRA      2034       4    1096    7024    1120    7035   15282   14238+
+           3487   15298   11042   15299
CTETRA      2035       4    1118    7024    7025    7030   14230   11022+
+          15286   13346   11020   11016
CTETRA      2036       4     872    1096    7035    7036    3452   15298+
+          15300   14307   14228   11051
CTETRA      2037       4    1097    1113    6881    7025    3451   14284+
+          13507   14341   14226   11017
CTETRA      2038       4     379     186     184    6062   12511     185+
+          15301   15302    7946    7947
CTETRA      2039       4    1665    6054    6050    6055   15303    7904+
+          15304   15305    7910    7900
CTETRA      2040       4    1773    6051    6050    6054   11849    7887+
+          15306   13798    7905    7904
CTETRA      2041       4    1666    6054    6053    6056   11842    7911+
+          11832   11834    7921    7922
CTETRA      2042       4    1306    6727    6716    6730   14839   10092+
+          15273   14841   10098   10088
CTETRA      2043       4    1023    6966    1111    6967   15307   15308+
+           3439   15309   10854   15310
CTETRA      2044       4     683    5899    5898    5905   15311    7493+
+          13751   15312    7511    7513
CTETRA      2045       4     640    5837    5836    5953   15313    7400+
+          15314   14164    7692    7691
CTETRA      2046       4    1104    6946    1111    6966   14279   15315+
+           3433   14280   10844   15308
CTETRA      2047       4    1104    1106    1111    6946    3418    3434+
+           3433   14279   15316   15315
CTETRA      2048       4     132     642     643    5952    1981    1979+
+           1982   14584   14585   14386
CTETRA      2049       4    1106    6945    1110    6958   15317   15318+
+           3440   15319   10818   15320
CTETRA      2050       4     671     715     719    5918    2225    2239+
+           2241   15321   14872   14873
CTETRA      2051       4    1007    6820    6823    6824   15322   10355+
+          14327   15323   10360   10362
CTETRA      2052       4      23     628    5842    5859    1906   15324+
+          15325   12226   15326    7317
CTETRA      2053       4      23     666     628    5859    2057    2058+
+           1906   12226   12223   15326
CTETRA      2054       4     349       6     156     104   15327     155+
+          13818   13169     117    7556
CTETRA      2055       4    1057    6925    6926    6927   15328   10695+
+          14380   15329   10694   10693
CTETRA      2056       4    1035    1057    6894    6895    3278   14379+
+          15330   13522   15331   10691
CTETRA      2057       4       4       6     116    5928    5793     124+
+           5805   15332    7581    7582
CTETRA      2058       4    1042    1057    6925    6926    3296   15328+
+          15333   14480   14380   10695
CTETRA      2059       4    1036    1057    1059    6894    3280    3290+
+           3289   15334   14379   14378
CTETRA      2060       4     668    5909     669    5921   15040   15026+
+           2068   15157    7551   15144
CTETRA      2061       4     680    5874    5887    5888   12417    7437+
+          11803   12994    7436    7438
CTETRA      2062       4    1045    1048    1046    6759    3218    3220+
+           3221   12254   12253   14538
CTETRA      2063       4    1045    6759    1052    6760   12254   15335+
+           3237   15336   10451   15337
CTETRA      2064       4    1045    1047    6768    6847    3217   12250+
+          12255   15338   14922   10448
CTETRA      2065       4    1044    1047    1045    6847    3215    3217+
+           3219   15339   14922   15338
CTETRA      2066       4    1044    1045    1051    6847    3219    3232+
+           3231   15339   15338   15340
CTETRA      2067       4    1045    6760    1051    6847   15336   15341+
+           3232   15338   10452   15340
CTETRA      2068       4    1045    1047    1048    6768    3217    3210+
+           3218   12255   12250   12249
CTETRA      2069       4      54     105     104    5921    5797     119+
+           5792   13171    7554    7555
CTETRA      2070       4     620    5833    5874    5875   13232    7382+
+          12415   15342    7381    7383
CTETRA      2071       4     960     961    1014    6587    3024    3171+
+           3170   12289   14266   15343
CTETRA      2072       4     959    1012    6501    6589    3169   13387+
+          12706   12708   14592    9627
CTETRA      2073       4     671     681     672    5906    2089    2092+
+           2091   13728   13547   15344
CTETRA      2074       4     721    5908    5917    5920   11927    7532+
+          11916   11921    7547    7545
CTETRA      2075       4       7    6095    1820    6097   11792   14534+
+           5768   15345    8036   14089
CTETRA      2076       4     682    5873    5886    5887   12381    7440+
+          12384   11804    7439    7441
CTETRA      2077       4     979    6502    6503    6535   14575    9492+
+          14875   15346    9491    9490
CTETRA      2078       4     960     979     982    6535    3017    3019+
+           3018   12288   15346   14261
CTETRA      2079       4     624    5836    5837    5871   13748    7400+
+          11810   12203    7397    7399
CTETRA      2080       4     349       4       6     104     348    5793+
+          15327   13169    5791     117
CTETRA      2081       4     351     160     353    5903   15347   15348+
+            352   15349    7475   15036
CTETRA      2082       4     647     662    5866    5867    2026   15350+
+          15351   15352   13199    7372
CTETRA      2083       4     664    5848    5867    5868   13197    7371+
+          13073   13076    7373    7375
CTETRA      2084       4     647    5867    5866    5881   15352    7372+
+          15351   15353    7422    7421
CTETRA      2085       4    1006    6817    1008    6823   15354   15355+
+           3148   15356   10363   15357
CTETRA      2086       4     987     988     989    6841    3055    3061+
+           3073   15358   14937   15359
CTETRA      2087       4     988    6813     989    6841   14936   15360+
+           3061   14937   10408   15359
CTETRA      2088       4    1006    6817    6816    6826   15354   10364+
+          15361   15362   10380   10379
CTETRA      2089       4     367     369    1822    5942     368    5784+
+           5785   12199   12200   13779
CTETRA      2090       4     986     989     988    6813    3059    3061+
+           3060   14930   15360   14936
CTETRA      2091       4     989    6812    6813    6825   13398   10368+
+          15360   15363   10367   10366
CTETRA      2092       4     726     727    1822    5942    5770    5787+
+           5786   12961   12435   13779
CTETRA      2093       4     135     728     146    1821    5777   14610+
+          11778    5780    5778   12824
CTETRA      2094       4     956     989     957    6825    3057    3056+
+           3058   15364   15363   15365
CTETRA      2095       4    1818    5939    6084    6096   14542    7998+
+          15366   15367    8023    8021
CTETRA      2096       4     369     176    5938    5942   12196    7628+
+          12869   12200    7631    7630
CTETRA      2097       4    1728    1734    1733    6337    5471    5474+
+           5467   13059   13060   15368
CTETRA      2098       4    1728    1733    6332    6337    5467   15369+
+          12659   13059   15368    8842
CTETRA      2099       4    1728    6332    6333    6337   12659    8847+
+          12658   13059    8842    8845
CTETRA      2100       4    1727    1728    1733    6332    5453    5467+
+           5466   15370   12659   15369
CTETRA      2101       4    1733    6327    6332    6337   15371    8841+
+          15369   15368    8843    8842
CTETRA      2102       4    1734    1735    6328    6336    5478   13072+
+          13092   13084   13093    8840
CTETRA      2103       4    1732    6327    1733    6328   12558   15371+
+           5469   12559    8824   13071
CTETRA      2104       4     527     918     754    7139    2834    2841+
+           2840   13496   15372   15373
CTETRA      2105       4     391    1580    1785    6012    5123    5635+
+           5634   15374   15375   14617
CTETRA      2106       4     754     918    7137    7139    2841   14292+
+          15376   15373   15372   11376
CTETRA      2107       4     916     918     917    7101    2838    2837+
+           2839   13598   13940   13939
CTETRA      2108       4     918    7102    7101    7137   14128   11297+
+          13940   14292   11380   11381
CTETRA      2109       4    1718    1719    1722    6346    5420    5424+
+           5423   15377   13871   15378
CTETRA      2110       4    1718    6321    1719    6346   15379   13869+
+           5420   15377    8884   13871
CTETRA      2111       4     890    7015     896    7016   13455   12372+
+           2719   15380   10934   15381
CTETRA      2112       4     868     890     896    7016    2710    2719+
+           2718   15382   15380   15381
CTETRA      2113       4     869     896     885    7009    2721    2725+
+           2722   14441   15383   15384
CTETRA      2114       4    1716    1720    1718    6321    5418    5419+
+           5416   13661   15385   15379
CTETRA      2115       4    1711    1720    6321    6323    5415   15385+
+          15386   15387   15388    8794
CTETRA      2116       4     599    5955    5956    6092   15389    8045+
+          14161   15390    8043    8046
CTETRA      2117       4    1709    1712    1710    6312    5380    5382+
+           5381   14466   12873   15391
CTETRA      2118       4     886    7008     896    7015   15392   15393+
+           2729   12363   10929   12372
CTETRA      2119       4     599    5955    5946    5956   15389   11774+
+          15394   14161    8045   11773
CTETRA      2120       4     383    1708    1706    5986    5363    5365+
+           5361   12445   12444   12148
CTETRA      2121       4     885     896     886    7008    2725    2729+
+           2730   15395   15393   15392
CTETRA      2122       4     385    6311    1709    6313   14429   14430+
+           5377   14282    8748   14258
CTETRA      2123       4    1717    6310    6309    6322   14357    8758+
+          12879   15396    8800    8799
CTETRA      2124       4    1710    1712    1714    6308    5382    5395+
+           5394   12880   15397   12675
CTETRA      2125       4    1651    6402    6403    6422   15398    9106+
+          13850   15399    9105    9102
CTETRA      2126       4     797     799    6979    7170    2460   12551+
+          12550   14255   15400   11495
CTETRA      2127       4     793    6979     799    7172   12549   12551+
+           2456   12563   11497   12442
CTETRA      2128       4     796     799    7170    7171    2458   15400+
+          15401   13930   12439   11494
CTETRA      2129       4     799    7170    7171    7172   15400   11494+
+          12439   12442   11493   11492
CTETRA      2130       4     407    6402    1651    6422   15402   15398+
+           5198   15403    9105   15399
CTETRA      2131       4    1650    1655    6434    6436    5220   12793+
+          13854   14669   12792    9169
CTETRA      2132       4    1651    6403    6402    6434   13850    9106+
+          15398   13851    9152    9154
CTETRA      2133       4     409    1650    1651    6402    5199    5201+
+           5197   14673   14672   15398
CTETRA      2134       4    1494    1495    6188    6193    4713   11987+
+          11981   15404   13908    8361
CTETRA      2135       4     648    5865    5879    5880   15405    7415+
+          13433   15406    7418    7420
CTETRA      2136       4     648    5865     649    5879   15405   15407+
+           2039   13433    7415   13429
CTETRA      2137       4     647     663     648    5866    2029    2031+
+           2030   15351   15408   15409
CTETRA      2138       4     648    5866    5865    5880   15409    7369+
+          15405   15406    7419    7418
CTETRA      2139       4    1489    6143    6195    6196   15410    8368+
+          15411   13737    8377    8378
CTETRA      2140       4    1455    6165    6193    6194   15412    8360+
+          15413   13571    8365    8366
CTETRA      2141       4    1455    6165    1495    6193   15412   13907+
+           4709   15413    8360   13908
CTETRA      2142       4    1407    1486    1408    6366    4655    4654+
+           4656   15414   14773   15415
CTETRA      2143       4    1480    1481    1485    6140    4638    4658+
+           4673   14770   14784   14769
CTETRA      2144       4    1477    6142    6141    6375   13743    8376+
+          13150   15416    8937    8940
CTETRA      2145       4    1407    1408    1558    6374    4656    4898+
+           4905   13262   13254   13263
CTETRA      2146       4     663    5846    5865    5866   15417    7364+
+          15418   15408    7367    7369
CTETRA      2147       4     662    5847     663    5866   15419   15420+
+           2032   15350    7368   15408
CTETRA      2148       4    1407    1486    6366    6375    4655   14773+
+          15414   15421   15422    8941
CTETRA      2149       4     648     663     654    5865    2031    2040+
+           2038   15405   15418   15423
CTETRA      2150       4     661     663     662    5847    2033    2032+
+           2034   15424   15420   15419
CTETRA      2151       4    1408    6366    6365    6374   15415    8914+
+          13249   13254    8945    8930
CTETRA      2152       4    1438    1439    1451    6691    4530    4550+
+           4549   15425   11988   11990
CTETRA      2153       4    1439    6685    6686    6691   12740    9968+
+          11999   11988    9967    9965
CTETRA      2154       4    1446    1447    6684    6693    4519   12736+
+          12728   12730   13176    9978
CTETRA      2155       4     593    6127    6136    6137   14395    8206+
+          13917   14399    8217    8216
CTETRA      2156       4    1438    1451    1449    6688    4549    4551+
+           4537   15426   15427   15428
CTETRA      2157       4     437    1451    1452    6692    4559    4560+
+           4558   15429   15430   11998
CTETRA      2158       4    1438    1451    6688    6691    4549   15427+
+          15426   15425   11990    9979
CTETRA      2159       4     437    6689    1451    6692   15097   15431+
+           4559   15429    9962   15430
CTETRA      2160       4     609     610    6128    6129    1868   14415+
+          12049   14179   14416    8173
CTETRA      2161       4    1184    1185    1444    6713    4086    4494+
+           4493   14344   14347   14345
CTETRA      2162       4    1185    1315    1186    6708    4073    4072+
+           4074   12003   13165   13168
CTETRA      2163       4    1186    1445    6694    6695    4510   14728+
+          13180   13159   14973    9986
CTETRA      2164       4    1446    6685    6684    6694   12729    9982+
+          12728   13174    9983    9984
CTETRA      2165       4    1444    6708    6712    6713   12005   10050+
+          12015   14345   10047   10049
CTETRA      2166       4      33     850      79    7244    2623   14315+
+            569   15432   14333   11755
CTETRA      2167       4    1443    6694    6684    6712   13173    9984+
+          13172   15433   10040   10039
CTETRA      2168       4      31     834      77    7247    2639   13558+
+            567   12734   12761   11769
CTETRA      2169       4    1184    6711    1185    6713   15434   14348+
+           4086   14344   10044   14347
CTETRA      2170       4     841     854     855    7236    2647    2649+
+           2643   15435   15436   12406
CTETRA      2171       4    1185    6709    6708    6713   13166   10031+
+          12003   14347   10046   10047
CTETRA      2172       4     854    7235    7217    7236   15437   11718+
+          15438   15436   11713   11719
CTETRA      2173       4     829    7236     855    7237   12399   12406+
+           2642   12400   11725   12408
CTETRA      2174       4    1418    1426    1425    6214    4453    4450+
+           4451   12029   12032   12022
CTETRA      2175       4    1422    1424    1425    6148    4438    4441+
+           4444   15439   15440   12750
CTETRA      2176       4    1390    1391    1394    6680    4385    4394+
+           4395   13898   15441   13899
CTETRA      2177       4    1390    6675    1391    6680   15150   14791+
+           4385   13898    9927   15441
CTETRA      2178       4    1269    6621    1384    6697   13921   13924+
+           4358   13231   10015   14787
CTETRA      2179       4    1392    6619    1393    6675   15442   15443+
+           4391   14792    9911   14793
CTETRA      2180       4    1198    1378    1383    6633    4334    4352+
+           4350   15444   15445   15446
CTETRA      2181       4    1378    1379    1382    6666    4336    4347+
+           4348   14368   14367   13201
CTETRA      2182       4    1266    6808    6795    6809   15447   10330+
+          15448   15449   10332   10331
CTETRA      2183       4     469    1266    6795    6809    3951   15448+
+          15450   15451   15449   10331
CTETRA      2184       4     527     795     798    7175    2451    2452+
+           2449   13498   14152   13499
CTETRA      2185       4    1260    1266    1263    6808    3952    3953+
+           3945   15452   15447   15453
CTETRA      2186       4     795     796     798    7174    2443    2453+
+           2452   15454   13935   15455
CTETRA      2187       4     796    7170     798    7174   15401   14256+
+           2453   13935   11503   15455
CTETRA      2188       4    1263    1266    1265    6511    3953    3955+
+           3956   15456   15457   12712
CTETRA      2189       4    1257    1266    1260    6808    3950    3952+
+           3927   15458   15447   15452
CTETRA      2190       4     798    7174    7170    7175   15455   11503+
+          14256   13499   11505   11500
CTETRA      2191       4    1256    1257    1260    6796    3923    3927+
+           3926   12326   14768   15459
CTETRA      2192       4    1257    1260    6796    6808    3927   15459+
+          14768   15458   15452   10329
CTETRA      2193       4     523     917     525    7123    2836    2835+
+            524   14130   13937   13936
CTETRA      2194       4     471    6795    1257    6801   12647   15460+
+           3919   14775   10282   14776
CTETRA      2195       4    1257    6796    1258    6801   14768   12331+
+           3921   14776   10279   14777
CTETRA      2196       4     925     928     942    7112    2886    2938+
+           2936   13946   12359   13949
CTETRA      2197       4     513    7111     942    7113   14098   14107+
+           2935   14072   11239   11992
CTETRA      2198       4     455     457    1351    6583     456    4237+
+           4235   15461   15462   15463
CTETRA      2199       4     455     264     457    6583   15464   15465+
+            456   15461    9598   15462
CTETRA      2200       4     455     457     264    6652     456   15465+
+          15464   15466   15467    9803
CTETRA      2201       4     455    1351    1278    6583    4235    4236+
+           3967   15461   15463   15468
CTETRA      2202       4    1151    7056    7058    7059   14247   11127+
+          12962   15469   11133   11134
CTETRA      2203       4    1151    7059    7058    7060   15469   11134+
+          12962   12964   11140   11139
CTETRA      2204       4     453     455    1278    6581     454    3967+
+           3964   13272   13273   14183
CTETRA      2205       4     455    1201    6652    6656    3850   15470+
+          15466   15471   12621    9819
CTETRA      2206       4    1240    6636    6652    6653   15472    9805+
+          15473   15474    9802    9806
CTETRA      2207       4     523     525     332    7123     524   14133+
+          12562   14130   13936   11286
CTETRA      2208       4     525     527     332    7102     526   14134+
+          14133   14129   15475   11294
CTETRA      2209       4     455    1240     457    6652    3846    3845+
+            456   15466   15473   15467
CTETRA      2210       4     523     332     525    6978   12562   14133+
+            524   12529   11076   12537
CTETRA      2211       4    1200    1240    1201    6655    3853    3852+
+           3854   15476   15477   12637
CTETRA      2212       4     457    1240    6636    6652    3845   15472+
+          15478   15467   15473    9805
CTETRA      2213       4    1200    6653    1240    6655   15479   15474+
+           3853   15476    9817   15477
CTETRA      2214       4     525    6978     332    7175   12537   11076+
+          14133   13497   11499   11501
CTETRA      2215       4    1169    1176    1172    6755    3711    3713+
+           3698   14790   13324   13323
CTETRA      2216       4    1162    1169    6873    6921    3681   15480+
+          15481   15482   15483   10658
CTETRA      2217       4     930    6990    7022    7023   13521   10990+
+          14932   12341   10989   10992
CTETRA      2218       4    1168    1170    1169    6754    3688    3684+
+           3689   12134   12135   14789
CTETRA      2219       4     872     900    7031    7032    2757   15484+
+          15485   15486   14947   11039
CTETRA      2220       4    1162    1169    1170    6873    3681    3684+
+           3683   15481   15480   15487
CTETRA      2221       4    1163    1176    1169    6921    3712    3711+
+           3682   13218   15488   15483
CTETRA      2222       4     491    6971    1074    6973   15489   14449+
+           3348   15490   10868   12983
CTETRA      2223       4    1073    6940    6952    6971   14022   10809+
+          14447   14448   10858   10859
CTETRA      2224       4    1156    1157    1162    7053    3642    3658+
+           3659   15491   15492   15493
CTETRA      2225       4    1156    1162    6873    7053    3659   15481+
+          15494   15491   15493   11109
CTETRA      2226       4    1162    1165    1163    6874    3662    3664+
+           3663   15495   15496   15497
CTETRA      2227       4    1040    6762    1054    6851   15498   15499+
+           3269   12583   10480   12584
CTETRA      2228       4    1034    6763    1056    6895   15500   15501+
+           3272   15502   10700   15503
CTETRA      2229       4    1089    1090    1155    6994    3495    3635+
+           3636   12151   15504   12171
CTETRA      2230       4    1034    1054    1056    6763    3263    3270+
+           3272   15500   14312   15501
CTETRA      2231       4    1140    6994    1155    7057   12152   12171+
+           3632   15084   11123   15082
CTETRA      2232       4    1139    7063    7071    7072   15505   11178+
+          12495   15078   11183   11182
CTETRA      2233       4    1039    6838    1050    6851   15506   15507+
+           3230   12582   10475   15508
CTETRA      2234       4    1142    6996    6995    7070   12175   10959+
+          12173   13968   11166   11167
CTETRA      2235       4    1039    6839    6838    6851   12602   10440+
+          15506   12582   10473   10475
CTETRA      2236       4    1141    7068    7069    7070   15509   11170+
+          13966   15510   11169   11168
CTETRA      2237       4     966     978     983    6854    3033    3035+
+           3034   15511   12037   14866
CTETRA      2238       4     965     983    6836    6852    3038   15512+
+          15513   15514   15515   10491
CTETRA      2239       4    1139    1146    1149    7063    3606    3608+
+           3611   15505   15516   15517
CTETRA      2240       4    1171    6781    1172    6782   12141   12146+
+           3700   12480   10216   12481
CTETRA      2241       4    1089    6994    7006    7027   12151   10964+
+          12161   13354   10993   11000
CTETRA      2242       4    1140    7057    1146    7072   15084   15518+
+           3607   15079   11184   15080
CTETRA      2243       4    1090    1154    1155    6993    3630    3634+
+           3635   15519   15520   15521
CTETRA      2244       4     953    1171    1031    6775    3696    3703+
+           3200   15522   13339   13338
CTETRA      2245       4     952    6784    6775    6787   15523   10255+
+          14925   14923   10254   10256
CTETRA      2246       4    1090    6993    6994    7027   15519   10995+
+          15504   12162   10994   10993
CTETRA      2247       4     952     953    6775    6784    3088   15522+
+          14925   15523   15524   10255
CTETRA      2248       4    1244    6797    6798    6804   11978   10299+
+          11977   14210   10297   10300
CTETRA      2249       4    1138    1141    1139    7068    3578    3580+
+           3579   12492   15509   12493
CTETRA      2250       4    1138    1149    7062    7071    3612   15525+
+          15526   12494   12521   11173
CTETRA      2251       4    1149    7063    7062    7071   15517   11158+
+          15525   12521   11178   11173
CTETRA      2252       4    1035    1057    1036    6894    3278    3280+
+           3279   15330   14379   15334
CTETRA      2253       4    1018    6575    6499    6576   15527    9579+
+          15528   15529    9563    9577
CTETRA      2254       4    1013    6572    6573    6576   14330    9568+
+          12696   15530    9567    9565
CTETRA      2255       4    1013    1016    6572    6576    3177   14329+
+          14330   15530   15055    9567
CTETRA      2256       4    1069    1072    1077    6951    3356    3361+
+           3362   15531   12989   14957
CTETRA      2257       4    1066    1070    6968    6969    3337   12992+
+          12850   15532   12121   10872
CTETRA      2258       4    1056    6763    6762    6895   15501   10479+
+          15533   15503   10700   10699
CTETRA      2259       4    1057    6894    6895    6927   14379   10691+
+          15331   15329   10690   10692
CTETRA      2260       4    1024    1038    1025    6891    3284    3281+
+           3285   13358   13374   13365
CTETRA      2261       4    1522    1538    6470    6487    4813   15077+
+          12527   12536   13556    9346
CTETRA      2262       4    1506    6469    6468    6486   13139    9307+
+          15534   12823    9336    9335
CTETRA      2263       4    1023    1065    1024    6965    3317    3324+
+           3325   15535   13353   13352
CTETRA      2264       4    1064    1065    6963    6976    3318   15536+
+          15537   15538   15539   10886
CTETRA      2265       4    1024    1065    1038    6964    3324    3323+
+           3284   13351   13350   13333
CTETRA      2266       4    1174    1176    1175    6756    3714    3715+
+           3710   12043   14911   14909
CTETRA      2267       4    1030    6774    6757    6788   12479   10211+
+          14529   14532   10266   10265
CTETRA      2268       4    1541    6470    6471    6474   14391    9296+
+          15124   14393    9292    9295
CTETRA      2269       4     951     952    1049    6770    3109    3204+
+           3205   12316   14038   14047
CTETRA      2270       4     952    6770    6784    6787   14038   10237+
+          15523   14923   10251   10254
CTETRA      2271       4    1573    6351    6350    6452   12273    9024+
+          12265   12275    9231    9228
CTETRA      2272       4    1519    1572    6351    6387    4954   12276+
+          15242   15235   13622    9015
CTETRA      2273       4    1001    6585    6596    6600   12295    9661+
+          14271   12296    9660    9663
CTETRA      2274       4    1571    1574    6389    6390    4968   15540+
+          14413   12284   15541    9020
CTETRA      2275       4     962    6584    6533    6606   12697    9613+
+          15542   15543    9684    9682
CTETRA      2276       4     994    6597     995    6600   12669   12671+
+           3095   12691    9668   12692
CTETRA      2277       4    1653    6393    6394    6437   15544    9181+
+          15545   15546    9180    9177
CTETRA      2278       4     965     983     985    6836    3038    3040+
+           3039   15513   15512   15547
CTETRA      2279       4    1654    6395    6394    6461   12805    9176+
+          15548   15549    9242    9244
CTETRA      2280       4    1652    6394    6436    6437   15550    9175+
+          15551   15552    9177    9172
CTETRA      2281       4     749     911     909    7159    2795    2797+
+           2792   15553   15554   15555
CTETRA      2282       4     909    7159    7096    7160   15555   11472+
+          15556   15557   11469   11471
CTETRA      2283       4     909     911    7097    7159    2797   15558+
+          15559   15555   15554   11462
CTETRA      2284       4     889     909    7096    7160    2793   15556+
+          15560   15561   15557   11471
CTETRA      2285       4     889     909     908    7096    2793    2794+
+           2789   15560   15556   15562
CTETRA      2286       4    1409    1482    6368    6370    4630   13723+
+          13722   15208   15209    8910
CTETRA      2287       4     908     909     910    7096    2794    2798+
+           2817   15562   15556   15563
CTETRA      2288       4     909     911     910    7097    2797    2799+
+           2798   15559   15558   15564
CTETRA      2289       4     868     896    7009    7016    2718   15383+
+          15565   15382   15381   10939
CTETRA      2290       4     886     905     903    7007    2770    2772+
+           2762   15566   15567   15568
CTETRA      2291       4     389    1785    1784    6014    5632    5633+
+           5626   14283   13164   13163
CTETRA      2292       4     387     196     194    6310   14402     195+
+          14235   14356    8756    8755
CTETRA      2293       4     389     391     196    6345     390   11896+
+          14401   15569   11893    8874
CTETRA      2294       4     890     893     891    6998    2708    2711+
+           2713   12365   12374   12366
CTETRA      2295       4     885     896    7008    7009    2725   15393+
+          15395   15384   15383   10940
CTETRA      2296       4     886    7007     903    7008   15566   15568+
+           2762   15392   10928   15570
CTETRA      2297       4     904    6987    6988    7018   15571   10948+
+          15572   15573   10947   10949
CTETRA      2298       4    1300    6234    6237    6238   12933    8535+
+          15241   12912    8537    8532
CTETRA      2299       4     879     902     904    6988    2773    2776+
+           2775   15574   15099   15572
CTETRA      2300       4     903    7008    7007    7017   15570   10928+
+          15568   15575   10946   10943
CTETRA      2301       4     902    7017     903    7018   15576   15575+
+           2769   15094   10945   15577
CTETRA      2302       4    1415    1416    1467    6225    4472    4583+
+           4584   12746   12116   14056
CTETRA      2303       4     885     903     901    7017    2761    2763+
+           2750   15578   15575   15579
CTETRA      2304       4     427    6224     234    6226   12104    8482+
+          15580   13634    8491    8489
CTETRA      2305       4     901     903     902    7017    2763    2769+
+           2768   15579   15575   15576
CTETRA      2306       4     858    7224    7223    7231   15581   11672+
+          15582   15583   11704   11699
CTETRA      2307       4     842     843    7218    7240    2605   15584+
+          15585   15586   15587   11732
CTETRA      2308       4     842    7218    7235    7240   15585   11720+
+          15588   15586   11732   11734
CTETRA      2309       4     842     857     854    7235    2653    2656+
+           2648   15588   15589   15437
CTETRA      2310       4    1282    1296    1283    5959    4007    4006+
+           4008   15590   14628   13531
CTETRA      2311       4    1296    5958    5959    6207   13957    8429+
+          14628   14478    8428    8427
CTETRA      2312       4    1282    5959    5960    6203   15590    8425+
+          15263   14483    8424    8426
CTETRA      2313       4    1295    5958    1296    6207   13958   13957+
+           4011   15591    8428   14478
CTETRA      2314       4     856    7220     857    7223   15592   15593+
+           2658   15594   11668   15595
CTETRA      2315       4      35      82     843    7242     574   15596+
+           2614   15597   11747   14980
CTETRA      2316       4      36      84     859    7219     560   15598+
+           2661   15599   11694   15600
CTETRA      2317       4    1489    1491    1490    6195    4686    4685+
+           4687   15411   13537   13587
CTETRA      2318       4     842     845     843    7240    2604    2606+
+           2605   15586   15601   15587
CTETRA      2319       4    1490    6193    1494    6196   13588   15404+
+           4712   13589    8381   13738
CTETRA      2320       4     813    7089     814    7187   11885   13465+
+           2501   14119   11571   13467
CTETRA      2321       4     755     756     804    7147    2313    2469+
+           2468   15602   15603   15604
CTETRA      2322       4    1404    6355    6356    6382   15605    8966+
+          14015   14016    8963    8967
CTETRA      2323       4    1412    1453    6145    6186    4605   13119+
+          15606   13918   13109    8327
CTETRA      2324       4     755     804    7146    7147    2468   15607+
+          15608   15602   15604   11420
CTETRA      2325       4    1491    6143    1493    6144   13535   15609+
+           4704   13536    8369   15610
CTETRA      2326       4     756    7088     804    7147   14120   14121+
+           2469   15603   11414   15604
CTETRA      2327       4    1405    6382    1492    6383   14021   14017+
+           4696   15611    8978   14018
CTETRA      2328       4    1404    6381    6355    6382   14020    8965+
+          15605   14016    8964    8963
CTETRA      2329       4     802     803     812    7091    2477    2496+
+           2508   15001   15000   15612
CTETRA      2330       4     803    7090     812    7091   15012   14201+
+           2496   15000   11388   15612
CTETRA      2331       4     819    7189    7203    7204   15613   11606+
+          13468   13469   11609   11611
CTETRA      2332       4     804    7088     814    7089   14121   13466+
+           2500   11904   11415   13465
CTETRA      2333       4     803     804     813    7090    2474    2495+
+           2494   15012   11905   11884
CTETRA      2334       4     806     807    7141    7144    2478   15614+
+          15615   15616   15617   11398
CTETRA      2335       4    1646    6423    1648    6431   15618   15619+
+           5191   15620    9148   15621
CTETRA      2336       4     131     142    6097    6098   11786    8042+
+          15622   15125    8051    8053
CTETRA      2337       4     131       8       7    6097   11788     154+
+            140   15622    8037   15345
CTETRA      2338       4       7       8    6095    6097     154    8026+
+          11792   15345    8037    8036
CTETRA      2339       4     803    7090    7141    7148   15012   11387+
+          15003   15623   11410   11408
CTETRA      2340       4     758     777     770    7185    2327    2331+
+           2328   15624   15625   15626
CTETRA      2341       4     777    7086    7166    7185   12376   11481+
+          15627   15625   11539   11541
CTETRA      2342       4    1808    5995    5996    6032   15628    7828+
+          12615   12618    7822    7827
CTETRA      2343       4     770     777    7166    7185    2331   15627+
+          15629   15626   15625   11541
CTETRA      2344       4     774    7086     777    7087   12378   12376+
+           2325   15630   11439   15631
CTETRA      2345       4     672    5899     683    5905   15632   15311+
+           2102   15633    7511   15312
CTETRA      2346       4    1799    5995    1808    6031   15634   15628+
+           5710   15635    7821   15636
CTETRA      2347       4     672     681     683    5899    2092    2105+
+           2102   15632   13546   15311
CTETRA      2348       4    1808    5995    1810    5996   15628   15637+
+           5719   12615    7828   15638
CTETRA      2349       4    1810    5996    5995    6073   15638    7828+
+          15637   15639    7972    7980
CTETRA      2350       4     672    5906    5905    5911   15344    7512+
+          15633   13731    7540    7564
CTETRA      2351       4     715    5911    5912    5915   13732    7525+
+          14640   14642    7524    7523
CTETRA      2352       4    1663    1780    6038    6039    5624   12788+
+          14099   14558   14560    7865
CTETRA      2353       4    1662    5997    1678    6041   14552   15640+
+           5271   14100    7875   15641
CTETRA      2354       4     712     713     715    5923    2219    2228+
+           2227   15642   15643   15644
CTETRA      2355       4     721     722     723    5920    2252    2256+
+           2255   11921   11922   13186
CTETRA      2356       4     713    5912     715    5923   15645   14640+
+           2228   15643    7606   15644
CTETRA      2357       4     706    5924     707    5931   13527   13533+
+           2199   15646    7601   15647
CTETRA      2358       4     702     704     708    5935    2177    2188+
+           2193   15648   15649   15650
CTETRA      2359       4      55     722     106    5920    2254   13224+
+           5794   15651   11922    7549
CTETRA      2360       4     701     704     702    5932    2175    2177+
+           2176   15652   15019   15653
CTETRA      2361       4     705    5929    5931    5932   15654    7602+
+          15024   15020    7599    7603
CTETRA      2362       4     393    1630    1580    6004    5118    5124+
+           5122   11873   15655   11874
CTETRA      2363       4     624     625     688    5870    1968    2123+
+           2124   11808   11812   11805
CTETRA      2364       4     624     686    5871    5884    2129   13788+
+          12203   11809   15656    7448
CTETRA      2365       4     144     644     602    5819   14383    1984+
+          11818    7626   14167   11800
CTETRA      2366       4     683    5885    5898    5899   13749    7492+
+          13751   15311    7491    7493
CTETRA      2367       4     686    5871    5884    5885   13788    7448+
+          15656   13750    7447    7449
CTETRA      2368       4     624     640     641    5837    1959    1965+
+           1964   11810   15313   13734
CTETRA      2369       4     685     686     688    5884    2115    2130+
+           2128   15657   15656   11807
CTETRA      2370       4     625     688    5870    5883    2123   11805+
+          11812   11816   11806    7428
CTETRA      2371       4     351     160     158    5876   15347     159+
+          15658   15659    7406    7408
CTETRA      2372       4     621     632     622    5873    1937    1954+
+           1955   12393   15660   12382
CTETRA      2373       4     622     632    5835    5873    1954   15661+
+          15662   12382   15660    7391
CTETRA      2374       4     351     693     353    5876    2132    2131+
+            352   15659   15663   15664
CTETRA      2375       4     621     680    5874    5887    2093   12417+
+          12416   12394   11803    7437
CTETRA      2376       4     351     693    5876    5890    2132   15663+
+          15659   15665   11964    7451
CTETRA      2377       4     621     622     682    5873    1955    2098+
+           2095   12393   12382   12381
CTETRA      2378       4     349     351     668    5910     350    2065+
+           2066   14103   15666   15041
CTETRA      2379       4     351     158     160    5903   15658     159+
+          15347   15349    7476    7475
CTETRA      2380       4     357     359     164    5854     358   15667+
+          15668   15669   15670    7304
CTETRA      2381       4     359     164     166    5833   15667     165+
+          15671   15672    7386    7662
CTETRA      2382       4    1628    1630    1629    5973    5120    5119+
+           5121   15673   12260   13769
CTETRA      2383       4     359     635    5833    5948    1930   13233+
+          15672   13290   13260    7664
CTETRA      2384       4     628    5858    5841    5859   15674    7320+
+          15675   15326    7325    7323
CTETRA      2385       4     628    5857     665    5858   15676   15677+
+           2049   15674    7336   13179
CTETRA      2386       4     359     166     361    5948   15671   15678+
+            360   13290    7663   15679
CTETRA      2387       4     359     361     166    5855     360   15678+
+          15671   15680   15681    7311
CTETRA      2388       4     359    5854     656    5855   15670   15682+
+           2015   15680    7313   15683
CTETRA      2389       4     621    5834     632    5873   12990   12943+
+           1937   12393    7388   15660
CTETRA      2390       4     621    5874    5873    5887   12416    7389+
+          12393   12394    7437    7439
CTETRA      2391       4     613    5827     615    5832   15684   14125+
+           1890   11840    7288   12239
CTETRA      2392       4     589    6099    1757    6102   12413   13837+
+           5486   13832    8073   13833
CTETRA      2393       4    1743    1744    1816    6100    5485    5742+
+           5741   13834   13836   15685
CTETRA      2394       4    1744    6090    1816    6100   15686   13783+
+           5742   13836    8070   15685
CTETRA      2395       4    1744    1820    1816    6090    5756    5758+
+           5742   15686   15687   13783
CTETRA      2396       4      21     616     613    5828    1898    1900+
+           1899   11837   15688   11838
CTETRA      2397       4     581     615     616    5827    1904    1903+
+           1902   15689   14125   15690
CTETRA      2398       4     590    6091    1744    6092   15691   15692+
+           5482   12397    8050   12412
CTETRA      2399       4      20     581     616    5828    1841    1902+
+           1901   11836   15693   15688
CTETRA      2400       4     590    1820    6091    6098    5757   14090+
+          15691   14081   14091    8049
CTETRA      2401       4     132     143     142    5956   11784     152+
+          11787   14156   11772    8052
CTETRA      2402       4    1820    6090    6091    6097   15687    8032+
+          14090   14089    8031    8033
CTETRA      2403       4    1812    1816    1815    6089    5743    5745+
+           5744   15160   13784   15161
CTETRA      2404       4     131     599     132    5956    2269    1983+
+            138   14160   14161   14156
CTETRA      2405       4     759     770     784    7165    2330    2387+
+           2386   15052   15694   15056
CTETRA      2406       4    1743    6100    1816    6101   13834   15685+
+           5741   13772    8069   13785
CTETRA      2407       4    1628    1630    5973    6020    5120   12260+
+          15673   13775   12261    7766
CTETRA      2408       4    1743    1816    1812    6101    5741    5743+
+           5731   13772   13785   13773
CTETRA      2409       4    1816    6090    1820    6095   13783   15687+
+           5758   14540    8034   14534
CTETRA      2410       4    1816    1819    6089    6095    5759   15162+
+          13784   14540   11794    8018
CTETRA      2411       4    1739    1802    1803    5992    5691    5698+
+           5697   14132   15695   15696
CTETRA      2412       4    1739    5992    6069    6070   14132    7986+
+          13024   14619    7991    7992
CTETRA      2413       4     759    7165     784    7183   15052   15056+
+           2386   15053   11548   15057
CTETRA      2414       4    1634    5973    6243    6290   13768    8658+
+          13771   15697    8661    8660
CTETRA      2415       4     760     764     761    7182    2378    2382+
+           2381   13476   13474   13477
CTETRA      2416       4     759    7184    7183    7199   15054   11549+
+          15053   15698   11592   11593
CTETRA      2417       4     783    7164     784    7165   15699   13472+
+           2384   15700   11485   15056
CTETRA      2418       4    1739    1740    1802    6070    5528    5690+
+           5691   14619   13043   15115
CTETRA      2419       4     944    6859    6858    6862   15701   10518+
+          15702   12334   10522   10521
CTETRA      2420       4     783    7164    7165    7168   15699   11485+
+          15700   15703   11484   11483
CTETRA      2421       4    1802    5993    6070    6071   15108    7989+
+          15115   15110    7988    7990
CTETRA      2422       4    1773    1774    6051    6058    5592   11850+
+          11849   13799   11846    7923
CTETRA      2423       4    1773    6050    6051    6052   15306    7887+
+          11849   15704    7886    7888
CTETRA      2424       4     865     895     866    7044    2694    2696+
+           2695   15705   14234   14233
CTETRA      2425       4    1137    7075    7074    7081   12010   11200+
+          12007   15706   11220   11217
CTETRA      2426       4     419     226     228    6200   11946     227+
+          11973   15707    8396    8407
CTETRA      2427       4     866    7044    7043    7081   14233   11084+
+          12488   15708   11218   11219
CTETRA      2428       4    1773    6051    6054    6058   11849    7905+
+          13798   13799    7923    7924
CTETRA      2429       4    1773    6051    1776    6052   11849   11851+
+           5599   15704    7888   13487
CTETRA      2430       4      57     720     717    5914    2245    2243+
+           2238   13500   13501   13514
CTETRA      2431       4    1141    7069    7068    7075   13966   11170+
+          15509   12483   11192   11189
CTETRA      2432       4    1134    7069    1141    7075   15709   13966+
+           3577   12482   11192   12483
CTETRA      2433       4    1034    6763    6895    6954   15500   10700+
+          15502   15710   10800   10801
CTETRA      2434       4    1088    1089    6995    7006    3492   12153+
+          12172   13961   12161   10963
CTETRA      2435       4    1748    1776    1774    6048    5595    5594+
+           5593   14634   13486   15711
CTETRA      2436       4     891    6998     893    6999   12366   12374+
+           2711   14975   10909   15712
CTETRA      2437       4     787    7038     788    7041   15713   15714+
+           2408   15715   11060   14146
CTETRA      2438       4     787     794     793    7041    2434    2435+
+           2432   15715   14145   15716
CTETRA      2439       4    1747    1761    1748    6105    5538    5537+
+           5539   14648   15717   14649
CTETRA      2440       4     787     788     794    7041    2408    2429+
+           2434   15715   14146   14145
CTETRA      2441       4    1748    1763    1749    6109    5540    5536+
+           5541   15718   14624   14623
CTETRA      2442       4    1098    6879    6880    6909   15719   10598+
+          13669   13668   10597   10595
CTETRA      2443       4    1098    1125    6879    6909    3513   15720+
+          15719   13668   15721   10597
CTETRA      2444       4    1748    1749    6048    6109    5541   14635+
+          14634   15718   14623    8096
CTETRA      2445       4    1714    5984    5983    6308   12668    7908+
+          12676   12675    8759    8760
CTETRA      2446       4    1670    1714    1713    5983    5392    5393+
+           5386   14290   12676   14143
CTETRA      2447       4    1710    6308    6309    6312   12880    8754+
+          12878   15391    8753    8751
CTETRA      2448       4    1706    1707    1712    5985    5366    5379+
+           5378   12149   12588   12872
CTETRA      2449       4    1707    1713    1712    5984    5384    5397+
+           5379   13693   12667   12666
CTETRA      2450       4    1123    6880    6879    7030   15722   10598+
+          15723   13348   11015   11018
CTETRA      2451       4    1036    6894    6950    6953   15334   10795+
+          12571   12573   10793   10797
CTETRA      2452       4    1075    1085    6764    6765    3398   15724+
+          12566   14001   15725   10456
CTETRA      2453       4    1079    6942    1080    6943   13648   13652+
+           3379   13645   10759   13654
CTETRA      2454       4    1081    6767    6766    6941   12454   10496+
+          14817   12456   10770   10768
CTETRA      2455       4     944    1086    1083    6858    3404    3408+
+           3390   15702   15726   15727
CTETRA      2456       4     943     944    1083    6858    2946    3390+
+           3389   13357   15702   15727
CTETRA      2457       4    1683    1684    1689    5977    5254    5276+
+           5266   13100   13112   13101
CTETRA      2458       4     946    6832    6833    6840   13977   10434+
+          15728   15729   10433   10430
CTETRA      2459       4    1683    1689    1690    5978    5266    5265+
+           5264   13102   13103   14572
CTETRA      2460       4     946    6840    6833    6845   15729   10430+
+          15728   15730   10432   10431
CTETRA      2461       4    1684    1689    5977    6272    5276   13101+
+          13112   13111   14688    8582
CTETRA      2462       4    1689    5978    6272    6279   13103    8581+
+          14688   14689    8580    8583
CTETRA      2463       4     946    6832     968    6833   13977   13976+
+           2960   15728   10434   13972
CTETRA      2464       4    1032    6832    1055    6848   15101   15731+
+           3267   15732   10458   14311
CTETRA      2465       4     944    6862    6858    6863   12334   10521+
+          15702   12335   10524   10523
CTETRA      2466       4    1032    6831    6832    6848   15102   10460+
+          15101   15732   10454   10458
CTETRA      2467       4     990    6819    6812    6825   15733   10374+
+          13399   15734   10377   10367
CTETRA      2468       4    1652    6436    6433    6437   15551    9170+
+          14671   15552    9172    9171
CTETRA      2469       4     411    1652    6433    6437    5213   14671+
+          14670   15735   15552    9171
CTETRA      2470       4     950    6811    6810    6837   13408   10401+
+          12270   15736   10423   10424
CTETRA      2471       4     413    6393    1653    6437   15737   15544+
+           5210   15738    9180   15546
CTETRA      2472       4    1034    6895    1035    6954   15502   13522+
+           3273   15710   10801   13524
CTETRA      2473       4     950    6769    1047    6810   12269   12251+
+           3208   12270   10398   14921
CTETRA      2474       4    1035    6895    6894    6953   13522   10691+
+          15330   13523   10794   10793
CTETRA      2475       4    1652    1654    1655    6436    5219    5223+
+           5222   15551   15739   12792
CTETRA      2476       4    1565    1569    6449    6451    4942   15740+
+          15741   14725   12267    9218
CTETRA      2477       4     956    6818    6819    6825   15742   10378+
+          15743   15364   10372   10377
CTETRA      2478       4     986    6821    6814    6822   15744   10346+
+          14928   15745   10352   10342
CTETRA      2479       4    1565    1569    1570    6449    4942    4945+
+           4944   15741   15740   15746
CTETRA      2480       4    1566    1573    1569    6451    4956    4959+
+           4943   14726   12268   12267
CTETRA      2481       4     957     989     986    6825    3056    3059+
+           3042   15365   15363   15747
CTETRA      2482       4    1078    6939    1080    6942   15748   13653+
+           3377   14003   10756   13652
CTETRA      2483       4    1434    1435    1488    6183    4521    4682+
+           4677   15749   15750   14703
CTETRA      2484       4     985    6836    6814    6843   15547   10415+
+          14929   15751   10421   10411
CTETRA      2485       4    1433    1499    6167    6180    4729   14173+
+          14172   14171   14169    8285
CTETRA      2486       4     957     986     958    6821    3042    3041+
+           3043   15752   15744   15753
CTETRA      2487       4    1023    6965    6966    6967   15535   10855+
+          15307   15309   10851   10854
CTETRA      2488       4    1274    6738    6737    6739   12077   10133+
+          15754   15755   10137   10138
CTETRA      2489       4    1272    1273    6717    6727    4095   14861+
+          15270   14849   14838   10093
CTETRA      2490       4    1474    6162    1498    6181   15756   15757+
+           4725   14166    8298   12466
CTETRA      2491       4    1474    1475    1498    6162    4681    4724+
+           4725   15756   15758   15757
CTETRA      2492       4    1461    1465    1462    6229    4569    4574+
+           4575   14710   14709   14714
CTETRA      2493       4    1461    6229    6156    6230   14710    8502+
+          15759   14711    8504    8500
CTETRA      2494       4    1457    1472    1473    6170    4623    4622+
+           4624   15760   13880   13881
CTETRA      2495       4    1368    1370    1369    6625    4293    4292+
+           4294   13207   14853   14856
CTETRA      2496       4    1462    1473    1472    6157    4621    4622+
+           4614   15761   13879   13878
CTETRA      2497       4    1179    1180    1462    6242    4184    4573+
+           4572   15762   15763   15764
CTETRA      2498       4    1456    6177    1472    6178   13659   14715+
+           4618   13660    8275   14451
CTETRA      2499       4    1472    6177    6170    6178   14715    8276+
+          13880   14451    8275    8277
CTETRA      2500       4    1364    6717    6624    6720   15765   10054+
+          13215   12042   10051   10056
CTETRA      2501       4    1272    6717    1364    6720   15270   15765+
+           4299   12041   10051   12042
CTETRA      2502       4    1065    6963    6965    6967   15536   10840+
+          13353   15766   10850   10851
CTETRA      2503       4    1461    1471    6155    6156    4608   13153+
+          15767   15759   13154    8264
CTETRA      2504       4    1366    6663    6664    6665   12787    9867+
+          15768   12785    9866    9862
CTETRA      2505       4    1227    1230    1229    6517    3796    3797+
+           3785   15195   13619   15769
CTETRA      2506       4    1472    6156    6157    6170   15770    8229+
+          13878   13880    8228    8227
CTETRA      2507       4     453     455     262    6656     454   13271+
+          13270   12619   15471    9821
CTETRA      2508       4    1191    1192    1340    6617    3726    4188+
+           4189   15039   12506   15034
CTETRA      2509       4    1338    1339    6614    6616    4200   15262+
+          15771   13301   13292    9728
CTETRA      2510       4    1340    6616    6608    6617   13293    9731+
+          15037   15034    9736    9735
CTETRA      2511       4    1335    6591    6590    6614   13294    9650+
+          13297   13299    9718    9717
CTETRA      2512       4    1336    6592    6591    6616   15042    9638+
+          13296   13291    9727    9726
CTETRA      2513       4    1285    1321    1323    6747    4137    4139+
+           4138   14846   14847   12796
CTETRA      2514       4    1321    6734    1323    6747   14844   14851+
+           4139   14847   10162   12796
CTETRA      2515       4    1322    1324    1323    6734    4136    4141+
+           4140   12086   14302   14851
CTETRA      2516       4    1580    1630    1581    6020    5124    5125+
+           5126   15772   12261   13762
CTETRA      2517       4    1323    1324    1325    6725    4141    4148+
+           4147   12794   13518   12795
CTETRA      2518       4    1201    6630    1377    6655   12636   15773+
+           4323   12637    9823   15774
CTETRA      2519       4    1377    6630    6631    6655   15773    9824+
+          15775   15774    9823    9815
CTETRA      2520       4    1088    7005    7006    7020   14243   10971+
+          13961   13962   10967   10970
CTETRA      2521       4    1630    6020    6004    6021   12261    7760+
+          15655   11912    7763    7762
CTETRA      2522       4     738     739    1246    6791    2954    3873+
+           3880   11876   11869   11868
CTETRA      2523       4     739    6791    6792    6804   11869   10308+
+          13315   11870   10304   10307
CTETRA      2524       4    1629    5973    1630    6021   13769   12260+
+           5119   15776    7768   11912
CTETRA      2525       4    1376    1380    1377    6631    4327    4326+
+           4328   15777   13035   15775
CTETRA      2526       4    1242    6799    1245    6802   15778   14211+
+           3871   14205   10305   14206
CTETRA      2527       4    1244    1246    1245    6804    3875    3874+
+           3876   14210   11871   14207
CTETRA      2528       4    1580    6004    1630    6020   11874   15655+
+           5124   15772    7760   12261
CTETRA      2529       4     740    1241    6792    6793    3868   13903+
+          13317   13910   13912   10292
CTETRA      2530       4    1241    6793    1243    6802   13912   13911+
+           3863   14204   10289   15779
CTETRA      2531       4     740     741    6793    6855    2940   15780+
+          13910   13905   13906   10503
CTETRA      2532       4    1376    1380    6631    6674    4327   13035+
+          15777   13040   13036    9896
CTETRA      2533       4    1200    6631    6654    6655   15781    9813+
+          14249   15476    9815    9814
CTETRA      2534       4    1171    1173    1172    6781    3695    3699+
+           3700   12141   12142   12146
CTETRA      2535       4     953    6775    6776    6779   15522   10202+
+          15782   15783   10201   10199
CTETRA      2536       4     954    6779    6776    6780   15784   10199+
+          15785   15786   10198   10200
CTETRA      2537       4    1397    6629    6630    6656   13304    9829+
+          15787   12620    9828    9825
CTETRA      2538       4    1173    6779    6778    6781   12140   10197+
+          12118   12142   10219   10220
CTETRA      2539       4    1087    7010    7019    7020   15076   10961+
+          15788   13970   10960   10962
CTETRA      2540       4    1342    1343    6609    6610    4218   15789+
+          15790   15791   15792    9716
CTETRA      2541       4    1338    1339    1342    6614    4200    4211+
+           4212   15771   15262   15793
CTETRA      2542       4    1190    6608    1338    6609   15794   15179+
+           4195   15795    9712   15178
CTETRA      2543       4     501    1160    1159    7054    3644    3645+
+           3638   14251   15796   15797
CTETRA      2544       4    1087    1088    1142    6996    3483    3587+
+           3588   13969   12174   12175
CTETRA      2545       4    1403    1526    1536    6488    4794    4796+
+           4790   15798   15799   12302
CTETRA      2546       4    1088    6995    6996    7020   12172   10959+
+          12174   13962   10958   10957
CTETRA      2547       4    1159    1160    7050    7054    3645   15800+
+          15801   15797   15796   11117
CTETRA      2548       4     730     731    1220    6607    3102    3723+
+           3722   15802   14276   15158
CTETRA      2549       4    1144    7055    7049    7064   15803   11132+
+          14253   14254   11144   11143
CTETRA      2550       4     730    6604    6597    6607   15804    9690+
+          15805   15802    9689    9692
CTETRA      2551       4    1160    7050    7049    7055   15800   11121+
+          12218   15806   11129   11132
CTETRA      2552       4    1210    6544    6545    6551   12731    9436+
+          15807   12074    9434    9428
CTETRA      2553       4    1195    6518    6519    6551   15808    9433+
+          15809   12073    9427    9431
CTETRA      2554       4    1227    6517    1229    6518   15195   15769+
+           3785   15196    9430   13051
CTETRA      2555       4    1195    6518    1196    6519   15808   13050+
+           3780   15809    9433   15810
CTETRA      2556       4     870    1120    1119    7004    3486    3498+
+           3479   15811   15812   15813
CTETRA      2557       4     870     871    1120    7004    2751    3485+
+           3486   15811   15814   15812
CTETRA      2558       4     871    1120    7004    7035    3485   15812+
+          15814   15297   15299   11041
CTETRA      2559       4    1119    7004    1120    7005   15813   15812+
+           3498   14236   10969   14237
CTETRA      2560       4     867    7043    6998    7082   12489   11082+
+          12373   12490   11223   11221
CTETRA      2561       4    1228    1230    6545    6554    3793   14891+
+          14894   15815   14892    9459
CTETRA      2562       4    1227    1230    6517    6545    3796   13619+
+          15195   14893   14891    9429
CTETRA      2563       4     741    6794    6855    6857   15816   10502+
+          13906   15817   10506   10504
CTETRA      2564       4    1227    6545    6518    6551   14893    9426+
+          15196   15818    9428    9427
CTETRA      2565       4    1195    1210    1227    6551    3749    3779+
+           3778   12073   12074   15818
CTETRA      2566       4     740     943    6855    6863    2939   13356+
+          13905   13359   12337   10519
CTETRA      2567       4    1243    6793    6794    6803   13911   10296+
+          15819   15820   10290   10295
CTETRA      2568       4    1210    1228    1227    6545    3782    3783+
+           3779   15807   14894   14893
CTETRA      2569       4    1229    6518    6517    6650   13051    9430+
+          15769   13048    9791    9797
CTETRA      2570       4    1526    1536    6488    6491    4796   12302+
+          15799   15821   12300    9362
CTETRA      2571       4    1527    1528    1533    6484    4761    4783+
+           4773   15822   15823   15824
CTETRA      2572       4    1533    6479    6482    6484   13136    9323+
+          13138   15824    9326    9321
CTETRA      2573       4    1526    6488    6355    6491   15799    9358+
+          15825   15821    9362    9361
CTETRA      2574       4    1419    1424    1420    6149    4440    4434+
+           4443   15826   15087   15827
CTETRA      2575       4    1081    6767    1082    6856   12454   14816+
+           3386   14811   10494   13361
CTETRA      2576       4    1400    6460    6466    6467   15828    9268+
+          15829   15100    9281    9280
CTETRA      2577       4     479     741    1082    6857    3383    3382+
+           3381   15830   15817   15831
CTETRA      2578       4     943    1083    1082    6856    3389    3392+
+           3391   13355   14812   13361
CTETRA      2579       4    1655    1657    1656    6435    5233    5232+
+           5228   12791   15832   13846
CTETRA      2580       4    1656    6396    6432    6435   15833    9159+
+          15834   13846    9161    9160
CTETRA      2581       4    1526    6355    6354    6491   15825    8987+
+          15835   15821    9361    9363
CTETRA      2582       4    1504    6456    6457    6463   15836    9236+
+          13697   13699    9235    9234
CTETRA      2583       4     515     940    7110    7113    2924   13368+
+          14066   11991   11993   11246
CTETRA      2584       4    1504    1592    6396    6457    5068   15837+
+          13698   13697   15838    9232
CTETRA      2585       4    1593    1656    6396    6432    5226   15833+
+          15228   15227   15834    9159
CTETRA      2586       4    1503    1504    1657    6463    4753    5229+
+           5230   13695   13699   13696
CTETRA      2587       4    1505    6457    6483    6485   15839    9317+
+          15840   12821    9332    9338
CTETRA      2588       4     511     927     925    6886    2869    2874+
+           2872   14113   14109   12344
CTETRA      2589       4    1657    6396    6395    6463   15841    9168+
+          12804   13696    9237    9238
CTETRA      2590       4      55      56     106     722      74    5796+
+           5794    2254    2253   13224
CTETRA      2591       4    1598    6245    6246    6292   15842    8689+
+          14157   15843    8678    8688
CTETRA      2592       4    1595    6406    6405    6430   11932    9077+
+          13012   14697    9140    9135
CTETRA      2593       4    1680    6279    6273    6280   14690    8587+
+          14691   15844    8586    8589
CTETRA      2594       4     107     720    5914    5919   13223   13501+
+           7528    7541   11918    7543
CTETRA      2595       4    1403    1404    1526    6355    4415    4795+
+           4794   15845   15605   15825
CTETRA      2596       4      56     720     107    5919    2246   13223+
+           5798   13222   11918    7541
CTETRA      2597       4      57     718      58    5916    2237    2233+
+             72   15846   15847   15848
CTETRA      2598       4    1679    5979    5978    6279   14573    7792+
+          14571   14665    8578    8580
CTETRA      2599       4    1689    5978    5977    6272   13103    7796+
+          13101   14688    8581    8582
CTETRA      2600       4    1685    1691    6285    6286    5285   12886+
+          15849   12890   12887    8634
CTETRA      2601       4    1692    6268    6282    6286   15177    8615+
+          15850   12891    8635    8632
CTETRA      2602       4     591    6042    6043    6067   12046    7970+
+          15851   15852    7969    7966
CTETRA      2603       4     583     592     584    6137    2291    2290+
+           2292   15853   14398   15854
CTETRA      2604       4    1679    6276    5979    6279   14664    8575+
+          14573   14665    8579    8578
CTETRA      2605       4    1684    5976    6266    6285   13839    8627+
+          15855   13113    8626    8629
CTETRA      2606       4     375     591     582    6067    1861    2294+
+           2293   15856   15852   15857
CTETRA      2607       4     591     592    6043    6128    1863   15858+
+          15851   12048   14414    8213
CTETRA      2608       4    1685    6266    6267    6285   15859    8639+
+          12888   15849    8629    8638
CTETRA      2609       4     812    7091    7090    7189   15612   11388+
+          14201   14202   11565   11567
CTETRA      2610       4    1692    6267    6268    6286   12889    8637+
+          15177   12891    8636    8635
CTETRA      2611       4     818    7190    7189    7204   15011   11566+
+          15009   14199   11610   11609
CTETRA      2612       4     912    7126    7125    7129   15073   11327+
+          15860   15861   11338   11330
CTETRA      2613       4    1695    1696    1697    5981    5315    5316+
+           5308   14096   14095   14579
CTETRA      2614       4     958     959    1017    6820    3031    3172+
+           3174   15862   15243   13383
CTETRA      2615       4    1671    5982    1697    6265   15863   15864+
+           5307   15865    8564   15251
CTETRA      2616       4    1671    1695    1697    5982    5300    5308+
+           5307   15863   15866   15864
CTETRA      2617       4    1663    1664    6039    6040    5302   15867+
+          14558   12167   15868    7872
CTETRA      2618       4     911    7097    7098    7129   15558   11334+
+          15869   15870   11329   11332
CTETRA      2619       4     802     806    7141    7142    2476   15615+
+          15002   15871   15872   11386
CTETRA      2620       4     752    7143    7144    7145   15873   11401+
+          15874   14214   11400   11399
CTETRA      2621       4    1310    1329    5963    6174    4159   14450+
+          13539   13538   15875    8244
CTETRA      2622       4    1328    1331    5961    6160    4166   15876+
+          14553   15877   15878    8240
CTETRA      2623       4     935    7106    7105    7118   12627   11272+
+          15879   12629   11279   11340
CTETRA      2624       4    1327    1331    5960    5961    4168   15880+
+          13919   15881   15876    8468
CTETRA      2625       4    1331    5960    5961    6219   15880    8468+
+          15876   15882    8466    8464
CTETRA      2626       4     919     931    7118    7124    2900   12628+
+          15883   13417   12644   11298
CTETRA      2627       4    1284    1325    6724    6747    4146   12799+
+          13510   13512   12797   10166
CTETRA      2628       4     885    7017     901    7021   15578   15579+
+           2750   15884   10974   15885
CTETRA      2629       4    1282    5960    1331    6219   15263   15880+
+           4170   15264    8466   15882
CTETRA      2630       4     870    7003    7004    7021   15886   10978+
+          15811   14440   10973   10976
CTETRA      2631       4    1276    1350    1344    6744    4223    4233+
+           4231   15887   14549   15888
CTETRA      2632       4     611    6131    6126    6132   15889    8193+
+          14860   15890    8183    8192
CTETRA      2633       4       1     607       9    5823   14516   14515+
+             19    7250   14500    7251
CTETRA      2634       4       2    6131     611    6132   15891   15889+
+           1884   14492    8183   15890
CTETRA      2635       4     891    7000     892    7013   15892   15893+
+           2717   15894   10901   15895
CTETRA      2636       4     891    6999     894    7000   14975   14971+
+           2712   15892   10903   14960
CTETRA      2637       4     891    6999    7000    7013   14975   10903+
+          15892   15894   10902   10901
CTETRA      2638       4     796    7171    7170    7174   13930   11494+
+          15401   13935   11504   11503
CTETRA      2639       4     891     892     898    7013    2717    2733+
+           2732   15894   15895   15896
CTETRA      2640       4     891    7011    7012    7013   13446   10915+
+          12368   15894   10911   10914
CTETRA      2641       4    1771    6056    6057    6058   11843    7917+
+          13801   11844    7916    7915
CTETRA      2642       4    1075    6938    6954    6955   12565   10803+
+          12567   14955   10813   10812
CTETRA      2643       4     597    6093     598    6102   12980   13145+
+           1939   12409    8072   15897
CTETRA      2644       4    1075    1078    1085    6765    3378    3399+
+           3398   14001   14000   15725
CTETRA      2645       4     629    5954     636    6093   15898   13146+
+           1941   15899    8038   13148
CTETRA      2646       4    1078    6765    6938    6942   14000   10764+
+          14002   14003   10766   10757
CTETRA      2647       4    1073    6940    6939    6952   14022   10755+
+          15133   14447   10809   10808
CTETRA      2648       4    1128    1130    6915    6916    3539   15900+
+          12192   12189   12191   10648
CTETRA      2649       4    1130    6899    6915    6916   13318   10646+
+          15900   12191   10645   10648
CTETRA      2650       4     636    5947     642    5955   15901   15902+
+           1971   13147   11775   15903
CTETRA      2651       4     631    5841    5840    6094   15904    7322+
+          12975   12978    8028    8027
CTETRA      2652       4     948     949    1050    6838    3052    3225+
+           3227   15905   15906   15507
CTETRA      2653       4     948    6838    1039    6839   15905   15506+
+           3228   15907   10440   12602
CTETRA      2654       4     589    6092    6099    6102   12395    8060+
+          12413   13832    8071    8073
CTETRA      2655       4     589     598    6092    6102    2273   12396+
+          12395   13832   15897    8071
CTETRA      2656       4     590    6091    6092    6098   15691    8050+
+          12397   14081    8049    8048
CTETRA      2657       4     389     196     391    6012   14401   11896+
+            390   15908    7699   15374
CTETRA      2658       4    1350    6524    6523    6744   14548    9588+
+          15909   14549   10150   10149
CTETRA      2659       4    1345    1346    6522    6594    4228   15910+
+          15911   15912   15913    9639
CTETRA      2660       4     599     642    5946    5955    1974   14583+
+          15394   15389   15903   11774
CTETRA      2661       4    1345    6523    6522    6628   15914    9643+
+          15911   15915    9841    9840
CTETRA      2662       4    1187    1188    1441    6698    4061    4509+
+           4506   13941   13943   13687
CTETRA      2663       4     375     582     377    6067    2293    2295+
+            376   15856   15857   15296
CTETRA      2664       4    1187    1441    1445    6700    4506    4508+
+           4507   14974   15916   14729
CTETRA      2665       4     582    6066    6062    6067   15917    7959+
+          11914   15857    7961    7960
CTETRA      2666       4    1440    1441    6699    6700    4515   13683+
+          15918   14734   15916    9992
CTETRA      2667       4    1781    6011    6017    6018   13707    7738+
+          15919   15920    7745    7746
CTETRA      2668       4     582    6043    6066    6067   15921    7964+
+          15917   15857    7966    7961
CTETRA      2669       4    1248    6639    6638    6649   14881    9759+
+          15922   15923    9795    9780
CTETRA      2670       4    1203    6516    6639    6651   12088    9753+
+          12094   14889    9792    9794
CTETRA      2671       4    1009    1010    6573    6586    3158   12695+
+          12694   14049   14062    9621
CTETRA      2672       4    1019    6576    6573    6577   15924    9565+
+          14057   14051    9564    9566
CTETRA      2673       4     349     699     351    5890    2148    2147+
+            350   15925   12952   15665
CTETRA      2674       4     349     158     156    5890   14102     157+
+          13818   15925    7450    7452
CTETRA      2675       4     711    5927    5890    5928   11960    7586+
+          11959   12968    7584    7580
CTETRA      2676       4     479     286    6498    6575   15926    9580+
+          15927   15928    9561    9582
CTETRA      2677       4     349       6       4    5928   15327    5793+
+            348   15929    7581   15332
CTETRA      2678       4    1018    1019    6575    6576    3190   15930+
+          15527   15529   15924    9563
CTETRA      2679       4    1013    6573    1019    6576   12696   14057+
+           3187   15530    9565   15924
CTETRA      2680       4     115    5927     711    5928    7574   11960+
+          12966    7583    7584   12968
CTETRA      2681       4     349    5890     156    5928   15925    7452+
+          13818   15929    7580    7579
CTETRA      2682       4     351     678     668    5910    2070    2067+
+           2065   15666   14108   15041
CTETRA      2683       4    1213    6537    1224    6565   12807   12810+
+           3768   15931    9510   15932
CTETRA      2684       4    1214    1224    6564    6565    3772   14599+
+          15933   13673   15932    9515
CTETRA      2685       4     734    1214    6564    6566    3770   15933+
+          13081   13079   13674    9518
CTETRA      2686       4     735    6505    6506    6566   14521    9520+
+          14523   13080    9519    9521
CTETRA      2687       4     349     158     351    5910   14102   15658+
+            350   14103    7494   15666
CTETRA      2688       4     349     699    5890    5928    2148   12952+
+          15925   15929   13015    7580
CTETRA      2689       4    1224    6537    6536    6564   12810    9445+
+          14600   14599    9514    9513
CTETRA      2690       4    1222    6543    6542    6553   13742    9400+
+          13740   12814    9461    9449
CTETRA      2691       4     584     592     593    6137    2290    1866+
+           2288   15854   14398   14399
CTETRA      2692       4     583     591     592    6043    2296    1863+
+           2291   15934   15851   15858
CTETRA      2693       4     373    6074    1805    6085   15289   15935+
+           5727   15936    7994   15937
CTETRA      2694       4    1724    1728    1729    6342    5445    5448+
+           5447   12657   12660   12662
CTETRA      2695       4     371     180     373    6085   14189   15287+
+            372   14191    7993   15936
CTETRA      2696       4     609    6128    6042    6130   12049    8172+
+          12047   14181    8171    8167
CTETRA      2697       4    1805    6073    1806    6083   15938   11890+
+           5729   15939    8001   15940
CTETRA      2698       4    1805    1810    1806    6073    5728    5725+
+           5729   15938   15639   11890
CTETRA      2699       4    1665    1666    6054    6055    5296   11842+
+          15303   15305   15941    7910
CTETRA      2700       4    1666    1713    1667    6053    5385    5383+
+           5387   11832   14144   11833
CTETRA      2701       4    1604    6299    6298    6300   15190    8703+
+          14039   14455    8709    8717
CTETRA      2702       4    1769    6057    6056    6060   13800    7917+
+          15942   13817    7935    7934
CTETRA      2703       4    1617    6247    6248    6299   14220    8704+
+          14475   14221    8699    8702
CTETRA      2704       4    1617    6247    1626    6248   14220   14142+
+           5092   14475    8704   14213
CTETRA      2705       4    1597    1618    6246    6420    5101   14158+
+          14694   12817   14675    9084
CTETRA      2706       4    1618    6247    6246    6420   14219    8701+
+          14158   14675    9081    9084
CTETRA      2707       4    1404    1547    1526    6355    4847    4849+
+           4795   15605   15943   15825
CTETRA      2708       4    1667    6056    6053    6061   11835    7922+
+          11833   13694    7926    7925
CTETRA      2709       4    1742    1759    1756    6116    5496    5499+
+           5489   13513   12940   13504
CTETRA      2710       4    1757    6078    6099    6100   13843    8057+
+          13837   13835    8054    8058
CTETRA      2711       4    1743    6077    6078    6100   13766    8056+
+          13777   13834    8055    8054
CTETRA      2712       4    1757    6078    6079    6099   13843    8075+
+          12388   13837    8057    8074
CTETRA      2713       4    1697    5981    5980    6278   14579    7879+
+          14578   14660    8568    8569
CTETRA      2714       4    1526    6354    1546    6491   15835   15200+
+           4850   15821    9363   15944
CTETRA      2715       4     592     610     593    6127    1865    1867+
+           1866   14397   14403   14395
CTETRA      2716       4    1693    6264    6265    6278   14667    8567+
+          15252   12894    8566    8565
CTETRA      2717       4    1183    1310    5964    6175    4104   14352+
+          15945   14354   13540    8250
CTETRA      2718       4    1183    6175    5964    6176   14354    8250+
+          15945   12715    8256    8261
CTETRA      2719       4    1804    6027    5993    6033   12633    7832+
+          12630   12625    7831    7834
CTETRA      2720       4    1695    5981    1697    5982   14096   14579+
+           5308   15866    7869   15864
CTETRA      2721       4    1659    1686    6007    6022    5245   15946+
+          15947   15948   15949    7779
CTETRA      2722       4    1686    6007    6022    6023   15946    7779+
+          15949   13841    7781    7780
CTETRA      2723       4    1686    1688    1687    6022    5248    5244+
+           5249   15949   15950   15951
CTETRA      2724       4     612    6132    6126    6133   14493    8192+
+          14491   14419    8181    8190
CTETRA      2725       4     593     612     594    6126    1881    1879+
+           1883   14394   14491   12138
CTETRA      2726       4     611    6125    6126    6131   14859    8194+
+          14860   15889    8189    8193
CTETRA      2727       4    1660    1683    6008    6023    5250   15952+
+          15953   13840   13842    7789
CTETRA      2728       4    1597    1618    1598    6246    5101    5060+
+           5102   14694   14158   14157
CTETRA      2729       4    1603    1617    1624    6248    5064    5091+
+           5090   14425   14475   14426
CTETRA      2730       4    1586    6269    6297    6300   15169    8686+
+          14678   14044    8705    8707
CTETRA      2731       4     578     579     601    5943    1829    1827+
+           1830   13807   14656   14658
CTETRA      2732       4     579     601    5943    5945    1827   14658+
+          14656   12693   14659    7647
CTETRA      2733       4    1616    6293    6296    6297   15173    8692+
+          13563   15174    8687    8693
CTETRA      2734       4    1602    1614    1603    6249    5042    5041+
+           5043   14435   15954   14427
CTETRA      2735       4     365     172     174    5944   12237     173+
+          12186   13812    7660    7655
CTETRA      2736       4    1624    6249    6248    6427   14428    8696+
+          14426   13877    9108    9107
CTETRA      2737       4    1528    1530    6455    6456    4762   15955+
+          15956   15957   15958    9241
CTETRA      2738       4    1527    1530    1528    6456    4760    4762+
+           4761   15959   15958   15957
CTETRA      2739       4    1505    1527    1534    6483    4759    4771+
+           4768   15840   15960   15961
CTETRA      2740       4     703    5930    5929    5932   15962    7593+
+          15963   15023    7597    7599
CTETRA      2741       4     695    5929     703    5930   15964   15963+
+           2171   15965    7593   15962
CTETRA      2742       4    1527    6456    1528    6484   15959   15957+
+           4761   15822    9318   15823
CTETRA      2743       4    1528    6455    6454    6478   15956    9255+
+          14751   13559    9327    9328
CTETRA      2744       4    1472    6156    6170    6177   15770    8228+
+          13880   14715    8265    8276
CTETRA      2745       4    1456    6164    1495    6165   15966   11985+
+           4710   13658    8274   13907
CTETRA      2746       4    1497    6164    6178    6179   15967    8273+
+          15968   12518    8278    8281
CTETRA      2747       4     672    5899    5905    5906   15632    7511+
+          15633   15344    7510    7512
CTETRA      2748       4    1496    6164    6163    6188   11986    8280+
+          15969   11982    8338    8335
CTETRA      2749       4    1454    1455    1490    6194    4611    4691+
+           4690   13651   13571   15970
CTETRA      2750       4    1456    6165    1471    6177   13658   15971+
+           4616   13659    8270   13155
CTETRA      2751       4    1495    6164    6188    6193   11985    8338+
+          11987   13908    8359    8361
CTETRA      2752       4     684    5872    5885    5886   13793    7445+
+          13794   14877    7442    7446
CTETRA      2753       4    1455    1495    1490    6193    4709    4711+
+           4691   15413   13908   13588
CTETRA      2754       4    1786    6009    6010    6013   15972    7707+
+          15973   15974    7706    7704
CTETRA      2755       4    1658    1659    1786    6006    5238    5638+
+           5639   15975   15976   15977
CTETRA      2756       4    1412    6152    1470    6186   13104   13106+
+           4600   13918    8318   13110
CTETRA      2757       4    1782    1784    1786    6010    5631    5643+
+           5641   14616   13705   15973
CTETRA      2758       4    1659    1786    6006    6009    5638   15977+
+          15976   15978   15972    7712
CTETRA      2759       4    1442    1446    1447    6684    4517    4519+
+           4518   13177   12728   12736
CTETRA      2760       4     395     204     397    5972   15979   15980+
+            396   15981    7770   15982
CTETRA      2761       4     395     202     200    6343   15983     201+
+          15984   15985    8863    8864
CTETRA      2762       4    1439    6686    1452    6691   11999   11996+
+           4555   11988    9965   11989
CTETRA      2763       4    1433    5966    5967    6180   12016    8286+
+          12017   14171    8284    8287
CTETRA      2764       4     395    6341     202    6343   15986    8854+
+          15983   15985    8861    8863
CTETRA      2765       4     755    7147    7150    7154   15602   11422+
+          15987   15988   11432   11433
CTETRA      2766       4     393    1723    1721    6338    5427    5430+
+           5428   11867   11866   14026
CTETRA      2767       4    1183    1184    1432    5965    4111    4491+
+           4492   14068   14343   14069
CTETRA      2768       4    1724    1726    6333    6340    5441   13054+
+          12656   12653   13055    8855
CTETRA      2769       4     395    1721    1729    6343    5429    5443+
+           5444   15985   14028   14025
CTETRA      2770       4    1280    1302    1281    6220    4037    4036+
+           4038   13686   12947   13678
CTETRA      2771       4    1301    6204    6205    6208   13950    8415+
+          14876   13951    8414    8413
CTETRA      2772       4    1724    6339    6340    6342   12651    8866+
+          12653   12657    8865    8857
CTETRA      2773       4    1680    1699    6279    6280    5328   14666+
+          14690   15844   15989    8586
CTETRA      2774       4     467    1265    1266    6809    3948    3955+
+           3954   12654   15990   15449
CTETRA      2775       4    1265    6511    1266    6809   12712   15457+
+           3955   15990   10336   15449
CTETRA      2776       4    1693    1699    1698    6277    5326    5327+
+           5323   12893   15991   15992
CTETRA      2777       4    1262    6511    1265    6513   15993   12712+
+           3957   12709    9495   12710
CTETRA      2778       4    1267    6513    6512    6642   12711    9499+
+          15994   15995    9739    9738
CTETRA      2779       4    1250    6641    1267    6642   14884   15996+
+           3961   15997    9745   15995
CTETRA      2780       4     463    1250    1267    6642    3898    3961+
+           3960   15998   15997   15995
CTETRA      2781       4    1250    1252    1251    6644    3899    3900+
+           3901   14885   14882   14880
CTETRA      2782       4    1683    5978    1690    6024   13102   14572+
+           5264   15999    7794   14570
CTETRA      2783       4    1690    5978    5979    5997   14572    7792+
+          14574   14567    7791    7793
CTETRA      2784       4    1662    1690    1678    5997    5263    5274+
+           5271   14552   14567   15640
CTETRA      2785       4    1661    1690    1662    5997    5261    5263+
+           5262   14568   14567   14552
CTETRA      2786       4    1678    1690    1679    5979    5274    5270+
+           5275   16000   14574   14573
CTETRA      2787       4    1661    1683    1690    6024    5252    5264+
+           5261   14569   15999   14570
CTETRA      2788       4    1622    1623    1627    6426    5087    5113+
+           5112   14005   13872   16001
CTETRA      2789       4    1250    1251    1253    6641    3901    3910+
+           3911   14884   14883   16002
CTETRA      2790       4    1623    1625    1627    6425    5114    5110+
+           5113   16003   13573   16004
CTETRA      2791       4    1625    6425    6406    6430   13573    9111+
+          11933   14698    9141    9140
CTETRA      2792       4    1156    1162    1170    6873    3659    3683+
+           3679   15494   15481   15487
CTETRA      2793       4    1595    6405    6423    6430   13012    9133+
+          16005   14697    9135    9134
CTETRA      2794       4    1627    6426    6425    6429   16001    9122+
+          16004   13997    9132    9142
CTETRA      2795       4    1157    1165    1162    6874    3660    3662+
+           3658   16006   15496   15495
CTETRA      2796       4    1162    6874    6873    7053   15495   10667+
+          15481   15493   11106   11109
CTETRA      2797       4    1595    1627    1625    6430    5109    5110+
+           5099   14697   13996   14698
CTETRA      2798       4    1156    1159    7053    7054    3641   16007+
+          15491   16008   15797   11112
CTETRA      2799       4     497    1156    1170    7052    3640    3679+
+           3680   16009   16010   16011
CTETRA      2800       4    1616    6292    6246    6296   16012    8688+
+          14159   13563    8691    8690
CTETRA      2801       4    1598    1616    1599    6292    5058    5048+
+           5061   15843   16012   16013
CTETRA      2802       4    1562    6449    1570    6450   16014   15746+
+           4940   16015    9211   16016
CTETRA      2803       4     413    1562    1570    6450    4926    4940+
+           4941   16017   16015   16016
CTETRA      2804       4    1156    7053    7052    7054   15491   11110+
+          16010   16008   11112   11111
CTETRA      2805       4    1170    6873    6753    7052   15487   10657+
+          12133   16011   11102   11101
CTETRA      2806       4    1156    6873    1170    7052   15494   15487+
+           3679   16010   11102   16011
CTETRA      2807       4    1168    6753    6754    6783   12132   10231+
+          12134   14528   10230   10227
CTETRA      2808       4    1569    6349    1570    6449   14718   14717+
+           4945   15740    9217   15746
CTETRA      2809       4    1518    1542    1544    6352    4832    4839+
+           4838   15199   15198   14408
CTETRA      2810       4     495    6753    1168    6783   12147   12132+
+           3686   12113   10230   14528
CTETRA      2811       4    1091    6992    6993    7029   16018   11004+
+          16019   16020   11003   11002
CTETRA      2812       4    1524    1525    1545    6497    4787    4844+
+           4837   13274   13276   13126
CTETRA      2813       4    1524    1545    1543    6496    4837    4836+
+           4835   15067   13125   15117
CTETRA      2814       4    1090    7028    1122    7029   12164   13349+
+           3502   16021   11007   16022
CTETRA      2815       4    1244    1245    6797    6804    3876   14774+
+          11978   14210   14207   10297
CTETRA      2816       4    1545    6494    6493    6496   13124    9375+
+          14405   13125    9388    9382
CTETRA      2817       4    1139    7063    1149    7071   15505   15517+
+           3611   12495   11178   12521
CTETRA      2818       4    1139    7068    1141    7070   12493   15509+
+           3580   12498   11169   15510
CTETRA      2819       4    1133    1137    1134    7075    3569    3568+
+           3570   12011   12010   12482
CTETRA      2820       4     867    1143    1134    7069    3590    3589+
+           3565   16023   13965   15709
CTETRA      2821       4    1024    6890    1105    6966   14272   16024+
+           3438   14273   10843   16025
CTETRA      2822       4    1474    5967    6161    6180   16026    8288+
+          16027   14170    8287    8291
CTETRA      2823       4    1023    6965    1024    6966   15535   13352+
+           3325   15307   10855   14273
CTETRA      2824       4    1022    1023    1111    6967    3309    3439+
+           3442   16028   15309   15310
CTETRA      2825       4    1475    1496    1498    6163    4726    4722+
+           4724   16029   15969   16030
CTETRA      2826       4    1475    1498    6162    6163    4724   15757+
+          15758   16029   16030    8299
CTETRA      2827       4    1497    1498    6163    6179    4723   16030+
+          16031   12518   12520    8279
CTETRA      2828       4    1501    6179    6168    6181   12519    8292+
+          12460   12467    8294    8293
CTETRA      2829       4    1368    1369    1372    6626    4294    4311+
+           4310   16032   16033   16034
CTETRA      2830       4    1365    1370    1368    6625    4298    4293+
+           4295   16035   14853   13207
CTETRA      2831       4    1111    6946    6958    6966   15315   10821+
+          16036   15308   10844   10845
CTETRA      2832       4    1365    6625    1368    6664   16035   13207+
+           4295   13205    9856   13206
CTETRA      2833       4    1368    6625    1369    6626   13207   14856+
+           4294   16032    9863   16033
CTETRA      2834       4    1024    1116    1105    6890    3468    3470+
+           3438   14272   16037   16024
CTETRA      2835       4    1365    1368    1366    6664    4295    4297+
+           4296   13205   13206   15768
CTETRA      2836       4    1060    1064    1065    6963    3314    3318+
+           3316   16038   15537   15536
CTETRA      2837       4    1064    6963    6962    6974   15537   10852+
+          16039   16040   10878   10877
CTETRA      2838       4    1242    6800    6799    6802   15111   10275+
+          15778   14205   10287   10305
CTETRA      2839       4    1258    6799    6800    6801   12332   10275+
+          16041   14777   10274   10273
CTETRA      2840       4    1242    1258    1245    6799    3917    3918+
+           3871   15778   12332   14211
CTETRA      2841       4    1061    1064    6962    6974    3315   16039+
+          16042   16043   16040   10877
CTETRA      2842       4    1213    6563    6538    6565   16044    9509+
+          12808   15931    9508    9507
CTETRA      2843       4    1213    1233    6563    6565    3813   13982+
+          16044   15931   13983    9508
CTETRA      2844       4    1061    1068    1064    6974    3333    3334+
+           3315   16043   16045   16040
CTETRA      2845       4    1213    1224    1214    6565    3768    3772+
+           3773   15931   15932   13673
CTETRA      2846       4    1213    1232    6538    6563    3805   16046+
+          12808   16044   16047    9509
CTETRA      2847       4    1065    6964    6963    6976   13350   10841+
+          15536   15539   10887   10886
CTETRA      2848       4    1039    6849    6839    6851   12603   10466+
+          12602   12582   10474   10473
CTETRA      2849       4    1040    1051    6761    6850    3236   16048+
+          14316   16049   16050   10472
CTETRA      2850       4    1055    6763    6848    6849   14308   10461+
+          14311   12587   10463   10462
CTETRA      2851       4     485     487     991    6786     486    3074+
+           3075   13989   14029   15131
CTETRA      2852       4    1039    1054    1055    6849    3258    3257+
+           3256   12603   14321   12587
CTETRA      2853       4    1066    6974    6969    6976   16051   10889+
+          15532   16052   10888   10890
CTETRA      2854       4    1066    1068    6969    6974    3331   16053+
+          15532   16051   16045   10889
CTETRA      2855       4    1063    1066    6968    6976    3336   12850+
+          12837   14908   16052   10891
CTETRA      2856       4    1055    6832    6840    6848   15731   10433+
+          12585   14311   10458   10459
CTETRA      2857       4     946    1055    1032    6832    3260    3267+
+           3265   13977   15731   15101
CTETRA      2858       4     950    6810    1044    6837   12270   16054+
+           3214   15736   10424   16055
CTETRA      2859       4    1044    1050    6837    6850    3226   16056+
+          16055   16057   16058   10469
CTETRA      2860       4     949     950    1044    6837    3072    3214+
+           3216   16059   15736   16055
CTETRA      2861       4     947     948    6839    6846    2974   15907+
+          14322   16060   16061   10441
CTETRA      2862       4    1395    1397    1396    6679    4412    4409+
+           4407   13897   13895   13894
CTETRA      2863       4    1201    1397    6630    6656    4411   15787+
+          12636   12621   12620    9825
CTETRA      2864       4     949    1044    1050    6837    3216    3226+
+           3225   16059   16055   16056
CTETRA      2865       4     947     948    1039    6839    2974    3228+
+           3229   14322   15907   12602
CTETRA      2866       4    1044    6847    1051    6850   15339   15340+
+           3231   16057   10468   16050
CTETRA      2867       4    1054    6762    1056    6763   15499   15533+
+           3270   14312   10479   15501
CTETRA      2868       4     950    1047    1044    6810    3208    3215+
+           3214   12270   14921   16054
CTETRA      2869       4    1041    1051    6760    6761    3240   15341+
+          16062   14317   16048   10471
CTETRA      2870       4    1054    6762    6763    6849   15499   10479+
+          14312   14321   10478   10463
CTETRA      2871       4    1034    1056    1035    6895    3272    3274+
+           3273   15502   15503   13522
CTETRA      2872       4    1012    6500    1017    6501   13386   13384+
+           3173   13387    9574   13396
CTETRA      2873       4    1010    6574    6573    6586   14061    9572+
+          12695   14062    9622    9621
CTETRA      2874       4     959    1012    1017    6501    3169    3173+
+           3172   12706   13387   13396
CTETRA      2875       4    1012    1014    1013    6588    3166    3165+
+           3167   14591   12287   12286
CTETRA      2876       4     959     960    1012    6589    3021    3168+
+           3169   12708   12290   14592
CTETRA      2877       4     960    6587    1014    6589   12289   15343+
+           3170   12290    9631   14594
CTETRA      2878       4    1001    1009    6585    6586    3159   12280+
+          12295   12294   14049    9619
CTETRA      2879       4     904     905     906    6987    2778    2786+
+           2785   15571   16063   16064
CTETRA      2880       4     995    1011    1001    6600    3152    3153+
+           3117   12692   16065   12296
CTETRA      2881       4    1011    6574    6586    6599   14060    9622+
+          14063   12689    9656    9657
CTETRA      2882       4     904     905    6987    7007    2778   16063+
+          15571   16066   15567   10922
CTETRA      2883       4     995    6599    6600    6601   12690    9659+
+          12692   16067    9666    9667
CTETRA      2884       4     983     984     985    6836    3037    3045+
+           3040   15512   16068   15547
CTETRA      2885       4     879     902    6988    7001    2773   15099+
+          15574   14432   15092   10954
CTETRA      2886       4     903     905     904    7007    2772    2778+
+           2777   15568   15567   16066
CTETRA      2887       4      37      85      38    7231     565     564+
+             47   16069   11697   16070
CTETRA      2888       4      38     861    7231    7232    2674   16071+
+          16070   13482   13481   11703
CTETRA      2889       4      38     861     858    7231    2674    2672+
+           2666   16070   16071   15583
CTETRA      2890       4     965     966     983    6852    2996    3034+
+           3038   15514   16072   15515
CTETRA      2891       4     131     590    5956    6098    2271   14080+
+          14160   15125   14081    8047
CTETRA      2892       4     965    6852    6835    6870   15514   10492+
+          14941   16073   10553   10552
CTETRA      2893       4     965     975     976    6870    2986    2985+
+           2988   16073   16074   16075
CTETRA      2894       4     620     677    5875    5888    2080   12418+
+          15342   12993   12419    7434
CTETRA      2895       4     355     620     677    5875    1928    2080+
+           2073   14589   15342   12418
CTETRA      2896       4     357    5833     620    5875   16076   13232+
+           1927   16077    7381   15342
CTETRA      2897       4     867    6998    6997    7082   12373   10932+
+          16078   12490   11221   11222
CTETRA      2898       4     620     635     621    5874    1931    1933+
+           1932   12415   13234   12416
CTETRA      2899       4     620    5875    5874    5888   15342    7383+
+          12415   12993    7434    7436
CTETRA      2900       4     964     975     965    6835    2982    2986+
+           2987   14940   14950   14941
CTETRA      2901       4     986    6813    6821    6825   14930   10347+
+          15744   15747   10366   10369
CTETRA      2902       4     969     975    6865    6870    2978   16079+
+          14485   16080   16074   10555
CTETRA      2903       4     965    6835     975    6870   14941   14950+
+           2986   16073   10552   16074
CTETRA      2904       4     641     643     642    5951    1978    1979+
+           1970   13733   14384   16081
CTETRA      2905       4     964     974    6834    6842    2980   13974+
+          14948   16082   16083   10419
CTETRA      2906       4     599     636     642    5955    1972    1971+
+           1974   15389   13147   15903
CTETRA      2907       4     968     975    6834    6865    2977   14949+
+          13973   14487   16079   10535
CTETRA      2908       4     642    5946    5951    5952   14583    7681+
+          16081   14585    7680    7682
CTETRA      2909       4     642    5951     643    5952   16081   14384+
+           1979   14585    7682   14386
CTETRA      2910       4     517     941     519    7117    2929    2926+
+            518   14079   12474   13382
CTETRA      2911       4     519     521     328    7107     520   12534+
+          16084   13380   13379   11274
CTETRA      2912       4     605     610     609    6129    1870    1868+
+           1869   14178   14416   14179
CTETRA      2913       4     373     609     591    6042    1858    1862+
+           1860   15292   12047   12046
CTETRA      2914       4     517     324    7110    7117   14088   11245+
+          13375   14079   11266   11268
CTETRA      2915       4     371     605     609    6130    1845    1869+
+           1859   14188   14180   14181
CTETRA      2916       4     373     609    6042    6130    1858   12047+
+          15292   16085   14181    8167
CTETRA      2917       4     610    6127    6128    6129   14403    8185+
+          14415   14416    8184    8173
CTETRA      2918       4     813    7188     819    7189   11886   13454+
+           2519   14203   11569   15613
CTETRA      2919       4     919     931     936    7118    2900    2903+
+           2904   15883   12628   15069
CTETRA      2920       4     931     935     936    7118    2901    2905+
+           2903   12628   12629   15069
CTETRA      2921       4     934     936     935    7118    2906    2905+
+           2907   16086   15069   12629
CTETRA      2922       4     746     781     773    7133    2351    2354+
+           2347   12927   12930   12929
CTETRA      2923       4     934     935     938    7105    2907    2920+
+           2919   16087   15879   16088
CTETRA      2924       4     937     938     940    7109    2922    2931+
+           2932   13960   14078   11995
CTETRA      2925       4     775     779     778    7157    2341    2342+
+           2333   14920   14424   16089
CTETRA      2926       4     937     938    7109    7114    2922   14078+
+          13960   16090   16091   11255
CTETRA      2927       4     772     778     779    7157    2343    2342+
+           2344   16092   16089   14424
CTETRA      2928       4     772     779    7131    7157    2344   14363+
+          14362   16092   14424   11446
CTETRA      2929       4     779    7156    7131    7157   14423   11450+
+          14363   14424   11455   11446
CTETRA      2930       4     938     941     940    7116    2928    2930+
+           2931   13378   12472   13369
CTETRA      2931       4     938    7114    7105    7116   16091   11263+
+          16088   13378   11262   11265
CTETRA      2932       4     511     316     318    7076   16093     317+
+          14112   13615   11187   11188
CTETRA      2933       4     970    6790    6868    6871   16094   10548+
+          16095   16096   10558   10559
CTETRA      2934       4     511    6886     925    7111   14113   12344+
+           2872   14111   11229   12346
CTETRA      2935       4     882    7129     883    7130   16097   16098+
+           2803   15066   11339   16099
CTETRA      2936       4     511    7076     318    7078   13615   11188+
+          14112   13616   11195   11197
CTETRA      2937       4     882     883     936    7130    2803    2911+
+           2910   15066   16099   15070
CTETRA      2938       4     511     318     513    7078   14112   14093+
+            512   13616   11197   14094
CTETRA      2939       4     881     882     934    7104    2814    2908+
+           2909   16100   15064   16101
CTETRA      2940       4     507     316     509    7061   16102   16103+
+            508   14225   11161   16104
CTETRA      2941       4     509     927     511    6886    2868    2869+
+            510   16105   14109   14113
CTETRA      2942       4     931    7106    7118    7120   12626   11279+
+          12628   12642   11277   11280
CTETRA      2943       4     509     927    6886    6935    2868   14109+
+          16105   16106   16107   10734
CTETRA      2944       4    1377    1397    1395    6630    4413    4412+
+           4402   15773   15787   16108
CTETRA      2945       4     507     509     316    6935     508   16103+
+          16102   13418   16106   10736
CTETRA      2946       4     521     933     523    7121    2891    2890+
+            522   12535   12470   12469
CTETRA      2947       4     509    7061     316    7076   16104   11161+
+          16103   16109   11185   11187
CTETRA      2948       4     509    6886     316    6935   16105   10732+
+          16103   16106   10734   10736
CTETRA      2949       4     927    6885    6886    6935   14110   10735+
+          14109   16107   10729   10734
CTETRA      2950       4     509     511     316    6886     510   16093+
+          16103   16105   14113   10732
CTETRA      2951       4     925    6991     928    7112   12345   12348+
+           2886   13946   11231   12359
CTETRA      2952       4     890    6998    7012    7016   12365   10908+
+          12367   15380   10930   10933
CTETRA      2953       4     893     895     894    7043    2700    2705+
+           2706   16110   14232   14972
CTETRA      2954       4    1140    1155    1146    7057    3632    3631+
+           3607   15084   15082   15518
CTETRA      2955       4     866     895     893    7043    2696    2700+
+           2699   12488   14232   16110
CTETRA      2956       4    1139    1142    1140    7070    3581    3584+
+           3583   12498   13968   13967
CTETRA      2957       4    1140    7070    6995    7072   13967   11167+
+          12154   15079   11181   11179
CTETRA      2958       4     856     858     860    7224    2660    2669+
+           2668   16111   15581   14852
CTETRA      2959       4     861    7232    7230    7233   13481   11701+
+          11879   11882   11707   11710
CTETRA      2960       4     746    6983    7132    7158   14969   11344+
+          12926   14970   11457   11458
CTETRA      2961       4     839     853     856    7222    2646    2655+
+           2651   13458   12430   15051
CTETRA      2962       4     745    6982    7000    7048   12923   10899+
+          14959   12918   11094   11095
CTETRA      2963       4     780     781    6981    7133    2356   14951+
+          14914   12931   12930   11349
CTETRA      2964       4     826     832    7196    7211    2557   14999+
+          14998   16112   14193   11630
CTETRA      2965       4     831     832     847    7212    2572    2603+
+           2602   14995   14192   16113
CTETRA      2966       4     833    7211    7210    7245   13489   11635+
+          16114   13490   11758   11759
CTETRA      2967       4     745    6982     892    7000   12923   16115+
+           2714   14959   10899   15893
CTETRA      2968       4     892    6982    6983    7000   16115   10900+
+          16116   15893   10899   10898
CTETRA      2969       4     832    7211     851    7243   14193   13488+
+           2630   14194   11749   13492
CTETRA      2970       4     832     847    7212    7243    2603   16113+
+          14192   14194   14195   11748
CTETRA      2971       4     844    7238     846    7239   14983   14985+
+           2608   16117   11730   16118
CTETRA      2972       4     746    6982     781    7133   12925   12924+
+           2351   12927   11348   12930
CTETRA      2973       4     892    7000    6983    7013   15893   10898+
+          16116   15895   10901   10904
CTETRA      2974       4     764     792     790    7163    2423    2425+
+           2414   14764   12353   12352
CTETRA      2975       4     790    7162    7163    7177   12908   11525+
+          12352   12349   11524   11516
CTETRA      2976       4     792    7174     795    7177   16119   15454+
+           2442   12350   11518   16120
CTETRA      2977       4    1033    6764    6763    6954   14325   10464+
+          14309   16121   10802   10800
CTETRA      2978       4    1034    1035    1077    6954    3273    3369+
+           3368   15710   13524   14958
CTETRA      2979       4    1033    1034    1075    6954    3262    3366+
+           3367   16121   15710   12567
CTETRA      2980       4     792    7176    7174    7177   13928   11513+
+          16119   12350   11515   11518
CTETRA      2981       4     765     792    7163    7176    2424   12353+
+          14763   13926   13928   11514
CTETRA      2982       4     757     774     777    7087    2318    2325+
+           2324   16122   15630   15631
CTETRA      2983       4     956     957    1008    6824    3058    3140+
+           3143   16123   16124   16125
CTETRA      2984       4     958    6820    1007    6824   15862   15322+
+           3142   16126   10360   15323
CTETRA      2985       4     770    7166    7184    7185   15629   11542+
+          16127   15626   11541   11544
CTETRA      2986       4     758     770    7184    7185    2328   16127+
+          16128   15624   15626   11544
CTETRA      2987       4     771     783    7165    7169    2377   15700+
+          16129   16130   16131   11486
CTETRA      2988       4     958    6821    6820    6824   15753   10353+
+          15862   16126   10361   10360
CTETRA      2989       4     759     770    7165    7184    2330   15694+
+          15052   15054   16127   11543
CTETRA      2990       4     956     990     989    6825    3067    3068+
+           3057   15364   15734   15363
CTETRA      2991       4     957    6821    6824    6825   15752   10361+
+          16124   15365   10369   10370
CTETRA      2992       4     702    5913     716    5934   16132   16133+
+           2223   16134    7605   16135
CTETRA      2993       4     375     182     377    5996   14517   15295+
+            376   14518    7826   12616
CTETRA      2994       4     701     702     716    5934    2176    2223+
+           2222   16136   16134   16135
CTETRA      2995       4     702    5932     704    5935   15653   15019+
+           2177   15648    7616   15649
CTETRA      2996       4    1208    1261    6509    6806    3936   16137+
+          15123   14331   14337   10313
CTETRA      2997       4    1208    1209    6806    6807    3832   14332+
+          14331   16138   14339   10324
CTETRA      2998       4     349     351     158    5890     350   15658+
+          14102   15925   15665    7450
CTETRA      2999       4    1208    6509    6508    6806   15123    9550+
+          14525   14331   10313   10314
CTETRA      3000       4      59     718     702    5913    2232    2234+
+           2192   16139   16140   16132
CTETRA      3001       4     727    5940    5939    6096   12882    7639+
+          12433   12883    8024    8023
CTETRA      3002       4     701    5932     702    5934   15652   15653+
+           2176   16136    7615   16134
CTETRA      3003       4    1259    6509    1261    6510   15127   16137+
+           3931   15191    9553   15119
CTETRA      3004       4    1261    6805    6509    6806   14336   10315+
+          16137   14337   10310   10313
CTETRA      3005       4     713    5912    5923    5934   15645    7606+
+          15643   16141    7604    7607
CTETRA      3006       4    1049    6787    6774    6788   12478   10268+
+          12476   14917   10263   10266
CTETRA      3007       4     952    1049    6770    6787    3204   14047+
+          14038   14923   12478   10251
CTETRA      3008       4    1030    1049    6774    6788    3202   12476+
+          12479   14532   14917   10266
CTETRA      3009       4     951    1049    6769    6770    3205   12278+
+          12277   12316   14047   10253
CTETRA      3010       4     713     716     715    5912    2226    2229+
+           2228   15645   16142   14640
CTETRA      3011       4     716    5912    5913    5916   16142    7522+
+          16133   16143    7521    7520
CTETRA      3012       4     487     489     296    6940     488   14961+
+          14013   14007   14023   10752
CTETRA      3013       4     489     296     491    6780   14961   16144+
+            490   16145   10193   16146
CTETRA      3014       4     487     296     489    6777   14013   14961+
+            488   14014   10203   16147
CTETRA      3015       4     716     717    5912    5916    2230   14641+
+          16142   16143   16148    7521
CTETRA      3016       4     709    5924     710    5927   13534   13526+
+           2198   13006    7577   11957
CTETRA      3017       4     489     954     993    6780    3081    3083+
+           3077   16145   15786   16149
CTETRA      3018       4     491     298    6778    6780   16150   10194+
+          12143   16146   10192   10196
CTETRA      3019       4     698     711     710    5927    2203    2205+
+           2202   11956   11960   11957
CTETRA      3020       4     954    6776     993    6780   15785   16151+
+           3083   15786   10200   16149
CTETRA      3021       4     953    6776     954    6779   15782   15785+
+           3085   15783   10199   15784
CTETRA      3022       4     706    5925    5924    5931   13528    7572+
+          13527   15646    7600    7601
CTETRA      3023       4    1074    6971    6972    6973   14449   10861+
+          12981   12983   10868   10869
CTETRA      3024       4     489    1073    1074    6971    3352    3357+
+           3349   14962   14448   14449
CTETRA      3025       4     696    5925     706    5929   16152   13528+
+           2173   16153    7591   16154
CTETRA      3026       4     656    5854    5853    5855   15682    7307+
+          16155   15683    7313    7316
CTETRA      3027       4     491    1173     954    6778    3692    3693+
+           3082   12143   12118   16156
CTETRA      3028       4     491    1067     493    6973    3329    3328+
+            492   15490   12982   16157
CTETRA      3029       4     491     298     493    6778   16150   16158+
+            492   12143   10194   12119
CTETRA      3030       4    1443    1444    6708    6712    4504   12005+
+          12004   15433   12015   10050
CTETRA      3031       4     359     659     656    5854    2014    2016+
+           2015   15670   16159   15682
CTETRA      3032       4     658    5843    5844    5854   16160    7308+
+          16161   16162    7303    7306
CTETRA      3033       4     659    5844    5853    5854   13444    7291+
+          16163   16159    7306    7307
CTETRA      3034       4    1184    1444    1432    5965    4493    4495+
+           4491   14343   14342   14069
CTETRA      3035       4    1183    5964    1184    5965   15945   16164+
+           4111   14068    8262   14343
CTETRA      3036       4     658     660     659    5844    2020    2021+
+           2013   16161   13440   13444
CTETRA      3037       4    1183    5964    5965    6176   15945    8262+
+          14068   12715    8261    8260
CTETRA      3038       4     357    5843     658    5854   16165   16160+
+           2008   15669    7303   16162
CTETRA      3039       4     359    5833     166    5948   15672    7662+
+          15671   13290    7664    7663
CTETRA      3040       4    1365    6664    1381    6671   13205   13202+
+           4339   13187    9884   13188
CTETRA      3041       4    1374    1381    1375    6670    4338    4341+
+           4343   13191   13190   16166
CTETRA      3042       4    1381    6669    6670    6671   13184    9891+
+          13190   13188    9890    9886
CTETRA      3043       4     632     634     633    5949    1925    1924+
+           1926   12951   12950   12949
CTETRA      3044       4     622     632     638    5835    1954    1953+
+           1956   15662   15661   13790
CTETRA      3045       4     369     176     371    5938   12196   14184+
+            370   12869    7628   12870
CTETRA      3046       4     367     369     174    5826     368   12197+
+          12187   16167   12198    7279
CTETRA      3047       4    1015    1016    1018    6499    3180    3191+
+           3192   16168   15159   15528
CTETRA      3048       4      20     616      21    5828    1901    1898+
+             29   11836   15688   11837
CTETRA      3049       4    1012    1013    6572    6588    3167   14330+
+          13388   14591   12286    9624
CTETRA      3050       4     580     581     606    5824    1847    1839+
+           1846   15047   16169   14509
CTETRA      3051       4     581    5827    5828    5829   15689    7264+
+          15693   14513    7263    7262
CTETRA      3052       4     853    7217    7220    7222   12428   11654+
+          16170   12430   11657   11652
CTETRA      3053       4     838     839     856    7221    2588    2651+
+           2652   12424   14212   12425
CTETRA      3054       4     733    1224    1217    6536    3763    3765+
+           3740   13309   14600   16171
CTETRA      3055       4     732     733    6532    6533    3007   16172+
+          13312   16173   14267    9442
CTETRA      3056       4     732     733    1217    6532    3007    3740+
+           3739   13312   16172   13313
CTETRA      3057       4     853     857     856    7220    2657    2658+
+           2655   16170   15593   15592
CTETRA      3058       4     839     840     853    7222    2594    2644+
+           2646   13458   12432   12430
CTETRA      3059       4     853    7220     856    7222   16170   15592+
+           2655   12430   11652   15051
CTETRA      3060       4    1505    6485    6483    6486   12821    9338+
+          15840   12822    9337    9339
CTETRA      3061       4     856    7221    7220    7224   12425   11653+
+          15592   16111   11665   11671
CTETRA      3062       4    1506    6468    6485    6486   15534    9334+
+          12820   12823    9335    9337
CTETRA      3063       4    1506    1534    1522    6486    4770    4781+
+           4778   12823   16174   13140
CTETRA      3064       4     858    7224    7231    7233   15581   11704+
+          15583   14848   11706   11705
CTETRA      3065       4     824     831     830    7213    2573    2575+
+           2574   16175   16176   16177
CTETRA      3066       4     830    7213     844    7234   16177   16178+
+           2600   16179   11717   16180
CTETRA      3067       4     756    7087    7088    7154   16181   11436+
+          14120   16182   11435   11434
CTETRA      3068       4     756     774     757    7087    2315    2318+
+           2317   16181   15630   16122
CTETRA      3069       4    1621    6398    6399    6429   14445    9128+
+          14446   13998    9125    9129
CTETRA      3070       4     771     777    7086    7166    2335   12376+
+          12375   16183   15627   11481
CTETRA      3071       4     758     770     759    7184    2328    2330+
+           2329   16128   16127   15054
CTETRA      3072       4    1517    1518    1573    6452    4831    4952+
+           4955   14411   12274   12275
CTETRA      3073       4     758    7185    7184    7200   15624   11544+
+          16128   16184   11589   11591
CTETRA      3074       4    1569    6350    6349    6451   12266    9032+
+          14718   12267    9227    9219
CTETRA      3075       4      33      79      80    7244     569     100+
+            572   15432   11755   11754
CTETRA      3076       4    1574    6386    6389    6390   16185    9009+
+          15540   15541    9019    9020
CTETRA      3077       4     752     806     753    7140    2481    2489+
+           2490   16186   16187   13600
CTETRA      3078       4     754    7137    7138    7139   15376   11377+
+          16188   15373   11376   11375
CTETRA      3079       4     918    7102    7137    7139   14128   11380+
+          14292   15372   11383   11376
CTETRA      3080       4     529    7134     336    7139   16189   11359+
+          16190   16191   11378   11379
CTETRA      3081       4     934     936    7118    7130    2906   15069+
+          16086   16192   15070   11341
CTETRA      3082       4    1588    1611    1607    6287    5020    5021+
+           5005   12085   15088   14618
CTETRA      3083       4    1606    6250    6251    6289   14472    8657+
+          13857   12704    8653    8656
CTETRA      3084       4     833     834     852    7210    2562    2633+
+           2632   16114   12760   12723
CTETRA      3085       4     919    7118    7119    7124   15883   11300+
+          16193   13417   11298   11301
CTETRA      3086       4      33      80      34     848     572     575+
+             52    2613   16194    2612
CTETRA      3087       4    1122    1123    6879    7028    3510   15723+
+          16195   13349   16196   11012
CTETRA      3088       4    1680    1701    1699    6280    5330    5329+
+           5328   15844   12568   15989
CTETRA      3089       4    1122    6879    6878    7028   16195   10608+
+          16197   13349   11012   11010
CTETRA      3090       4    1698    1699    1701    6280    5327    5329+
+           5335   12905   15989   12568
CTETRA      3091       4    1122    1125    1124    6878    3518    3519+
+           3515   16197   16198   16199
CTETRA      3092       4     509    1132    7061    7076    3556   12500+
+          16104   16109   12501   11185
CTETRA      3093       4     925     942    7111    7112    2936   14107+
+          12346   13946   13949   11232
CTETRA      3094       4    1437    5971    5970    6690   16200    8303+
+          12056   12058    9959    9957
CTETRA      3095       4    1437    1484    5970    6138    4651   16201+
+          12056   16202   16203    8302
CTETRA      3096       4    1449    5970    6688    6690   12057    9955+
+          15428   12059    9957    9953
CTETRA      3097       4     509     913     927    6935    2819    2870+
+           2868   16106   13413   16107
CTETRA      3098       4     968     969    6865    6866    2963   14485+
+          14487   14488   14486   10536
CTETRA      3099       4     433     435     242    6690     434   13095+
+          14490   15098   16204    9948
CTETRA      3100       4    1746    6117    1765    6122   16205   12264+
+           5552   12259    8141   12258
CTETRA      3101       4     945    6832    6859    6866   13975   10515+
+          16206   16207   10532   10530
CTETRA      3102       4     969    6864     972    6871   14484   16208+
+           2962   16209   10563   16210
CTETRA      3103       4    1746    1747    6046    6122    5544   14141+
+          13815   12259   13797    8136
CTETRA      3104       4    1746    1764    1747    6122    5543    5542+
+           5544   12259   12257   13797
CTETRA      3105       4    1745    1765    1746    6117    5549    5552+
+           5554   13915   12264   16205
CTETRA      3106       4    1751    6118    6121    6122   14587    8147+
+          13802   12256    8145    8144
CTETRA      3107       4    1746    6045    6117    6122   13814    8139+
+          16205   12259    8138    8141
CTETRA      3108       4    1746    6046    6045    6122   13815    7914+
+          13814   12259    8136    8138
CTETRA      3109       4      39      86      87    7230     559      93+
+            557   13479   11693   11692
CTETRA      3110       4    1031    6775    6774    6787   13338   10214+
+          12475   12477   10256   10268
CTETRA      3111       4     604    5841     631    6104   16211   15904+
+           1907   16212    8089   16213
CTETRA      3112       4     631    5841    6094    6104   15904    8028+
+          12978   16213    8089    8093
CTETRA      3113       4      38    7231      85    7232   16070   11697+
+            564   13482   11703   11702
CTETRA      3114       4      39      86    7230    7232     559   11693+
+          13479   13480   11700   11701
CTETRA      3115       4      24     608     611    6082    1875    1874+
+           1877   16214   16215   16216
CTETRA      3116       4    1444    6712    5966    6713   12015   10042+
+          12014   14345   10049   10048
CTETRA      3117       4    1186    1445    1443    6694    4510    4511+
+           4499   13180   14728   13173
CTETRA      3118       4    1447    5968    6684    6693   12725    9976+
+          12736   13176    9975    9978
CTETRA      3119       4     588     597     589    6102    2276    2275+
+           2277   12391   12409   13832
CTETRA      3120       4    1443    1445    1446    6694    4511    4513+
+           4516   13173   14728   13174
CTETRA      3121       4     603    6103    6081    6104   16217    8090+
+          16218   16219    8092    8086
CTETRA      3122       4    1186    6695    6708    6710   13159   10028+
+          13168   13160   10020   10030
CTETRA      3123       4    1442    1443    6684    6712    4505   13172+
+          13177   13178   15433   10039
CTETRA      3124       4    1212    6553    6538    6555   12815    9452+
+          13302   14783    9462    9464
CTETRA      3125       4    1211    6543    1222    6555   16220   13742+
+           3756   14907    9463   14779
CTETRA      3126       4     608     611    6082    6125    1874   16216+
+          16215   16221   14859    8187
CTETRA      3127       4     681    5886     684    5899   12392   14877+
+           2100   13546    7489   16222
CTETRA      3128       4     684    5886    5885    5899   14877    7446+
+          13794   16222    7489    7491
CTETRA      3129       4    1212    6538    6539    6555   13302    9465+
+          16223   14783    9464    9466
CTETRA      3130       4     967    6505    6504    6853   16224    9487+
+          12033   12035   10484   10483
CTETRA      3131       4     966     967     978    6853    3001    3015+
+           3033   16225   12035   12036
CTETRA      3132       4     965     985    6835    6836    3039   14942+
+          14941   15513   15547   10422
CTETRA      3133       4     983    6815    6836    6854   14864   10416+
+          15512   14866   10490   10493
CTETRA      3134       4     964     988    6842    6843    3048   14939+
+          16082   16226   14938   10414
CTETRA      3135       4     984    6814     985    6836   14927   14929+
+           3045   16068   10415   15547
CTETRA      3136       4      24     604     608    6082    1876    1857+
+           1875   16214   16227   16215
CTETRA      3137       4     622    5835     638    5872   15662   13790+
+           1956   14662    7392   13792
CTETRA      3138       4    1504    6456    1505    6457   15836   16228+
+           4758   13697    9236   15839
CTETRA      3139       4    1505    1534    1506    6486    4768    4770+
+           4769   12822   16174   12823
CTETRA      3140       4    1505    1619    1592    6457    5070    5069+
+           5067   15839   16229   15838
CTETRA      3141       4     596     597    6080    6103    1853   12410+
+          14639   16230   12411    8082
CTETRA      3142       4    1506    1522    1507    6469    4778    4780+
+           4779   13139   12526   16231
CTETRA      3143       4    1504    6396    1657    6463   13698   15841+
+           5229   13699    9237   13696
CTETRA      3144       4    1623    1625    6425    6427    5114   13573+
+          16003   14442   13574    9112
CTETRA      3145       4     620     680     677    5888    2083    2081+
+           2080   12993   12994   12419
CTETRA      3146       4    1506    1620    1619    6468    5073    5075+
+           5074   15534   15215   16232
CTETRA      3147       4    1506    6468    1619    6485   15534   16232+
+           5074   12820    9334   16233
CTETRA      3148       4    1504    1527    1505    6456    4757    4759+
+           4758   15836   15959   16228
CTETRA      3149       4    1747    1774    1772    6046    5587    5586+
+           5585   14141   16234   11848
CTETRA      3150       4    1747    1774    6046    6047    5587   16234+
+          14141   14647   16235    7919
CTETRA      3151       4    1771    1774    1773    6058    5591    5592+
+           5589   11844   11846   13799
CTETRA      3152       4    1774    6047    6048    6051   16235    7896+
+          15711   11850    7895    7894
CTETRA      3153       4    1505    6457    6456    6483   15839    9236+
+          16228   15840    9317    9316
CTETRA      3154       4    1528    6456    6455    6484   15957    9241+
+          15956   15823    9318    9319
CTETRA      3155       4    1747    1748    1774    6047    5539    5593+
+           5587   14647   14646   16235
CTETRA      3156       4    1747    1761    6105    6113    5538   15717+
+          14648   13796   14140    8123
CTETRA      3157       4    1504    1505    1592    6457    4758    5067+
+           5068   13697   15839   15838
CTETRA      3158       4     603     608     604    6104    1855    1857+
+           1856   16219   16236   16212
CTETRA      3159       4    1774    6046    6047    6058   16234    7919+
+          16235   11846    7918    7920
CTETRA      3160       4    1748    1774    6047    6048    5593   16235+
+          14646   14634   15711    7896
CTETRA      3161       4    1748    6105    1763    6109   14649   16237+
+           5540   15718    8099   14624
CTETRA      3162       4    1504    1530    6456    6462    4754   15958+
+          15836   16238   16239    9239
CTETRA      3163       4    1596    6411    1642    6419   11935   16240+
+           5173   11936    9089   13613
CTETRA      3164       4    1749    1750    1777    6049    5535    5602+
+           5608   16241   14651   14652
CTETRA      3165       4    1598    6245    1631    6411   15842   16242+
+           5140   16243    9049   16244
CTETRA      3166       4    1749    1750    6049    6068    5535   14651+
+          16241   16245   14621    7984
CTETRA      3167       4    1749    6049    6048    6109   16241    7898+
+          14635   14623    8094    8096
CTETRA      3168       4    1749    1762    1750    6068    5534    5523+
+           5535   16245   14622   14621
CTETRA      3169       4    1616    6246    1618    6296   14159   14158+
+           5059   13563    8690   13564
CTETRA      3170       4    1721    6338    1723    6339   14026   11866+
+           5430   13044    8871   11929
CTETRA      3171       4    1623    1624    1625    6427    5089    5095+
+           5114   14442   13877   13574
CTETRA      3172       4    1724    6333    1728    6342   12656   12658+
+           5445   12657    8856   12660
CTETRA      3173       4    1727    6327    6326    6332   16246    8829+
+          16247   15370    8841    8844
CTETRA      3174       4     395     397    1629    5972     396    5116+
+           5115   15981   15982   16248
CTETRA      3175       4    1398    1427    6464    6465    4460   14738+
+          16249   16250   14739    9264
CTETRA      3176       4    1398    6458    6393    6465   16251    9249+
+          16252   16250    9261    9260
CTETRA      3177       4     417    1427    1398    6465    4461    4460+
+           4459   14744   14739   16250
CTETRA      3178       4     415    1398    6393    6465    4462   16252+
+          16253   16254   16250    9260
CTETRA      3179       4     395    1729    6341    6343    5444   14024+
+          15986   15985   14025    8861
CTETRA      3180       4    1398    6464    6458    6465   16249    9258+
+          16251   16250    9264    9261
CTETRA      3181       4    1732    6328    6315    6330   12559    8813+
+          16255   12560    8815    8814
CTETRA      3182       4    1725    1734    6333    6335    5470   13058+
+          13068   13057   13056    8835
CTETRA      3183       4    1734    6335    6336    6337   13056    8850+
+          13084   13060    8846    8849
CTETRA      3184       4     595     608     596    6081    1850    1849+
+           1851   14086   16256   16257
CTETRA      3185       4    1398    1502    1653    6458    4743    5217+
+           5209   16251   16258   16259
CTETRA      3186       4     413    1653    1652    6437    5210    5212+
+           5211   15738   15546   15552
CTETRA      3187       4    1652    1653    6394    6437    5212   15545+
+          15550   15552   15546    9177
CTETRA      3188       4    1653    6394    6393    6458   15545    9181+
+          15544   16259    9247    9249
CTETRA      3189       4     415     224     417    6465   16260   16261+
+            416   16254    9263   14744
CTETRA      3190       4     415     220     222    6393   16262     221+
+          16263   16253    9178    9179
CTETRA      3191       4     415    6393     222    6465   16253    9179+
+          16263   16254    9260    9262
CTETRA      3192       4    1730    1731    1732    6330    5458    5465+
+           5464   14034   16264   12560
CTETRA      3193       4    1672    6320    1720    6323   16265   16266+
+           5414   16267    8792   15388
CTETRA      3194       4    1671    1672    1711    6323    5309    5391+
+           5388   16268   16267   15387
CTETRA      3195       4     415    1570    1568    6348    4946    4949+
+           4947   13852   16269   12843
CTETRA      3196       4     415     222     220    6348   16263     221+
+          16262   13852    9034    9035
CTETRA      3197       4     415    1568     417    6392    4947    4948+
+            416   13853   12845   16270
CTETRA      3198       4    1523    1533    1524    6480    4774    4776+
+           4775   13134   13137   16271
CTETRA      3199       4    1711    6323    6321    6324   15387    8794+
+          15386   12674    8796    8795
CTETRA      3200       4    1698    6263    6264    6277   12901    8572+
+          12904   15992    8571    8570
CTETRA      3201       4    1693    6265    1697    6278   15252   15251+
+           5314   12894    8565   14660
CTETRA      3202       4    1488    6161    6183    6189   16272    8308+
+          14703   14701    8332    8334
CTETRA      3203       4    1474    1475    6162    6189    4681   15758+
+          15756   16273   14700    8333
CTETRA      3204       4    1475    1496    6163    6190    4726   15969+
+          16029   16274   11984    8336
CTETRA      3205       4    1672    1693    6264    6265    5311   14667+
+          16275   15250   15252    8567
CTETRA      3206       4    1672    6265    6264    6323   15250    8567+
+          16275   16267    8789    8788
CTETRA      3207       4    1475    6189    1487    6192   14700   14702+
+           4670   16276    8351   11976
CTETRA      3208       4    1438    1439    6691    6693    4530   11988+
+          15425   16277   12741    9980
CTETRA      3209       4    1755    6080    6079    6120   16278    8081+
+          12389   13128    8198    8156
CTETRA      3210       4    1475    1476    6190    6192    4671   11983+
+          16274   16276   14753    8348
CTETRA      3211       4    1479    1488    6183    6191    4683   14703+
+          16279   14766   14704    8341
CTETRA      3212       4    1479    1487    1488    6191    4684    4680+
+           4683   14766   11974   14704
CTETRA      3213       4    1182    6171    1330    6175   16280   16281+
+           4163   14353    8247   16282
CTETRA      3214       4    1440    1446    1445    6685    4514    4513+
+           4512   13183   12729   14727
CTETRA      3215       4     596    6081    6080    6134   16257    8091+
+          14639   14637    8195    8197
CTETRA      3216       4     596     608     603    6081    1849    1855+
+           1852   16257   16256   16218
CTETRA      3217       4    1445    6694    6695    6700   14728    9986+
+          14973   14729    9985    9987
CTETRA      3218       4    1187    6695    6698    6700   13945    9993+
+          13941   14974    9987    9996
CTETRA      3219       4     604    6082    5842    6104   16227    8083+
+          16283   16212    8085    8088
CTETRA      3220       4    1187    6698    1441    6700   13941   13687+
+           4506   14974    9996   15916
CTETRA      3221       4    1385    1391    6620    6683    4396   14794+
+          13922   14986   16284    9946
CTETRA      3222       4    1385    1389    1386    6682    4367    4370+
+           4369   15153   15217   15197
CTETRA      3223       4    1385    1386    6681    6682    4369   14372+
+          15151   15153   15197    9938
CTETRA      3224       4    1391    1394    6680    6683    4394   13899+
+          15441   16284   16285    9941
CTETRA      3225       4      23     604      24    5842    1888    1876+
+             26   15325   16283   16286
CTETRA      3226       4    1385    1394    1391    6683    4397    4394+
+           4396   14986   16285   16284
CTETRA      3227       4    1384    1385    1391    6620    4361    4396+
+           4390   13923   13922   14794
CTETRA      3228       4    1384    1387    1385    6621    4360    4362+
+           4361   13924   13934   13925
CTETRA      3229       4     607    5823    6132    6133   14500    8180+
+          14494   14501    8179    8181
CTETRA      3230       4      24      13    6082    6131     541    8084+
+          16214   16287    8174    8175
CTETRA      3231       4       2      24     611    6131      25    1877+
+           1884   15891   16287   15889
CTETRA      3232       4    1272    1370    1364    6717    4291    4301+
+           4299   15270   14855   15765
CTETRA      3233       4    1364    1370    6624    6717    4301   14854+
+          13215   15765   14855   10054
CTETRA      3234       4    1273    1370    6717    6739    4290   14855+
+          14861   14862   14858   10134
CTETRA      3235       4       2     611     612    6132    1884    1880+
+           1887   14492   15890   14493
CTETRA      3236       4    1273    1369    1370    6739    4288    4292+
+           4290   14862   14857   14858
CTETRA      3237       4    1364    1370    1365    6624    4301    4298+
+           4302   13215   14854   13204
CTETRA      3238       4    1815    1818    6087    6096    5762   16288+
+          11829   15163   15367    8020
CTETRA      3239       4     608    6082    6081    6125   16215    8087+
+          16256   16221    8187    8188
CTETRA      3240       4     586    1760    1751    6119    5513    5512+
+           5511   14084   14644   16289
CTETRA      3241       4    1341    6610    1342    6614   16290   15791+
+           4209   13300    9722   15793
CTETRA      3242       4     586     587    6119    6134    2281   14645+
+          14084   14083   13133    8203
CTETRA      3243       4    1334    1335    1352    6590    4207    4240+
+           4239   16291   13297   16292
CTETRA      3244       4     627    5840     631    5841   16293   12975+
+           1910   16294    7322   15904
CTETRA      3245       4    1336    1347    1353    6593    4248    4247+
+           4250   15043   14759   14754
CTETRA      3246       4    1334    1341    6590    6615    4202   13298+
+          16291   16295   15149    9724
CTETRA      3247       4    1341    6614    6590    6615   13300    9717+
+          13298   15149    9723    9724
CTETRA      3248       4    1670    1695    5982    6055    5298   15866+
+          16296   14544   16297    7901
CTETRA      3249       4    1695    5987    5982    6055   16298    7870+
+          15866   16297    7899    7901
CTETRA      3250       4     611    6082    6125    6131   16216    8187+
+          14859   15889    8175    8189
CTETRA      3251       4    1335    1353    1352    6595    4253    4252+
+           4240   14749   14750   14762
CTETRA      3252       4    1348    1349    1352    6580    4226    4243+
+           4251   14756   16299   14761
CTETRA      3253       4    1334    1352    6579    6590    4239   16300+
+          16301   16291   16292    9644
CTETRA      3254       4    1335    1352    6590    6595    4240   16292+
+          13297   14749   14762    9645
CTETRA      3255       4    1348    1352    1353    6595    4251    4252+
+           4245   14757   14762   14750
CTETRA      3256       4    1670    5982    5983    6055   16296    7902+
+          14290   14544    7901    7903
CTETRA      3257       4    1298    6203    6204    6207   13676    8418+
+          16302   14479    8417    8416
CTETRA      3258       4    1298    1302    6204    6220    4039   12946+
+          16302   13679   12947    8475
CTETRA      3259       4    1298    1302    1301    6204    4039    4041+
+           4040   16302   12946   13950
CTETRA      3260       4    1296    1298    1297    6207    4018    4020+
+           4019   14478   14479   12953
CTETRA      3261       4    1298    6204    6203    6220   16302    8418+
+          13676   13679    8475    8478
CTETRA      3262       4     586     594     595    6135    2284    1873+
+           2280   12137   12128   12127
CTETRA      3263       4    1711    1720    1716    6321    5415    5418+
+           5408   15386   15385   13661
CTETRA      3264       4    1736    1790    5999    6034    5649   16303+
+          16304   16305   16306    7852
CTETRA      3265       4     477    1243    6794    6803    3859   15819+
+          16307   16308   15820   10295
CTETRA      3266       4     741    1243    6793    6794    3866   13911+
+          15780   15816   15819   10296
CTETRA      3267       4    1241    6792    6793    6802   13903   10292+
+          13912   14204   10291   10289
CTETRA      3268       4    1242    6802    1243    6803   14205   15779+
+           3862   15112   10288   15820
CTETRA      3269       4    1737    6026    6034    6035   13824    7846+
+          16309   13827    7842    7847
CTETRA      3270       4    1782    6010    6009    6015   14616    7707+
+          16310   16311    7732    7731
CTETRA      3271       4    1782    6010    6015    6017   14616    7732+
+          16311   16312    7737    7739
CTETRA      3272       4    1782    6009    1783    6015   16310   16313+
+           5642   16311    7731   16314
CTETRA      3273       4     389     196    6012    6014   14401    7699+
+          15908   14283    7697    7701
CTETRA      3274       4    1787    6015    6001    6017   16315    7740+
+          13724   16316    7739    7742
CTETRA      3275       4    1783    6015    6009    6016   16314    7731+
+          16313   16317    7733    7724
CTETRA      3276       4     647     662     663    5866    2026    2032+
+           2029   15351   15350   15408
CTETRA      3277       4    1215    6543    1221    6548   13741   14782+
+           3744   12517    9401   14904
CTETRA      3278       4     648     663    5865    5866    2031   15418+
+          15405   15409   15408    7369
CTETRA      3279       4    1193    1221    1194    6546    3743    3746+
+           3745   14903   12739   14807
CTETRA      3280       4     646     662     647    5867    2027    2026+
+           2028   13074   13199   15352
CTETRA      3281       4    1193    1215    1221    6548    3735    3744+
+           3743   12516   12517   14904
CTETRA      3282       4    1211    1221    6543    6544    3754   14782+
+          16220   12732   12737    9407
CTETRA      3283       4     617    5852    5820    5855   16318    7314+
+          16319   16320    7315    7310
CTETRA      3284       4     359     166     164    5854   15671     165+
+          15667   15670    7312    7304
CTETRA      3285       4    1210    1221    1211    6544    3750    3754+
+           3755   12731   12737   12732
CTETRA      3286       4     617    5821    5820    5852   16321    7270+
+          16319   16318    7297    7314
CTETRA      3287       4     355     164     357    5875   16322   15668+
+            356   14589    7384   16077
CTETRA      3288       4     355     357     164    5843     356   15668+
+          16322   16323   16165    7302
CTETRA      3289       4     113     707    5924    5937   16324   13533+
+           7576    7624   16325    7623
CTETRA      3290       4    1157    6874    1162    7053   16006   15495+
+           3658   15492   11106   15493
CTETRA      3291       4     705    5931     707    5937   15024   15647+
+           2189   16326    7622   16325
CTETRA      3292       4    1796    1798    1797    6002    5683    5686+
+           5687   13712   16327   13713
CTETRA      3293       4    1157    1161    7051    7053    3651   16328+
+          16329   15492   16330   11107
CTETRA      3294       4    1157    7051    6874    7053   16329   11105+
+          16006   15492   11107   11106
CTETRA      3295       4    1798    6003    6029    6030   14655    7810+
+          14595   14598    7814    7815
CTETRA      3296       4     383     190     385    6018   13709   16331+
+            384   13710    7744   16332
CTETRA      3297       4     381    1708    5986    6064    5364   12444+
+          12158   12160   13831    7938
CTETRA      3298       4     381    1798    1793    6030    5680    5679+
+           5678   14654   14598   14597
CTETRA      3299       4    1797    6002    1798    6003   13713   16327+
+           5686   15129    7753   14655
CTETRA      3300       4    1130    6899    6900    6915   13318   10647+
+          13321   15900   10646   10638
CTETRA      3301       4    1093    1126    1130    6915    3526    3538+
+           3540   16333   14298   15900
CTETRA      3302       4    1126    1128    1130    6915    3537    3539+
+           3538   14298   12192   15900
CTETRA      3303       4    1129    6899    1130    6916   14803   13318+
+           3546   12190   10645   12191
CTETRA      3304       4    1093    1130    6900    6915    3540   13321+
+          16334   16333   15900   10638
CTETRA      3305       4     385    6011    1781    6018   16335   13707+
+           5628   16332    7745   15920
CTETRA      3306       4    1766    1769    6060    6065    5573   13817+
+          13816   16336   16337    7952
CTETRA      3307       4    1066    1068    1067    6969    3331    3330+
+           3332   15532   16053   12122
CTETRA      3308       4     493    1067    1068    6970    3328    3330+
+           3326   12114   16338   16339
CTETRA      3309       4    1769    6057    6060    6065   13800    7935+
+          13817   16337    7950    7952
CTETRA      3310       4    1067    1074    1070    6972    3350    3351+
+           3338   12123   12981   12124
CTETRA      3311       4     493    1067    6970    6973    3328   16338+
+          12114   16157   12982   10875
CTETRA      3312       4    1774    6047    6051    6058   16235    7895+
+          11850   11846    7920    7923
CTETRA      3313       4    1014    6587    6588    6589   15343    9618+
+          12287   14594    9631    9630
CTETRA      3314       4     961    1000    1014    6587    3124    3164+
+           3171   14266   12700   15343
CTETRA      3315       4    1769    1771    6056    6057    5581   11843+
+          15942   13800   13801    7917
CTETRA      3316       4    1000    1009    1014    6588    3160    3163+
+           3164   12281   12282   12287
CTETRA      3317       4    1671    1697    1672    6265    5307    5310+
+           5309   15865   15251   15250
CTETRA      3318       4    1672    1720    1711    6323    5414    5415+
+           5391   16267   15388   15387
CTETRA      3319       4     991    6777     993    6785   16340   16341+
+           3078   16342   10233   16343
CTETRA      3320       4    1005    6772    6773    6786   16344   10250+
+          16345   15132   10245   10249
CTETRA      3321       4    1672    1673    1720    6320    5312    5411+
+           5414   16265   16346   16266
CTETRA      3322       4     485    1005    6773    6786    3128   16345+
+          13988   13989   15132   10249
CTETRA      3323       4     487    6777     991    6786   14014   16340+
+           3074   14029   10242   15131
CTETRA      3324       4     991    6785    6772    6786   16342   10244+
+          16347   15131   10243   10245
CTETRA      3325       4    1594    1595    6423    6430    5111   16005+
+          16348   13995   14697    9134
CTETRA      3326       4    1594    1621    1627    6424    5105    5107+
+           5106   13993   14444   13994
CTETRA      3327       4    1599    1636    1635    6295    5148    5149+
+           5143   16349   16350   16351
CTETRA      3328       4    1582    1636    1583    6291    5146    5145+
+           5147   16352   16353   16354
CTETRA      3329       4    1583    1636    1599    6295    5145    5148+
+           5049   16355   16350   16349
CTETRA      3330       4    1618    6246    6247    6296   14158    8701+
+          14219   13564    8690    8698
CTETRA      3331       4    1624    6248    1626    6407   14426   14213+
+           5094   13876    9083   11940
CTETRA      3332       4    1602    1603    1624    6249    5043    5090+
+           5088   14435   14427   14428
CTETRA      3333       4     949     990    6811    6844    3070   13407+
+          13406   12325   13402   10425
CTETRA      3334       4     411     413     218    6450     412   16356+
+          16357   16358   16017    9214
CTETRA      3335       4     949    6811    6837    6844   13406   10423+
+          16059   12325   10425   10427
CTETRA      3336       4     411     413    1652    6437     412    5211+
+           5213   15735   15738   15552
CTETRA      3337       4     768     780    6981    7083    2357   14914+
+          14105   12447   14915   11353
CTETRA      3338       4     892    6983    6984    7013   16116   10905+
+          16359   15895   10904   10906
CTETRA      3339       4     746    6983    6982    7132   14969   10900+
+          12925   12926   11344   11343
CTETRA      3340       4     892    6983     899    6984   16116   14967+
+           2740   16359   10905   14966
CTETRA      3341       4     772     773     780    7084    2350    2355+
+           2370   14916   14361   14360
CTETRA      3342       4     746    7132     747    7158   12926   14365+
+           2348   14970   11458   14924
CTETRA      3343       4     772    7131    7085    7157   14362   11352+
+          16360   16092   11446   11445
CTETRA      3344       4    1565    1566    1569    6451    4939    4943+
+           4942   14725   14726   12267
CTETRA      3345       4     413     415     220    6348     414   16262+
+          16361   16362   13852    9035
CTETRA      3346       4     413    1570    6348    6450    4941   16269+
+          16362   16017   16016    9210
CTETRA      3347       4     894    7000    6999    7046   14960   10903+
+          14971   14954   11080   11079
CTETRA      3348       4     892    6984     898    7013   16359   16363+
+           2733   15895   10906   15896
CTETRA      3349       4    1562    6256    1564    6445   16364   16365+
+           4927   16366    9198   16367
CTETRA      3350       4     411    1564    1562    6256    4924    4927+
+           4925   16368   16365   16364
CTETRA      3351       4     413    6348     220    6450   16362    9035+
+          16361   16017    9210    9213
CTETRA      3352       4    1562    6445    1565    6449   16366   16369+
+           4936   16014    9208   15741
CTETRA      3353       4    1534    6486    6482    6487   16174    9347+
+          13141   13143    9348    9341
CTETRA      3354       4     748     775     749    7155    2320    2319+
+           2321   14421   14919   16370
CTETRA      3355       4    1527    6482    6483    6484   16371    9322+
+          15960   15822    9321    9320
CTETRA      3356       4    1505    6456    1527    6483   16228   15959+
+           4759   15840    9316   15960
CTETRA      3357       4    1528    6455    6478    6484   15956    9327+
+          13559   15823    9319    9329
CTETRA      3358       4     778    7086    7153    7157   12377   11438+
+          12380   16089   11447   11448
CTETRA      3359       4    1619    6398    6397    6485   16372    9146+
+          15219   16233    9333    9331
CTETRA      3360       4     778    7085    7086    7157   12385   11449+
+          12377   16089   11445   11447
CTETRA      3361       4    1527    6483    6456    6484   15960    9316+
+          15959   15822    9320    9318
CTETRA      3362       4     772    7085     778    7157   16360   12385+
+           2343   16092   11445   16089
CTETRA      3363       4    1482    6138    1483    6368   16373   16374+
+           4653   13723    8898   13641
CTETRA      3364       4    1409    6368    1410    6371   13722   13640+
+           4631   13716    8915   13717
CTETRA      3365       4     429    1410    1483    6369    4641    4640+
+           4639   12863   12864   13642
CTETRA      3366       4     651     693     692    5877    2137    2138+
+           2134   16375   16376   16377
CTETRA      3367       4     353     693     651    5876    2131    2137+
+           2006   15664   15663   16378
CTETRA      3368       4    1410    6367    6368    6369   12862    8904+
+          13640   12864    8903    8900
CTETRA      3369       4     692    5877     693    5891   16377   16376+
+           2138   11949    7454   11965
CTETRA      3370       4     693     699     698    5890    2153    2154+
+           2150   11964   12952   11958
CTETRA      3371       4    1470    6152    6153    6186   13106    8319+
+          14778   13110    8318    8317
CTETRA      3372       4     351     699     693    5890    2147    2153+
+           2132   15665   12952   11964
CTETRA      3373       4    1412    6146    6152    6186   16379    8323+
+          13104   13918    8330    8318
CTETRA      3374       4    1453    1470    1454    6185    4602    4601+
+           4603   13108   13107   13554
CTETRA      3375       4     664     665    5848    5858    2050   16380+
+          13197   13032   13179    7348
CTETRA      3376       4    1471    6166    6155    6177   16381    8266+
+          13153   13155    8269    8263
CTETRA      3377       4    1469    6154    6155    6166   13754    8268+
+          16382   13569    8267    8266
CTETRA      3378       4    1470    6153    6184    6186   14778    8314+
+          13902   13110    8317    8320
CTETRA      3379       4     626    5840     627    5849   16383   16293+
+           1914   11821    7350   13030
CTETRA      3380       4     627    5840    5841    5858   16293    7322+
+          16294   13031    7321    7320
CTETRA      3381       4    1390    1392    6675    6676    4383   14792+
+          15150   15142   15138    9910
CTETRA      3382       4    1394    6679    1396    6680   13896   13894+
+           4404   13899    9929   13900
CTETRA      3383       4     832     833     851    7211    2559    2631+
+           2630   14193   13489   13488
CTETRA      3384       4     449    6676    1390    6678   15143   15142+
+           4382   13279    9930   15145
CTETRA      3385       4    1376    6672    6673    6674   16384    9903+
+          13039   13040    9900    9902
CTETRA      3386       4    1378    6666    6632    6674   14368    9877+
+          16385   14369    9893    9895
CTETRA      3387       4    1375    6669    1379    6673   16386   13042+
+           4330   13037    9897   13038
CTETRA      3388       4     457     266     264    6636   16387     265+
+          15465   15478    9769    9770
CTETRA      3389       4     457     459    1334    6578     458    4201+
+           4204   16388   16389   16390
CTETRA      3390       4     828    7202    7201    7237   12402   11608+
+          14209   12403   11723   11721
CTETRA      3391       4     840    7203    7202    7216   13471   11605+
+          12401   12431   11658   11659
CTETRA      3392       4    1352    6580    6579    6595   14761    9607+
+          16300   14762    9651    9646
CTETRA      3393       4    1345    1348    1346    6594    4227    4229+
+           4228   15912   14755   15913
CTETRA      3394       4    1348    1353    6594    6595    4245   16391+
+          14755   14757   14750    9652
CTETRA      3395       4    1348    1350    1349    6580    4225    4224+
+           4226   14756   16392   16299
CTETRA      3396       4    1308    1326    6728    6732    4143   13543+
+          13007   13002   13004   10106
CTETRA      3397       4    1306    6726    6727    6730   14836   10099+
+          14839   14841   10095   10098
CTETRA      3398       4    1307    6715    6728    6730   15266   10085+
+          13542   14843   10087   10089
CTETRA      3399       4    1327    1328    5961    6733    4157   14553+
+          15881   12802   14174   10116
CTETRA      3400       4    1328    6731    5962    6732   12613   10103+
+          12611   13003   10105   10107
CTETRA      3401       4    1308    1318    6714    6728    4119   16393+
+          16394   13007   16395   10086
CTETRA      3402       4    1197    6634    6635    6650   12762    9787+
+          12766   13565    9785    9788
CTETRA      3403       4    1151    1154    1152    7058    3623    3626+
+           3625   12962   16396   12963
CTETRA      3404       4    1154    7057    6993    7058   15083   11122+
+          15520   16396   11126   11124
CTETRA      3405       4    1197    1202    1198    6648    3788    3790+
+           3789   13045   13047   15030
CTETRA      3406       4    1152    6992    6876    7060   12972   11009+
+          12973   12965   11137   11138
CTETRA      3407       4     732    6533    6532    6606   16173    9442+
+          13312   13066    9682    9683
CTETRA      3408       4     733    1217    6532    6536    3740   13313+
+          16172   13309   16171    9441
CTETRA      3409       4    1116    6902    6903    6908   13981   10575+
+          13326   13329   10574   10576
CTETRA      3410       4    1218    1220    1219    6605    3725    3730+
+           3731   13306   13307   13061
CTETRA      3411       4    1216    1219    1217    6531    3737    3741+
+           3742   14582   14906   14905
CTETRA      3412       4    1041    1056    6761    6927    3275   14318+
+          14317   14320   16397   10698
CTETRA      3413       4    1040    6850    6761    6851   16049   10472+
+          14316   12583   10477   10481
CTETRA      3414       4    1054    6762    6849    6851   15499   10478+
+          14321   12584   10480   10474
CTETRA      3415       4    1040    1050    6850    6851    3234   16058+
+          16049   12583   15508   10477
CTETRA      3416       4     511    1135    1132    7076    3553    3557+
+           3555   13615   13614   12501
CTETRA      3417       4     985    6814     986    6843   14929   14928+
+           3046   15751   10411   14931
CTETRA      3418       4    1132    1133    7067    7077    3558   16398+
+          12499   13618   12012   11193
CTETRA      3419       4    1132    1138    1148    7067    3575    3614+
+           3605   12499   12513   16399
CTETRA      3420       4    1126    6904    1128    6915   13330   12193+
+           3537   14298   10641   12192
CTETRA      3421       4    1385    6682    6681    6683   15153    9938+
+          15151   14986    9944    9943
CTETRA      3422       4    1124    1127    1126    6905    3527    3528+
+           3524   16400   16401   14294
CTETRA      3423       4    1387    6621    6622    6682   13934    9940+
+          16402   16403    9939    9936
CTETRA      3424       4    1094    1130    1131    6899    3542    3547+
+           3551   13319   13318   14804
CTETRA      3425       4    1038    6892    6891    6964   13332   10615+
+          13374   13333   10838   10837
CTETRA      3426       4    1375    1389    6670    6682    4373   15156+
+          16166   15229   15217    9935
CTETRA      3427       4    1025    6902    6912    6913   13979   10622+
+          13362   16404   10624   10623
CTETRA      3428       4    1381    6667    6669    6671   13203    9888+
+          13184   13188    9892    9890
CTETRA      3429       4    1388    6623    6718    6720   15268   10061+
+          12491   12485   10057   10062
CTETRA      3430       4    1364    1374    1388    6623    4340    4366+
+           4365   13214   13213   15268
CTETRA      3431       4    1025    1038    1058    6892    3281    3283+
+           3282   13366   13332   13337
CTETRA      3432       4    1365    1374    6624    6671    4337   13216+
+          13204   13187   13189    9883
CTETRA      3433       4    1105    1115    6889    6890    3471   16405+
+          16406   16024   16407   10573
CTETRA      3434       4    1101    6913    1129    6916   12184   12202+
+           3534   12185   10643   12190
CTETRA      3435       4    1115    6889    6890    6908   16405   10573+
+          16407   16408   10572   10571
CTETRA      3436       4    1012    1014    6588    6589    3166   12287+
+          14591   14592   14594    9630
CTETRA      3437       4    1000    6587    6585    6588   12700    9616+
+          12279   12281    9618    9617
CTETRA      3438       4    1000    1014    6587    6588    3164   15343+
+          12700   12281   12287    9618
CTETRA      3439       4    1010    6573    6574    6577   12695    9572+
+          14061   14052    9566    9571
CTETRA      3440       4    1009    6573    1013    6588   12694   12696+
+           3161   12282    9623   12286
CTETRA      3441       4    1009    6585    6586    6588   12280    9619+
+          14049   12282    9617    9620
CTETRA      3442       4    1025    1116    6891    6902    3469   16409+
+          13365   13979   13981   10570
CTETRA      3443       4    1105    1116    1115    6890    3470    3472+
+           3471   16024   16037   16407
CTETRA      3444       4    1023    1065    6965    6967    3317   13353+
+          15535   15309   15766   10851
CTETRA      3445       4    1216    6531    1217    6552   14582   14905+
+           3742   12818    9439   12826
CTETRA      3446       4    1217    6532    6536    6552   13313    9441+
+          16171   12826    9438    9444
CTETRA      3447       4    1024    6891    6890    6965   13358   10569+
+          14272   13352   10835   10836
CTETRA      3448       4    1193    6529    6530    6548   12497    9398+
+          12514   12516    9397    9396
CTETRA      3449       4    1033    1075    6764    6954    3367   12566+
+          14325   16121   12567   10802
CTETRA      3450       4    1033    1054    1034    6763    3261    3263+
+           3262   14309   14312   15500
CTETRA      3451       4    1216    1218    1219    6531    3736    3731+
+           3737   14582   14581   14906
CTETRA      3452       4    1219    6532    6531    6605   13067    9440+
+          14906   13061    9676    9675
CTETRA      3453       4    1040    6761    1056    6762   14316   14318+
+           3271   15498   10482   15533
CTETRA      3454       4    1221    6543    6546    6548   14782    9405+
+          12739   14904    9401    9406
CTETRA      3455       4    1059    6893    6894    6926   14510   10689+
+          14378   14381   10688   10687
CTETRA      3456       4    1524    1533    6479    6480    4776   13136+
+          14150   16271   13137    9324
CTETRA      3457       4    1524    1543    6480    6496    4835   14410+
+          16271   15067   15117    9384
CTETRA      3458       4    1524    6480    6479    6497   16271    9324+
+          14150   13274    9392    9391
CTETRA      3459       4    1525    1546    1545    6494    4846    4845+
+           4844   13281   15202   13124
CTETRA      3460       4     937    7109     942    7112   13960   11994+
+           2937   13948   11241   13949
CTETRA      3461       4    1542    6493    6495    6496   14400    9380+
+          13116   14406    9382    9381
CTETRA      3462       4     926    6991    6885    7022   12347   10982+
+          14933   13609   10985   10984
CTETRA      3463       4     513     925     942    7111    2873    2936+
+           2935   14098   12346   14107
CTETRA      3464       4    1506    1507    1620    6468    4779    5071+
+           5073   15534   16410   15215
CTETRA      3465       4    1619    6397    6457    6485   15219    9233+
+          16229   16233    9331    9332
CTETRA      3466       4     509     316     511    7076   16103   16093+
+            510   16109   11187   13615
CTETRA      3467       4    1505    1619    6457    6485    5070   16229+
+          15839   12821   16233    9332
CTETRA      3468       4     888     908     907    7127    2788    2790+
+           2780   16411   16412   16413
CTETRA      3469       4     888    7095     908    7127   16414   16415+
+           2788   16411   11311   16412
CTETRA      3470       4     908    7095    7096    7127   16415   11317+
+          15562   16412   11311   11314
CTETRA      3471       4     908    7096    7125    7127   15562   11315+
+          16416   16412   11314   11316
CTETRA      3472       4    1650    6433    1652    6436   14668   14671+
+           5214   14669    9170   15551
CTETRA      3473       4     908     910     912    7125    2817    2813+
+           2816   16416   16417   15860
CTETRA      3474       4    1502    1654    6394    6461    5215   15548+
+          16418   14978   15549    9244
CTETRA      3475       4     907    6986    6985    7127   16419   10918+
+          16420   16413   11321   11312
CTETRA      3476       4     907    6986    7127    7128   16419   11321+
+          16413   16421   11320   11322
CTETRA      3477       4    1612    6251    6250    6401   14474    8657+
+          14473   16422    9119    9118
CTETRA      3478       4    1607    6258    6259    6287   12683    8641+
+          15085   14618    8640    8642
CTETRA      3479       4     887    6985     907    6986   16423   16420+
+           2779   16424   10918   16419
CTETRA      3480       4     906    6986     907    7128   16425   16419+
+           2787   16426   11320   16421
CTETRA      3481       4    1602    1612    6250    6428    5044   14473+
+          16427   14443   16428    9120
CTETRA      3482       4     761     825     824    7197    2551    2550+
+           2549   14992   14993   13483
CTETRA      3483       4    1606    1614    6250    6289    5037   14614+
+          14472   12704   14615    8653
CTETRA      3484       4     762    7162    7180    7181   12907   11531+
+          12898   12356   11533   11532
CTETRA      3485       4     762     763     826    7180    2418    2546+
+           2547   12898   12900   16429
CTETRA      3486       4     762     825    7181    7196    2552   14991+
+          12356   16430   14997   11583
CTETRA      3487       4    1577    6357    1579    6389   11961   11951+
+           4984   16431    9010   12832
CTETRA      3488       4     417    1568    6388    6392    4948   13086+
+          16432   16270   12845    9027
CTETRA      3489       4     825    7196     832    7212   14997   14999+
+           2558   14994   11632   14192
CTETRA      3490       4     832    7196    7211    7212   14999   11630+
+          14193   14192   11632   11631
CTETRA      3491       4     427     234     429    6226   15580   12868+
+            428   13634    8489   12606
CTETRA      3492       4     425     234     427    6224   13637   15580+
+            426   13638    8482   12104
CTETRA      3493       4     427    1555    1410    6367    4884    4891+
+           4890   13635   13656   12862
CTETRA      3494       4     427     429     234    6367     428   12868+
+          15580   13635   12861    8902
CTETRA      3495       4     762    7180     826    7196   12898   16429+
+           2547   16430   11586   14998
CTETRA      3496       4     763     826    7180    7195    2546   16429+
+          12900   16433   16434   11587
CTETRA      3497       4     425     234     232    6372   13637     233+
+          13636   12848    8919    8920
CTETRA      3498       4     429     236    6367    6369   12867    8901+
+          12861   12863    8896    8903
CTETRA      3499       4     827     833    7195    7210    2561   16435+
+          16436   16437   16114   11634
CTETRA      3500       4     826     833     832    7211    2560    2559+
+           2557   16112   13489   14193
CTETRA      3501       4    1721    6339    6342    6343   13044    8865+
+          14082   14028    8867    8862
CTETRA      3502       4     801    7135     808    7142   16438   16439+
+           2488   16440   11390   16441
CTETRA      3503       4     395    1729     397    6341    5444    5449+
+            396   15986   14024   16442
CTETRA      3504       4     395    1629    1630    6021    5115    5119+
+           5117   11911   15776   11912
CTETRA      3505       4     808    7138    7140    7142   16443   11392+
+          16444   16441   11394   11395
CTETRA      3506       4     395     204     202    6341   15979     203+
+          15983   15986    8853    8854
CTETRA      3507       4     803     806     807    7141    2475    2478+
+           2473   15003   15615   15614
CTETRA      3508       4     393    1721     395    6343    5428    5429+
+            394   14027   14028   15985
CTETRA      3509       4     803    7141     807    7148   15003   15614+
+           2473   15623   11408   16445
CTETRA      3510       4     765    7168     766    7171   16446   16447+
+           2374   13929   11489   12564
CTETRA      3511       4     797     798     799    7170    2454    2459+
+           2460   14255   14256   15400
CTETRA      3512       4    1671    6265    1672    6323   15865   15250+
+           5309   16268    8789   16267
CTETRA      3513       4    1671    5983    5982    6325   14291    7902+
+          15863   12663    8805    8803
CTETRA      3514       4     766    7167     767    7171   16448   12457+
+           2368   12564   11488   12440
CTETRA      3515       4     580     615     581    5827    1897    1904+
+           1847   16449   14125   15689
CTETRA      3516       4    1617    6248    6298    6299   14475    8695+
+          14471   14221    8702    8703
CTETRA      3517       4    1603    6249    1614    6288   14427   15954+
+           5041   16450    8654   14613
CTETRA      3518       4    1614    6249    6250    6288   15954    8655+
+          14614   14613    8654    8652
CTETRA      3519       4    1587    6270    6300    6301   14042    8706+
+          14045   12082    8713    8714
CTETRA      3520       4     369     580    5825    5826    1844   15045+
+          15044   12198   16451    7256
CTETRA      3521       4     580    5826     615    5827   16451   14126+
+           1897   16449    7268   14125
CTETRA      3522       4     580     581    5824    5827    1847   16169+
+          15047   16449   15689    7267
CTETRA      3523       4     443     445    1295    6206     444    4004+
+           4012   13954   14869   16452
CTETRA      3524       4      20    5828       9    5829   11836    7254+
+            549   14511    7262    7260
CTETRA      3525       4     445    5957    1295    6206   16453   16454+
+           4004   14869    8433   16452
CTETRA      3526       4      61     707     113    5937    2183   16324+
+           5814   16455   16325    7624
CTETRA      3527       4     581    5827     616    5828   15689   15690+
+           1902   15693    7264   15688
CTETRA      3528       4     595     611     608    6125    1871    1874+
+           1850   12125   14859   16221
CTETRA      3529       4      21      10       9    5828     547      18+
+            550   11837    7255    7254
CTETRA      3530       4       1      20       9     607     551     549+
+             19   14516    1836   14515
CTETRA      3531       4     627    5841     628    5858   16294   15675+
+           1911   13031    7320   15674
CTETRA      3532       4     585    6135    6118    6136   12129    8208+
+          16456   12130    8207    8209
CTETRA      3533       4     624    5871    5870    5884   12203    7402+
+          11808   11809    7448    7443
CTETRA      3534       4    1751    6121    1764    6122   13802   13804+
+           5557   12256    8144   12257
CTETRA      3535       4     623     624     686    5871    1958    2129+
+           2110   12205   12203   13788
CTETRA      3536       4     132     643     133    5952    1982    1986+
+            137   14584   14386   16457
CTETRA      3537       4     379    6030    1793    6032   14653   14597+
+           5681   14612    7818   14611
CTETRA      3538       4    1793    6031    1808    6032   14604   15636+
+           5709   14611    7820   12618
CTETRA      3539       4     131     132     142    5956     138   11787+
+          11786   14160   14156    8052
CTETRA      3540       4     705     707     708    5937    2189    2185+
+           2187   16326   16325   16458
CTETRA      3541       4    1678    5997    5979    6041   15640    7793+
+          16000   15641    7875    7874
CTETRA      3542       4    1663    1664    1779    6039    5302    5613+
+           5614   14558   15867   14559
CTETRA      3543       4    1678    5979    5980    6041   16000    7876+
+          16459   15641    7874    7877
CTETRA      3544       4    1664    1695    5987    6040    5293   16298+
+          16460   15868   14097    7867
CTETRA      3545       4     705     706     707    5931    2180    2199+
+           2189   15024   15646   15647
CTETRA      3546       4     706     710     707    5924    2200    2197+
+           2199   13527   13526   13533
CTETRA      3547       4      37      84      85    7231     562      96+
+            565   16069   11696   11697
CTETRA      3548       4    1787    6002    1797    6017   13711   13713+
+           5677   16316    7747   16461
CTETRA      3549       4    1798    6003    6002    6029   14655    7753+
+          16327   14595    7810    7809
CTETRA      3550       4      38      85      86    7232     564      95+
+            563   13482   11702   11700
CTETRA      3551       4    1787    6001    6002    6017   13724    7749+
+          13711   16316    7742    7747
CTETRA      3552       4     842    7239     845    7240   16462   14987+
+           2604   15586   11736   15601
CTETRA      3553       4     819     840     839    7203    2593    2594+
+           2592   13468   13471   13457
CTETRA      3554       4    1788    6001    6025    6028   16463    7804+
+          16464   16465    7802    7805
CTETRA      3555       4    1796    6002    6028    6029   13712    7803+
+          16466   16467    7809    7811
CTETRA      3556       4    1794    6029    6028    6033   14603    7811+
+          16468   14636    7830    7829
CTETRA      3557       4     744     785    7037    7047    2394   12405+
+          12244   16469   16470   11093
CTETRA      3558       4     818     839     838    7204    2589    2588+
+           2587   14199   13456   14200
CTETRA      3559       4     641     644     643    5951    1977    1980+
+           1978   13733   14385   14384
CTETRA      3560       4     640     641    5837    5953    1965   13734+
+          15313   14164   13735    7692
CTETRA      3561       4     640    5836    5950    5953   15314    7688+
+          14162   14164    7691    7689
CTETRA      3562       4     831    7197    7212    7213   14996   11642+
+          14995   16176   11644   11643
CTETRA      3563       4     785     786    7038    7045    2400   16471+
+          16472   13426   13421   11090
CTETRA      3564       4     713     714    5922    5923    2218   16473+
+          16474   15643   16475    7562
CTETRA      3565       4     832     851     847    7243    2630    2629+
+           2603   14194   13492   14195
CTETRA      3566       4     774     778     777    7086    2332    2334+
+           2325   12378   12377   12376
CTETRA      3567       4     747     779     748    7156    2339    2338+
+           2340   14366   14423   14422
CTETRA      3568       4     747     773     779    7156    2346    2349+
+           2339   14366   14364   14423
CTETRA      3569       4     785    7045    7038    7047   13426   11090+
+          16472   16470   11089   11092
CTETRA      3570       4     770     783     784    7165    2389    2384+
+           2387   15694   15700   15056
CTETRA      3571       4     695    5894    5929    5930   16476    7592+
+          15964   15965    7589    7593
CTETRA      3572       4     769    7037    6981    7048   12245   11070+
+          14106   12247   11097   11096
CTETRA      3573       4     759    7198     823    7199   16477   16478+
+           2540   15698   11599   16479
CTETRA      3574       4     884    7099    7098    7151   16480   11304+
+          16481   16482   11428   11431
CTETRA      3575       4     883    7099     919    7119   16483   16484+
+           2853   16485   11302   16193
CTETRA      3576       4     801     808     802    7142    2488    2492+
+           2493   16440   16441   15871
CTETRA      3577       4     805    7135    7134    7138   16486   11363+
+          16487   16488   11374   11373
CTETRA      3578       4      55     106     105    5920    5794     118+
+           5795   15651    7549    7550
CTETRA      3579       4     668     678     669    5909    2067    2069+
+           2068   15040   13758   15026
CTETRA      3580       4     753     754     918    7137    2484    2841+
+           2842   13601   15376   14292
CTETRA      3581       4     888     907    6985    7127    2780   16420+
+          16489   16411   16413   11312
CTETRA      3582       4      56     107     106    5919    5798     120+
+           5796   13222    7541    7542
CTETRA      3583       4     786     788    7038    7039    2402   15714+
+          16471   13420   16490   11059
CTETRA      3584       4     742     786    7045    7080    2391   13421+
+          16491   14085   13422   11213
CTETRA      3585       4     533    7094     340    7136   16492   11369+
+          16493   16494   11371   11361
CTETRA      3586       4     531     533     338    7136     532   16495+
+          16496   16497   16494   11360
CTETRA      3587       4     519     941     932    7117    2926    2925+
+           2895   13382   12474   12465
CTETRA      3588       4     106     722    5919    5920   13224   11920+
+           7542    7549   11922    7546
CTETRA      3589       4     523    7121     917    7123   12469   12471+
+           2836   14130   11287   13937
CTETRA      3590       4     519     328     521    7042   16084   12534+
+            520   16498   11054   14231
CTETRA      3591       4     672     681    5899    5906    2092   13546+
+          15632   15344   13547    7510
CTETRA      3592       4     517     519     786    7039     518    2401+
+           2392   13423   14092   13420
CTETRA      3593       4     607    5823    5824    5829   14500    7266+
+          14499   14512    7261    7265
CTETRA      3594       4     581    5824    5827    5829   16169    7267+
+          15689   14513    7265    7263
CTETRA      3595       4     935    7106     941    7116   12627   12473+
+           2927   13377   11270   12472
CTETRA      3596       4     531     533     789    7161     532    2411+
+           2420   12915   16499   12913
CTETRA      3597       4     519    7039     326    7042   14092   11055+
+          13381   16498   11057   11053
CTETRA      3598       4    1093    1166    1167    6901    3672    3676+
+           3677   14288   16500   14289
CTETRA      3599       4    1166    6875    1167    6901   16501   12970+
+           3676   16500   10631   14289
CTETRA      3600       4    1091    1124    1092    6877    3514    3517+
+           3516   16502   16503   16504
CTETRA      3601       4    1092    6877    6905    6914   16504   10604+
+          14293   14295   10633   10634
CTETRA      3602       4    1589    1590    1735    6316    5001    5476+
+           5475   12679   12681   16505
CTETRA      3603       4    1734    6336    6328    6337   13084    8840+
+          13092   13060    8849    8848
CTETRA      3604       4    1589    6316    1735    6336   12679   16505+
+           5475   13091    8839   13093
CTETRA      3605       4     531     338     533    7161   16496   16495+
+            532   12915   11527   16499
CTETRA      3606       4     533     763     789    7161    2409    2412+
+           2411   16499   16506   12913
CTETRA      3607       4    1064    6963    6974    6976   15537   10878+
+          16040   15538   10886   10888
CTETRA      3608       4    1733    1734    6328    6337    5474   13092+
+          13071   15368   13060    8848
CTETRA      3609       4     800    7093     809    7094   16507   16508+
+           2503   16509   11372   14899
CTETRA      3610       4    1023    1105    1111    6966    3437    3436+
+           3439   15307   16025   15308
CTETRA      3611       4    1023    1024    1105    6966    3325    3438+
+           3437   15307   14273   16025
CTETRA      3612       4    1590    6316    1609    6317   12681   12680+
+           4999   15205    8770   13863
CTETRA      3613       4    1679    1680    1699    6279    5268    5328+
+           5321   14665   14690   14666
CTETRA      3614       4    1680    6272    1691    6273   14687   12885+
+           5279   14691    8588   14692
CTETRA      3615       4    1060    6963    1065    6967   16038   15536+
+           3316   16510   10850   15766
CTETRA      3616       4    1111    6966    6958    6967   15308   10845+
+          16036   15310   10854   10853
CTETRA      3617       4    1698    6277    1699    6280   15992   15991+
+           5327   12905    8585   15989
CTETRA      3618       4    1693    1698    6264    6277    5323   12904+
+          14667   12893   15992    8570
CTETRA      3619       4    1035    6953    1077    6954   13523   13525+
+           3369   13524   10811   14958
CTETRA      3620       4    1693    1694    1699    6276    5318    5320+
+           5326   12892   15248   14663
CTETRA      3621       4    1679    1699    1694    6276    5321    5320+
+           5319   14664   14663   15248
CTETRA      3622       4    1699    6276    6279    6280   14663    8579+
+          14666   15989    8584    8586
CTETRA      3623       4    1037    6893    6892    6977   13340   10617+
+          13336   12842   10892   10893
CTETRA      3624       4    1409    1555    1553    6371    4892    4888+
+           4893   13716   13718   13721
CTETRA      3625       4    1408    1553    1558    6373    4894    4897+
+           4898   13251   13252   16511
CTETRA      3626       4     876    6933    6932    6944   13410   10742+
+          13404   12234   10783   10786
CTETRA      3627       4     507     915     913    6937    2820    2822+
+           2818   13419   13416   13414
CTETRA      3628       4    1396    6679    6678    6680   13894    9925+
+          15146   13900    9929    9928
CTETRA      3629       4    1176    6756    6755    6920   14911   10218+
+          13324   16512   10681   10654
CTETRA      3630       4    1385    1387    1389    6682    4362    4368+
+           4367   15153   16403   15217
CTETRA      3631       4    1390    6678    6676    6680   15145    9930+
+          15142   13898    9928    9926
CTETRA      3632       4    1386    1395    1394    6681    4399    4400+
+           4398   14372   15210   15152
CTETRA      3633       4    1164    1175    6756    6924    3709   14909+
+          16513   16514   16515   10680
CTETRA      3634       4    1367    1371    6661    6663    4306   12779+
+          16516   12789   12786    9864
CTETRA      3635       4    1367    6661    6660    6663   16516    9851+
+          15249   12789    9864    9865
CTETRA      3636       4    1367    6663    6660    6668   12789    9865+
+          15249   15254    9869    9870
CTETRA      3637       4    1366    1382    1381    6667    4346    4345+
+           4344   16517   13200   13203
CTETRA      3638       4    1025    6912    1026    6913   13362   13364+
+           3288   16404   10623   12201
CTETRA      3639       4    1100    6903    6906    6908   13327   10580+
+          16518   13328   10576   10581
CTETRA      3640       4    1366    6663    1382    6667   12787   15253+
+           4346   16517    9871   13200
CTETRA      3641       4    1382    6666    6667    6668   13201    9875+
+          13200   15255    9874    9873
CTETRA      3642       4    1382    1383    6633    6668    4353   15446+
+          16519   15255   15261    9878
CTETRA      3643       4    1382    6633    6666    6668   16519    9876+
+          13201   15255    9878    9874
CTETRA      3644       4     816     817     837    7206    2534    2582+
+           2579   12155   13568   14299
CTETRA      3645       4    1100    6903    6904    6906   13327   10582+
+          16520   16518   10580   10583
CTETRA      3646       4    1024    1116    6890    6891    3468   16037+
+          14272   13358   16409   10569
CTETRA      3647       4    1366    1381    6664    6667    4344   13202+
+          15768   16517   13203    9872
CTETRA      3648       4    1365    1366    1381    6664    4296    4344+
+           4339   13205   15768   13202
CTETRA      3649       4    1100    6906    1115    6908   16518   16521+
+           3467   13328   10581   16408
CTETRA      3650       4     836     837     862    7226    2581    2678+
+           2679   11899   11909   11887
CTETRA      3651       4    1355    1356    1371    6661    4263    4309+
+           4313   12778   15257   12779
CTETRA      3652       4    1371    6661    6663    6665   12779    9864+
+          12786   12784    9868    9866
CTETRA      3653       4     969    6864    6871    6872   14484   10563+
+          16209   16522   10562   10564
CTETRA      3654       4     969     970     976    6872    2968    2984+
+           2983   16522   16523   16524
CTETRA      3655       4     970    6867     976    6872   16525   16526+
+           2984   16523   10566   16524
CTETRA      3656       4    1307    1326    1324    6729    4142    4144+
+           4135   14177   14176   13545
CTETRA      3657       4    1324    6729    1326    6733   13545   14176+
+           4144   13519   10114   12801
CTETRA      3658       4    1306    1324    6726    6730    4134   13544+
+          14836   14841   15259   10095
CTETRA      3659       4     535    7094     809    7193   16527   14899+
+           2504   16528   11553   14900
CTETRA      3660       4    1069    6951    1077    6953   15531   14957+
+           3362   12574   10799   13525
CTETRA      3661       4     944     971     945    6862    2948    2951+
+           2950   12334   15104   16529
CTETRA      3662       4    1315    6708    6709    6710   13165   10031+
+          13167   16530   10030   10027
CTETRA      3663       4    1033    6763    1034    6954   14309   15500+
+           3262   16121   10800   15710
CTETRA      3664       4    1315    6705    6706    6709   16531   10026+
+          16532   13167   10025   10024
CTETRA      3665       4    1314    1316    1315    6710    4076    4075+
+           4077   13267   13269   16530
CTETRA      3666       4    1312    1314    1315    6706    4083    4077+
+           4088   16533   13266   16532
CTETRA      3667       4    1033    1075    1085    6764    3367    3398+
+           3400   14325   12566   15724
CTETRA      3668       4    1034    1077    1075    6954    3368    3364+
+           3366   15710   14958   12567
CTETRA      3669       4    1312    1315    6705    6706    4088   16531+
+          16534   16533   16532   10026
CTETRA      3670       4    1075    1076    6938    6955    3365   16535+
+          12565   14955   14465   10813
CTETRA      3671       4    1297    1298    1301    6204    4020    4040+
+           4035   12954   16302   13950
CTETRA      3672       4    1069    6951    6950    6968   15531   10798+
+          12572   14252   10863   10864
CTETRA      3673       4    1297    1298    6204    6207    4020   16302+
+          12954   12953   14479    8416
CTETRA      3674       4    1036    6893    1037    6950   16536   13340+
+           3291   12571   10796   12841
CTETRA      3675       4    1265    6512    1267    6513   12713   15994+
+           3959   12710    9499   12711
CTETRA      3676       4     465    1267    1265    6512    3958    3959+
+           3949   16537   15994   12713
CTETRA      3677       4    1267    6641    6513    6642   15996    9743+
+          12711   15995    9745    9739
CTETRA      3678       4    1250    1253    1267    6641    3911    3963+
+           3961   14884   16002   15996
CTETRA      3679       4    1077    6953    6951    6955   13525   10799+
+          14957   14956   10805   10804
CTETRA      3680       4    1063    6964    6976    6977   13335   10887+
+          14908   12839   10897   10896
CTETRA      3681       4     946    6833     974    6845   15728   13971+
+           2969   15730   10431   16538
CTETRA      3682       4    1168    1172    1173    6781    3697    3699+
+           3691   12145   12146   12142
CTETRA      3683       4    1256    6796    1260    6805   12326   15459+
+           3926   12329   10312   15120
CTETRA      3684       4     732     962    6533    6606    3006   15542+
+          16173   13066   15543    9682
CTETRA      3685       4     453    6629    1397    6656   13286   13304+
+           4410   12619    9828   12620
CTETRA      3686       4     992     999     997    6771    3113    3114+
+           3111   12318   12307   16539
CTETRA      3687       4     951     955    6770    6830    3066   12317+
+          12316   16540   12330   10404
CTETRA      3688       4    1438    6688    5969    6693   15426    9956+
+          16541   16277    9974    9973
CTETRA      3689       4    1437    5970    5971    6138   12056    8303+
+          16200   16202    8302    8304
CTETRA      3690       4    1410    1482    1483    6368    4632    4653+
+           4640   13640   13723   13641
CTETRA      3691       4     665    5857    5848    5858   15677    7347+
+          16380   13179    7336    7348
CTETRA      3692       4    1449    6688    6689    6690   15428    9954+
+          16542   12059    9953    9952
CTETRA      3693       4     353     355     677    5889     354    2073+
+           2072   15035   14590   12420
CTETRA      3694       4     846     849    7239    7241    2618   14988+
+          16118   14989   16543   11737
CTETRA      3695       4      80    7241     848    7244   11744   16544+
+          16194   11754   11752   16545
CTETRA      3696       4     493    1168    1173    6783    3687    3691+
+           3690   12112   14528   12120
CTETRA      3697       4    1435    5968    1447    5969   12726   12725+
+           4522   16546    8309   13175
CTETRA      3698       4    1434    5967    5968    6161   12019    8289+
+          12724   16547    8288    8290
CTETRA      3699       4    1390    1396    6678    6680    4403   15146+
+          15145   13898   13900    9928
CTETRA      3700       4      33      80     848    7244     572   16194+
+           2613   15432   11754   16545
CTETRA      3701       4    1247    6637    6638    6644   16548    9767+
+          14878   14879    9766    9758
CTETRA      3702       4      35     843     849    7242    2614    2622+
+           2621   15597   14980   14982
CTETRA      3703       4    1681    1701    6273    6274    5348   14696+
+          14693   16549   12569    8600
CTETRA      3704       4    1248    6646    1249    6649   16550   16551+
+           3883   15923    9779   16552
CTETRA      3705       4    1247    1249    1248    6646    3891    3883+
+           3892   16553   16551   16550
CTETRA      3706       4     393     198     200    6004   11897     199+
+          16554   11873    7719    7720
CTETRA      3707       4    1247    1248    1251    6638    3892    3903+
+           3902   14878   15922   12097
CTETRA      3708       4     715    5912    5911    5923   14640    7525+
+          13732   15644    7606    7565
CTETRA      3709       4     848    7241    7243    7244   16544   11751+
+          14196   16545   11752   11753
CTETRA      3710       4     629     630     636    5954    1917    1946+
+           1941   15898   12979   13146
CTETRA      3711       4    1168    6781    1173    6783   12145   12142+
+           3691   14528   10222   12120
CTETRA      3712       4     731     994    1002    6596    3103    3118+
+           3119   14275   14274   14270
CTETRA      3713       4     473    1010    1011    6574    3154    3156+
+           3151   16555   14061   14060
CTETRA      3714       4     867     868    1143    6997    2709    3593+
+           3590   16078   16556   16557
CTETRA      3715       4    1006    6816    6817    6823   15361   10364+
+          15354   15356   10359   10363
CTETRA      3716       4     867    6997    1143    7069   16078   16557+
+           3590   16023   11165   13965
CTETRA      3717       4    1550    6306    6305    6307   16558    8725+
+          16559   16560    8736    8735
CTETRA      3718       4    1262    1263    6511    6561    3947   15456+
+          15993   16561   16562    9497
CTETRA      3719       4      32     852      78    7246    2636   12686+
+            570   14313   12685   11763
CTETRA      3720       4    1652    1653    1654    6394    5212    5218+
+           5219   15550   15545   15548
CTETRA      3721       4     481    6498     288    6827   16563    9581+
+          16564   16565   10387   10382
CTETRA      3722       4    1496    6188    6163    6190   11982    8335+
+          15969   11984    8337    8336
CTETRA      3723       4    1494    6188    6187    6196   11981    8350+
+          13157   13738    8380    8375
CTETRA      3724       4    1433    6167    5966    6180   14172    8259+
+          12016   14171    8285    8284
CTETRA      3725       4    1433    1444    1442    5967    4497    4501+
+           4500   12017   12013   12018
CTETRA      3726       4    1225    6540    6541    6554   14896    9473+
+          12107   12109    9472    9455
CTETRA      3727       4    1474    6162    6161    6189   15756    8301+
+          16027   16273    8333    8332
CTETRA      3728       4    1181    6158    6171    6173   16566    8218+
+          16567   14190    8221    8224
CTETRA      3729       4    1473    6170    6157    6173   13881    8227+
+          13879   13883    8234    8222
CTETRA      3730       4    1181    1182    1458    6172    4165    4627+
+           4626   16568   12721   13866
CTETRA      3731       4    1067    6969    6970    6973   12122   10876+
+          16338   12982   10871   10875
CTETRA      3732       4     868    6996    6997    7010   16569   10937+
+          16556   16570   10936   10935
CTETRA      3733       4    1181    6171    1182    6172   16567   16280+
+           4165   16568    8225   12721
CTETRA      3734       4     794    7040    7041    7042   14149   11067+
+          14145   14148   11066   11063
CTETRA      3735       4      33     848     850    7244    2613    2625+
+           2623   15432   16545   14333
CTETRA      3736       4     473     280     475    6574   16571   16572+
+            474   16555    9570   16573
CTETRA      3737       4    1142    7069    6996    7070   13964   11164+
+          12175   13968   11168   11166
CTETRA      3738       4    1772    6046    1774    6058   11848   16234+
+           5586   11845    7918   11846
CTETRA      3739       4    1665    6050    5987    6055   15304    7885+
+          16574   15305    7900    7899
CTETRA      3740       4    1664    1695    1665    5987    5293    5292+
+           5294   16460   16298   16574
CTETRA      3741       4    1663    6040    6039    6041   12167    7872+
+          14558   12168    7880    7883
CTETRA      3742       4    1141    7069    1142    7070   13966   13964+
+           3582   15510   11168   13968
CTETRA      3743       4    1694    5980    6276    6278   16575    8573+
+          15248   14661    8569    8574
CTETRA      3744       4    1781    6011    6010    6017   13707    7711+
+          13706   15919    7738    7737
CTETRA      3745       4    1795    6025    6027    6028   16576    7806+
+          16577   16578    7805    7808
CTETRA      3746       4     754    7138    7134    7139   16188   11373+
+          16579   15373   11375   11378
CTETRA      3747       4     877    6883    7031    7034   16580   11034+
+          14434   13629   11033   11035
CTETRA      3748       4    1788    6001    6000    6025   16463    7741+
+          16581   16464    7804    7843
CTETRA      3749       4    1788    6000    1790    6025   16581   16582+
+           5651   16464    7843   16583
CTETRA      3750       4    1788    1789    1795    6025    5652    5670+
+           5669   16464   16584   16576
CTETRA      3751       4     868    1087    6996    7010    3481   13969+
+          16569   16570   15076   10936
CTETRA      3752       4     742    7045    7079    7080   16491   11206+
+          16585   14085   11213   11209
CTETRA      3753       4    1087    1142    1143    6996    3588    3592+
+           3594   13969   12175   13963
CTETRA      3754       4     757    7087     777    7185   16122   15631+
+           2324   16586   11540   15625
CTETRA      3755       4    1790    6025    6000    6034   16583    7843+
+          16582   16306    7845    7844
CTETRA      3756       4     801     802     811    7092    2493    2509+
+           2511   16587   15005   13575
CTETRA      3757       4    1788    1792    6000    6001    5659   16588+
+          16581   16463   16589    7741
CTETRA      3758       4     837    7206    7225    7226   14299   11663+
+          11907   11909   11673   11675
CTETRA      3759       4    1788    1795    1796    6028    5669    5671+
+           5667   16465   16578   16466
CTETRA      3760       4    1791    5999    6000    6016   16590    7735+
+          16591   16592    7730    7734
CTETRA      3761       4    1787    1792    6001    6015    5660   16589+
+          13724   16315   16593    7740
CTETRA      3762       4    1161    7051    7050    7059   16328   11116+
+          14239   14242   11136   11131
CTETRA      3763       4    1789    6025    6026    6027   16584    7807+
+          13826   14136    7806    7801
CTETRA      3764       4    1694    5980    5979    6276   16575    7876+
+          16594   15248    8573    8575
CTETRA      3765       4    1662    1678    1663    6041    5271    5273+
+           5272   14100   15641   12168
CTETRA      3766       4     861    7231    7232    7233   16071   11703+
+          13481   11882   11705   11707
CTETRA      3767       4     862    7226    7225    7233   11887   11675+
+          11908   11883   11709   11708
CTETRA      3768       4      20     581    5828    5829    1841   15693+
+          11836   14511   14513    7262
CTETRA      3769       4      57     108     107    5914    5803     122+
+           5802   13500    7527    7528
CTETRA      3770       4     361     617    5820    5855    1998   16319+
+          16595   15681   16320    7310
CTETRA      3771       4     617     656    5852    5855    1996   16596+
+          16318   16320   15683    7315
CTETRA      3772       4     133     144     143    5952   11782     150+
+          11785   16457    7678    7677
CTETRA      3773       4    1247    6638    6637    6646   14878    9767+
+          16548   16553    9778    9781
CTETRA      3774       4     719    5915    5917    5918   13517    7533+
+          11924   14873    7536    7535
CTETRA      3775       4     135     145     724    5941   11781   11789+
+           2303   11795    7637   11796
CTETRA      3776       4     717    5914    5915    5916   13514    7530+
+          13515   16148    7529    7526
CTETRA      3777       4      57     717     718    5916    2238    2236+
+           2237   15846   16148   15847
CTETRA      3778       4     687     688    5883    5897    2126   11806+
+          16597   16598   16599    7471
CTETRA      3779       4    1783    1792    6015    6016    5663   16593+
+          16314   16317   16600    7733
CTETRA      3780       4     856    7220    7223    7224   15592   11668+
+          15594   16111   11671   11672
CTETRA      3781       4     685    5884     688    5897   15657   11807+
+           2128   16601    7472   16599
CTETRA      3782       4    1669    6062    1768    6063   16602   11915+
+           5567   12605    7949   16603
CTETRA      3783       4     134     135     145     724     139   11781+
+          11780    2301    2303   11789
CTETRA      3784       4     687    5883    5882    5897   16597    7430+
+          16604   16598    7471    7473
CTETRA      3785       4     685     688     687    5897    2128    2126+
+           2127   16601   16599   16598
CTETRA      3786       4     673     685     674    5897    2111    2113+
+           2112   16605   16601   16606
CTETRA      3787       4     856    7223     858    7224   15594   15582+
+           2660   16111   11672   15581
CTETRA      3788       4     689     695     694    5895    2158    2160+
+           2156   16607   16608   16609
CTETRA      3789       4     355    5875     677    5889   14589   12418+
+           2073   14590    7433   12420
CTETRA      3790       4     353     160     162    5889   15348     161+
+          16610   15035    7432    7431
CTETRA      3791       4     355     658     357    5843    2007    2008+
+            356   16323   16160   16165
CTETRA      3792       4     353     162     160    5862   16610     161+
+          15348   16611    7355    7357
CTETRA      3793       4     603    6094     629    6103   16612   16613+
+           1918   16217    8078   16614
CTETRA      3794       4     683     686     685    5898    2109    2115+
+           2114   13751   13752   16615
CTETRA      3795       4      37     858     859    7223    2665    2667+
+           2662   16616   15582   16617
CTETRA      3796       4     357     164    5843    5854   15668    7302+
+          16165   15669    7304    7303
CTETRA      3797       4      61     113     112    5937    5814     129+
+           5815   16455    7624    7621
CTETRA      3798       4     112    5936     708    5937    7619   16618+
+          16619    7621    7620   16458
CTETRA      3799       4    1811    6075    6086    6088   11825    8012+
+          11826   11831    8006    8015
CTETRA      3800       4     584    1765    1745    6117    5550    5549+
+           5548   12262   12264   13915
CTETRA      3801       4    1805    6074    6073    6083   15935    7973+
+          15938   15939    8000    8001
CTETRA      3802       4     768    6980     793    7172   12449   16620+
+           2431   12448   11498   12563
CTETRA      3803       4     375    1810    1805    6074    5722    5728+
+           5726   14519   16621   15935
CTETRA      3804       4    1806    1809    6072    6073    5723   16622+
+          11891   11890   16623    7981
CTETRA      3805       4    1806    6072    1807    6088   11891   13944+
+           5724   11892    8004   13018
CTETRA      3806       4    1806    1814    6083    6088    5746   16624+
+          15940   11892   13781    8008
CTETRA      3807       4      34     849     848    7241    2617    2616+
+           2612   16625   16543   16544
CTETRA      3808       4    1806    1810    1809    6073    5725    5720+
+           5723   11890   15639   16623
CTETRA      3809       4    1661    1662    1736    5998    5262    5621+
+           5622   16626   12755   12754
CTETRA      3810       4     811    7190     817    7191   13576   16627+
+           2531   13577   11561   13566
CTETRA      3811       4    1133    1138    7067    7068    3574   12513+
+          16398   16628   12492   11177
CTETRA      3812       4    1662    1663    1780    6038    5272    5624+
+           5623   12756   14099   12788
CTETRA      3813       4    1106    1107    1110    6945    3415    3432+
+           3440   15317   16629   15318
CTETRA      3814       4    1661    5998    6008    6024   16626    7728+
+          16630   14569    7785    7788
CTETRA      3815       4    1683    6023    5977    6024   13842    7784+
+          13100   15999    7790    7795
CTETRA      3816       4     934    7105     938    7114   16087   16088+
+           2919   16631   11263   16091
CTETRA      3817       4    1199    6647    6646    6654   16632    9784+
+          16633   14248    9808    9811
CTETRA      3818       4    1662    6038    5997    6041   12756    7881+
+          14552   14100    7882    7875
CTETRA      3819       4    1662    1780    1736    6038    5623    5616+
+           5621   12756   12788   12757
CTETRA      3820       4     839    7221    7204    7222   14212   11647+
+          13456   13458   11651   11649
CTETRA      3821       4    1661    5997    5998    6024   14568    7787+
+          16626   14569    7786    7785
CTETRA      3822       4    1106    1110    1111    6958    3440    3441+
+           3434   15319   15320   16036
CTETRA      3823       4    1779    6037    1780    6039   14564   12745+
+           5620   14559    7860   14560
CTETRA      3824       4    1736    6034    5999    6036   16305    7852+
+          16304   14554    7854    7853
CTETRA      3825       4    1661    5997    1662    5998   14568   14552+
+           5262   16626    7787   12755
CTETRA      3826       4    1107    6944    1109    6960   16634   12233+
+           3431   16635   10822   12240
CTETRA      3827       4    1805    6074    6083    6085   15935    8000+
+          15939   15937    7994    8002
CTETRA      3828       4     582     583    1767    6066    2297    5561+
+           5560   15917   16636   16637
CTETRA      3829       4     583    6044    1767    6066   16638   16639+
+           5561   16636    7956   16637
CTETRA      3830       4     592    6043    6128    6137   15858    8213+
+          14414   14398    8212    8214
CTETRA      3831       4     583     584    1745    6044    2292    5548+
+           5551   16638   13914   13913
CTETRA      3832       4    1341    6610    6614    6615   16290    9722+
+          13300   15149    9721    9723
CTETRA      3833       4    1744    1757    6099    6100    5483   13837+
+          12414   13836   13835    8058
CTETRA      3834       4     587     588    1755    6080    2283    5492+
+           5493   13131   12390   16278
CTETRA      3835       4    1756    6078    6077    6116   13778    8056+
+          13776   13504    8158    8133
CTETRA      3836       4     586     587    1760    6119    2281    5518+
+           5513   14084   14645   14644
CTETRA      3837       4    1760    6119    6120    6123   14644    8161+
+          13127   16640    8153    8160
CTETRA      3838       4     587    1755    1760    6120    5493    5519+
+           5518   13132   13128   13127
CTETRA      3839       4     921    7100    7099    7143   13594   11309+
+          16641   13595   11405   11406
CTETRA      3840       4    1674    6262    1675    6347   12579   14685+
+           5333   14682    8887   14683
CTETRA      3841       4     835    7208    7228    7229   11969   11677+
+          14602   11970   11684   11687
CTETRA      3842       4    1673    6263    1674    6320   12902   12580+
+           5324   16346    8791   16642
CTETRA      3843       4     495    1068    1061    6975    3327    3333+
+           3300   16643   16644   16645
CTETRA      3844       4    1673    1674    1719    6320    5324    5413+
+           5410   16346   16642   13870
CTETRA      3845       4    1673    1698    1674    6263    5322    5325+
+           5324   12902   12901   12580
CTETRA      3846       4    1726    6334    6340    6347   13053    8858+
+          13055   14684    8889    8890
CTETRA      3847       4    1674    6263    6262    6347   12580    8592+
+          12579   14682    8888    8887
CTETRA      3848       4    1698    6277    6280    6281   15992    8585+
+          12905   12906    8593    8594
CTETRA      3849       4    1694    1697    5980    6278    5317   14578+
+          16575   14661   14660    8569
CTETRA      3850       4    1678    5979    1694    5980   16000   16594+
+           5306   16459    7876   16575
CTETRA      3851       4    1678    1679    1694    5979    5275    5319+
+           5306   16000   14573   16594
CTETRA      3852       4    1100    6904    1127    6906   16520   13331+
+           3529   16518   10583   16646
CTETRA      3853       4    1241    6792    6802    6804   13903   10291+
+          14204   11875   10307   10306
CTETRA      3854       4     910    7125    7097    7129   16417   11328+
+          15564   16647   11330   11329
CTETRA      3855       4    1736    1780    6036    6038    5616   12743+
+          14554   12757   12788    7863
CTETRA      3856       4    1238    1240    1239    6653    3847    3849+
+           3848   16648   15474   16649
CTETRA      3857       4    1661    5999    1791    6008   16650   16590+
+           5653   16630    7727   16651
CTETRA      3858       4     880     929    6989    7115    2882   13953+
+          16652   16653   16654   11248
CTETRA      3859       4    1661    1736    1791    5999    5622    5655+
+           5653   16650   16304   16590
CTETRA      3860       4    1678    5980    1696    6041   16459   12170+
+           5304   15641    7877   12169
CTETRA      3861       4    1780    6037    6038    6039   12745    7864+
+          12788   14560    7860    7865
CTETRA      3862       4    1685    6285    6267    6286   15849    8638+
+          12888   12890    8634    8636
CTETRA      3863       4    1582    1687    5975    6291    5242   16655+
+          16656   16352   16657    8662
CTETRA      3864       4    1687    6266    5975    6291   16658    8628+
+          16655   16657    8663    8662
CTETRA      3865       4     961     982     980    6535    3022    3023+
+           3009   16659   14261   14260
CTETRA      3866       4    1584    6267    1685    6294   16660   12888+
+           5257   16661    8668   16662
CTETRA      3867       4    1685    6267    6266    6294   12888    8639+
+          15859   16662    8668    8671
CTETRA      3868       4    1686    1687    5976    6022    5249   16663+
+          16664   15949   15951    7778
CTETRA      3869       4     735     967     736    6505    2998    2997+
+           2999   14521   16224   14522
CTETRA      3870       4    1687    1688    5975    6022    5244   16665+
+          16655   15951   15950    7776
CTETRA      3871       4    1582    1583    1687    6291    5147    5243+
+           5242   16352   16354   16657
CTETRA      3872       4     904    6987     906    6988   15571   16064+
+           2785   15572   10948   16666
CTETRA      3873       4    1061    1068    6974    6975    3333   16045+
+          16043   16645   16644   10883
CTETRA      3874       4    1683    1686    5976    6023    5253   16664+
+          13838   13842   13841    7782
CTETRA      3875       4    1094    6919    6900    6923   14306   10664+
+          13320   14806   10672   10671
CTETRA      3876       4    1029    1030    1175    6757    3213    3707+
+           3706   14530   14529   14926
CTETRA      3877       4    1583    1685    1687    6266    5256    5258+
+           5243   16667   15859   16658
CTETRA      3878       4     423    1578    1554    6363    4976    4975+
+           4886   12828   12827   12847
CTETRA      3879       4     421     423     230    6377     422   16668+
+          16669   12836   12829    8954
CTETRA      3880       4    1578    6376    6363    6377   12834    8951+
+          12827   12830    8953    8952
CTETRA      3881       4    1553    1557    1558    6373    4895    4899+
+           4897   13252   16670   16511
CTETRA      3882       4    1553    6364    1557    6373   13720   16671+
+           4895   13252    8931   16670
CTETRA      3883       4     423     232     230    6363   16672     231+
+          16668   12828    8924    8925
CTETRA      3884       4     423     425     232    6363     424   13636+
+          16672   12828   12846    8924
CTETRA      3885       4    1554    1578    1557    6376    4975    4977+
+           4896   16673   12834   12833
CTETRA      3886       4    1554    6363    1578    6376   12847   12827+
+           4975   16673    8951   12834
CTETRA      3887       4    1652    6394    1654    6436   15550   15548+
+           5219   15551    9175   15739
CTETRA      3888       4     411     216     218    6433   16674     217+
+          16357   14670    9155    9156
CTETRA      3889       4     411    1562     413    6450    4925    4926+
+            412   16358   16015   16017
CTETRA      3890       4     411    6256    1562    6450   16368   16364+
+           4925   16358    9216   16015
CTETRA      3891       4     742     743     865    7079    2399    2692+
+           2693   16585   16675   16676
CTETRA      3892       4    1006    1008    1007    6823    3148    3141+
+           3149   15356   15357   14327
CTETRA      3893       4    1596    1597    1642    6411    5104    5174+
+           5173   11935   12816   16240
CTETRA      3894       4    1064    1068    1066    6974    3334    3331+
+           3335   16040   16045   16051
CTETRA      3895       4     405     214     212    6307   16677     213+
+          16678   16679    8732    8733
CTETRA      3896       4     865    7074    7079    7081   16680   11215+
+          16676   16681   11217   11216
CTETRA      3897       4     405     212     214    6422   16678     213+
+          16677   16682    9098    9099
CTETRA      3898       4     405    6408     212    6422   14468    9069+
+          16678   16682    9096    9098
CTETRA      3899       4     405     210     212    6408   14467     211+
+          16678   14468    9068    9069
CTETRA      3900       4     405    6302    1552    6307   14470   16683+
+           4871   16679    8742   16684
CTETRA      3901       4    1104    6889    6888    6946   14278   10579+
+          16685   14279   10774   10773
CTETRA      3902       4     405     212     210    6302   16678     211+
+          14467   14470    8740    8741
CTETRA      3903       4     405     212    6302    6307   16678    8740+
+          14470   16679    8733    8742
CTETRA      3904       4    1204    1225    1205    6541    3801    3807+
+           3808   14890   12107   12102
CTETRA      3905       4    1550    1552    6306    6307    4872   13893+
+          16558   16560   16684    8736
CTETRA      3906       4    1570    6349    6348    6449   14717    9037+
+          16269   15746    9217    9212
CTETRA      3907       4     977    6867    6868    6869   16686   10551+
+          16687   16688   10550   10549
CTETRA      3908       4    1552    6302    6303    6307   16683    8743+
+          13892   16684    8742    8739
CTETRA      3909       4    1233    6562    6563    6567   15166    9524+
+          13982   13984    9523    9522
CTETRA      3910       4    1552    6303    6306    6307   13892    8737+
+          13893   16684    8739    8736
CTETRA      3911       4    1512    1552    1513    6303    4878    4877+
+           4879   13891   13892   16689
CTETRA      3912       4     407    1552    1550    6307    4870    4872+
+           4868   16690   16684   16560
CTETRA      3913       4    1205    1264    1254    6560    3939    3940+
+           3907   12103   16691   16692
CTETRA      3914       4    1056    6762    6761    6927   15533   10482+
+          14318   16397   10701   10698
CTETRA      3915       4    1438    1447    1439    6693    4529    4525+
+           4530   16277   13176   12741
CTETRA      3916       4    1528    1531    6454    6455    4766   14752+
+          14751   15956   16693    9255
CTETRA      3917       4    1516    1517    1566    6443    4819    4932+
+           4929   14732   16694   14730
CTETRA      3918       4    1517    1537    1542    6441    4820    4830+
+           4829   16695   15211   13115
CTETRA      3919       4    1517    6443    6441    6452   16694    9205+
+          16695   14411    9225    9222
CTETRA      3920       4     955     956    6818    6819    3069   15742+
+          12339   12338   15743   10378
CTETRA      3921       4     737    1236    6789    6807    3821   14508+
+          14507   14497   14514   10317
CTETRA      3922       4    1523    1524    1543    6480    4775    4835+
+           4828   13134   16271   14410
CTETRA      3923       4    1516    1537    1517    6441    4818    4820+
+           4819   16696   15211   16695
CTETRA      3924       4     987    6812     990    6844   13397   13399+
+           3071   12324   10426   13402
CTETRA      3925       4    1544    1548    6352    6353    4853   15223+
+          14408   14407   15226    9002
CTETRA      3926       4    1544    6353    6493    6494   14407    9374+
+          14409   15230    9371    9375
CTETRA      3927       4    1213    1233    1232    6563    3813    3815+
+           3805   16044   13982   16047
CTETRA      3928       4    1207    1235    1208    6508    3827    3825+
+           3828   15121   14526   14525
CTETRA      3929       4    1477    6141    6142    6187   13150    8376+
+          13743   14760    8356    8373
CTETRA      3930       4    1476    1477    6187    6192    4663   14760+
+          13156   14753   13151    8349
CTETRA      3931       4    1481    1486    6140    6366    4657   14772+
+          14784   15279   14773    8905
CTETRA      3932       4    1391    6675    6620    6683   14791    9913+
+          14794   16284    9942    9946
CTETRA      3933       4     733    6558     734    6564   12859   16697+
+           3003   13310    9512   13081
CTETRA      3934       4    1345    6522    1361    6628   15911   16698+
+           4271   15915    9840   16699
CTETRA      3935       4     417    1579     419    6388    4985    4983+
+            418   16432   11954   11953
CTETRA      3936       4    1440    1441    1450    6699    4515    4546+
+           4547   15918   13683   13020
CTETRA      3937       4    1360    6519    6635    6662   16700    9790+
+          16701   16702    9855    9854
CTETRA      3938       4    1196    1360    6519    6635    4256   16700+
+          15810   12765   16701    9790
CTETRA      3939       4    1186    1316    6696    6710    4067   13264+
+          13158   13160   13269   10019
CTETRA      3940       4    1373    6628    6627    6736   16703    9844+
+          16704   16705   10120   10119
CTETRA      3941       4    1274    1275    1373    6736    4133    4316+
+           4317   16706   16707   16705
CTETRA      3942       4    1450    6687    6686    6699   16708    9972+
+          16709   13020    9991    9990
CTETRA      3943       4    1187    6695    6696    6698   13945    9994+
+          13265   13941    9993    9995
CTETRA      3944       4    1432    1499    1500    6167    4730    4734+
+           4733   12718   14173   12719
CTETRA      3945       4    1035    1056    1057    6895    3274    3276+
+           3278   13522   15503   15331
CTETRA      3946       4    1441    1448    1450    6699    4535    4544+
+           4546   13683   13021   13020
CTETRA      3947       4    1362    6527    6528    6550   16710    9413+
+          14808   14809    9412    9411
CTETRA      3948       4    1358    1362    1363    6550    4281    4285+
+           4287   16711   14809   14810
CTETRA      3949       4    1290    6742    6525    6745   12322   10155+
+          12312   12315   10154   10157
CTETRA      3950       4    1411    1423    1412    6146    4420    4422+
+           4421   16712   16713   16379
CTETRA      3951       4    1288    1290    6741    6742    3973   12311+
+          12310   16714   12322   10153
CTETRA      3952       4    1321    6735    6740    6743   14845   10142+
+          12078   12081   10140   10144
CTETRA      3953       4    1276    1277    1350    6745    3977    4222+
+           4223   14547   12314   14550
CTETRA      3954       4    1350    6523    6524    6580   15909    9588+
+          14548   16392    9587    9584
CTETRA      3955       4    1348    6523    1350    6580   16715   15909+
+           4225   14756    9587   16392
CTETRA      3956       4    1349    1350    6524    6580    4224   14548+
+          16716   16299   16392    9584
CTETRA      3957       4    1197    1198    6633    6648    3789   15444+
+          16717   13045   15030    9773
CTETRA      3958       4    1344    6523    1345    6628   16718   15914+
+           4234   16719    9841   15915
CTETRA      3959       4    1192    1218    1215    6530    3727    3733+
+           3732   12505   15061   12515
CTETRA      3960       4    1199    1249    6646    6647    3887   16551+
+          16633   16632   16720    9784
CTETRA      3961       4    1356    6657    1359    6662   16721   15006+
+           4261   15258    9847   15008
CTETRA      3962       4    1040    1056    1054    6762    3271    3270+
+           3269   15498   15533   15499
CTETRA      3963       4    1681    6273    1691    6286   14693   14692+
+           5281   16722    8631   12887
CTETRA      3964       4    1344    1350    1345    6523    4233    4230+
+           4234   16718   15909   15914
CTETRA      3965       4    1696    5980    5981    6040   12170    7879+
+          14095   12166    7878    7868
CTETRA      3966       4    1413    1426    1414    6212    4446    4448+
+           4447   12038   12031   16723
CTETRA      3967       4    1414    1426    6210    6212    4448   12030+
+          16724   16723   12031    8440
CTETRA      3968       4    1279    6216    6215    6241   16725    8462+
+          16726   14830    8554    8555
CTETRA      3969       4    1181    1473    6157    6173    4620   13879+
+          14833   14190   13883    8222
CTETRA      3970       4     131       7    1820    6097     140    5768+
+           5767   15622   15345   14089
CTETRA      3971       4    1180    1279    1333    6242    4183    4185+
+           4177   15763   14831   16727
CTETRA      3972       4    1040    6761    6762    6851   14316   10482+
+          15498   12583   10481   10480
CTETRA      3973       4    1475    1476    1496    6190    4671    4715+
+           4726   16274   11983   11984
CTETRA      3974       4    1179    6235    1279    6242   16728   14829+
+           4028   15762    8560   14831
CTETRA      3975       4    1356    1367    1371    6661    4307    4306+
+           4309   15257   16516   12779
CTETRA      3976       4    1279    6235    1299    6241   14829   15239+
+           4029   14830    8556   16729
CTETRA      3977       4     734     735    1214    6566    3013    3771+
+           3770   13079   13080   13674
CTETRA      3978       4     439    1301    1303    6205    4044    4045+
+           4042   13098   14876   16730
CTETRA      3979       4     735     736    1234    6506    2999    3817+
+           3816   14523   14520   14502
CTETRA      3980       4    1232    6563    1237    6570   16047   16731+
+           3840   16732    9547   16733
CTETRA      3981       4    1235    6562    6508    6571   15165    9530+
+          14526   15184    9549    9548
CTETRA      3982       4    1476    6187    6188    6190   13156    8350+
+          11980   11983    8347    8337
CTETRA      3983       4     736    6789    6506    6869   14506   10319+
+          14520   16734   10544   10543
CTETRA      3984       4    1196    1227    1229    6518    3781    3785+
+           3784   13050   15196   13051
CTETRA      3985       4    1309    1319    1310    5963    4116    4106+
+           4117   12614   14355   13539
CTETRA      3986       4    1197    6633    6634    6648   16717    9776+
+          12762   13045    9773    9777
CTETRA      3987       4    1338    1342    6609    6614    4212   15790+
+          15178   15771   15793    9729
CTETRA      3988       4    1192    1218    6530    6602    3727   15061+
+          12505   12504   12503    9678
CTETRA      3989       4    1413    6153    6152    6212   16735    8319+
+          13105   12038    8435    8436
CTETRA      3990       4    1051    6760    6761    6850   15341   10471+
+          16048   16050   10470   10472
CTETRA      3991       4    1021    1022    1110    6960    3313    3429+
+           3428   12241   16736   12248
CTETRA      3992       4    1039    1050    1040    6851    3230    3234+
+           3235   12582   15508   12583
CTETRA      3993       4    1108    6945    6947    6949   16737   10776+
+          16738   16739   10787   10788
CTETRA      3994       4    1106    6946    6945    6958   15316   10777+
+          15317   15319   10821   10818
CTETRA      3995       4    1056    6895    6762    6927   15503   10699+
+          15533   16397   10692   10701
CTETRA      3996       4    1512    1551    6303    6304    4880   13884+
+          13891   13890   13885    8738
CTETRA      3997       4    1106    6945    6946    6947   15317   10777+
+          15316   16740   10776   10775
CTETRA      3998       4     994    6596    6597    6600   14274    9670+
+          12669   12691    9663    9668
CTETRA      3999       4     437    1452     439    6692    4558    4557+
+            438   15429   11998   12002
CTETRA      4000       4    1435    1438    1436    5969    4526    4528+
+           4527   16546   16541   16741
CTETRA      4001       4     397     399    1633    6414     398    5159+
+           5131   16742   16743   16744
CTETRA      4002       4     995    6597    6598    6601   12671    9674+
+          12677   16067    9669    9673
CTETRA      4003       4    1011    6599    6586    6600   12689    9657+
+          14063   16065    9659    9658
CTETRA      4004       4     868     896     869    7009    2718    2721+
+           2720   15565   15383   14441
CTETRA      4005       4    1559    6254    1561    6447   16745   12541+
+           4916   16746    9189   16747
CTETRA      4006       4     730     994     731    6607    3101    3103+
+           3102   15802   14277   14276
CTETRA      4007       4    1000    1002    1001    6585    3121    3120+
+           3122   12279   14268   12295
CTETRA      4008       4    1032    1033    6831    6848    3268   16748+
+          15102   15732   14310   10454
CTETRA      4009       4    1681    6282    6273    6286   16749    8630+
+          14693   16722    8632    8631
CTETRA      4010       4     948     987    6844    6846    3050   12324+
+          12323   16061   16750   10439
CTETRA      4011       4    1050    6838    6850    6851   15507   10476+
+          16058   15508   10475   10477
CTETRA      4012       4    1411    1453    1492    6145    4606    4692+
+           4694   14011   13119   13120
CTETRA      4013       4     963     988     987    6841    3054    3055+
+           3051   16751   14937   15358
CTETRA      4014       4     987    6841    6844    6846   15358   10445+
+          12324   16750   10446   10439
CTETRA      4015       4     963     974    6842    6845    2976   16083+
+          16752   16753   16538   10436
CTETRA      4016       4     947     974     963    6845    2972    2976+
+           2973   14324   16538   16753
CTETRA      4017       4    1646    1649    1656    6435    5206    5225+
+           5224   16754   13845   13846
CTETRA      4018       4    1422    6148    1425    6213   15439   12750+
+           4444   16755    8444   12020
CTETRA      4019       4     938    7109    7114    7116   14078   11255+
+          16091   13378   11260   11262
CTETRA      4020       4     367     615     580    5826    1895    1897+
+           1896   16167   14126   16451
CTETRA      4021       4     928     929     937    7108    2889    2916+
+           2918   12358   13607   13959
CTETRA      4022       4     584    6117    6044    6137   12262    8140+
+          13914   15854    8211    8210
CTETRA      4023       4     937    7109    7108    7114   13960   11243+
+          13959   16090   11255   11254
CTETRA      4024       4     940    7110    7109    7116   13368   11247+
+          11995   13369   11261   11260
CTETRA      4025       4     625    5837    5838    5870   11811    7405+
+          11817   11812    7401    7403
CTETRA      4026       4     871     900     872    7032    2758    2757+
+           2760   16756   14947   15486
CTETRA      4027       4    1600    6399    1620    6476   16757   15214+
+           5072   16758    9303   15216
CTETRA      4028       4     872     900     877    7031    2757    2756+
+           2753   15485   15484   14434
CTETRA      4029       4     923     930    7022    7023    2884   14932+
+          13639   12342   12341   10992
CTETRA      4030       4    1587    1604    1611    6301    5015    5017+
+           5016   12082   14041   12083
CTETRA      4031       4    1738    1778    5990    6035    5604   14643+
+          13819   13829   13828    7840
CTETRA      4032       4     900     901    7002    7003    2759   16759+
+          14946   14945   14944   10975
CTETRA      4033       4    1736    1780    1737    6036    5616    5615+
+           5617   14554   12743   12742
CTETRA      4034       4    1660    6007    1686    6023   16760   15946+
+           5247   13840    7781   13841
CTETRA      4035       4     901     902    7002    7017    2768   15093+
+          16759   15579   15576   10953
CTETRA      4036       4    1715    1717    1716    6322    5402    5404+
+           5403   14964   15396   13662
CTETRA      4037       4    1753    1754    1763    6106    5510    5529+
+           5531   16761   16762   14632
CTETRA      4038       4     744    7047    7037    7048   16469   11093+
+          12244   12246   11099   11097
CTETRA      4039       4    1514    1539    1515    6439    4805    4807+
+           4806   16763   14606   12552
CTETRA      4040       4     743     895    7044    7047    2697   14234+
+          16764   16765   16766   11086
CTETRA      4041       4       2      13      24    6131     542     541+
+             25   15891    8174   16287
CTETRA      4042       4     895    7046    7044    7047   16767   11085+
+          14234   16766   11087   11086
CTETRA      4043       4     831     844    7213    7238    2601   16178+
+          16176   16768   14983   11727
CTETRA      4044       4     831    7212     847    7238   14995   16113+
+           2602   16768   11728   14984
CTETRA      4045       4     831    7213    7212    7238   16176   11643+
+          14995   16768   11727   11728
CTETRA      4046       4    1029    6757    6758    6788   14530   10267+
+          14535   14531   10265   10259
CTETRA      4047       4     824     830    7198    7213    2574   16769+
+          13484   16175   16177   11645
CTETRA      4048       4     763    7179     827    7195   16770   16771+
+           2545   16433   11582   16436
CTETRA      4049       4    1697    5982    5981    6265   15864    7869+
+          14579   15251    8564    8563
CTETRA      4050       4     607    6132     612    6133   14494   14493+
+           1886   14501    8181   14419
CTETRA      4051       4     763     789    7161    7180    2412   12913+
+          16506   12900   12899   11534
CTETRA      4052       4     763    7180    7179    7195   12900   11538+
+          16770   16433   11587   11582
CTETRA      4053       4     771     778     772    7085    2337    2343+
+           2345   12386   12385   16360
CTETRA      4054       4     775    7153    7152    7155   14918   11444+
+          15059   14919   11452   11454
CTETRA      4055       4    1812    6086    6076    6101   13017    8014+
+          13016   13773    8066    8063
CTETRA      4056       4     748    7155    7159    7160   14421   11464+
+          16772   16773   11468   11469
CTETRA      4057       4     748    7155     749    7159   14421   16370+
+           2321   16772   11464   15553
CTETRA      4058       4    1028    1029    1095    6918    3224    3549+
+           3548   16774   14912   16775
CTETRA      4059       4     385     192     194    6011   14326     193+
+          14281   16335    7709    7708
CTETRA      4060       4     618    5822    5821    5851   16776    7282+
+          16777   16778    7296    7295
CTETRA      4061       4     618     619    5822    5851    1988   16779+
+          16776   16778   13193    7296
CTETRA      4062       4     618    5851    5821    5852   16778    7295+
+          16777   16780    7298    7297
CTETRA      4063       4    1399    1532    1502    6459    4747    4744+
+           4742   16781   16782   14976
CTETRA      4064       4     613     618     619    5822    2265    1988+
+           2264   16783   16776   16779
CTETRA      4065       4     613     614     618    5821    1891    2266+
+           2265   14118   14117   16777
CTETRA      4066       4     617     618    5821    5852    1992   16777+
+          16321   16318   16780    7297
CTETRA      4067       4     647     648     689    5880    2030    2143+
+           2142   16784   15406   16785
CTETRA      4068       4     662    5847    5866    5867   15419    7368+
+          15350   13199    7370    7372
CTETRA      4069       4     675    5881    5895    5896   16786    7466+
+          16787   16788    7468    7470
CTETRA      4070       4       1       2      20     607     153      30+
+            551   14516    1837    1836
CTETRA      4071       4     675     687    5882    5896    2120   16604+
+          16789   16788   16790    7469
CTETRA      4072       4     646     647     675    5881    2028    2119+
+           2118   16791   15353   16786
CTETRA      4073       4    1029    1175    1095    6924    3706    3708+
+           3549   16792   16515   16793
CTETRA      4074       4     646    5881     675    5882   16791   16786+
+           2118   16794    7426   16789
CTETRA      4075       4     675    5881     689    5895   16786   16795+
+           2144   16787    7466   16607
CTETRA      4076       4    1028    1029    6918    6930    3224   14912+
+          16774   16796   14913   10711
CTETRA      4077       4     650    5863     651    5877   13442   16797+
+           2011   16798    7410   16375
CTETRA      4078       4     371     609     373    6130    1859    1858+
+            372   14188   14181   16085
CTETRA      4079       4     650    5863    5877    5878   13442    7410+
+          16798   13431    7416    7417
CTETRA      4080       4     658     660    5844    5863    2020   13440+
+          16161   13445   13441    7359
CTETRA      4081       4      21      22      10     619      28     548+
+            547    2263    2055   16799
CTETRA      4082       4     650    5864    5863    5878   13439    7366+
+          13442   13431    7413    7416
CTETRA      4083       4     688    5884    5883    5897   11807    7444+
+          11806   16599    7472    7471
CTETRA      4084       4     700    5922    5930    5933   16800    7588+
+          16801   16802    7594    7596
CTETRA      4085       4     633     638    5835    5950    1951   13790+
+          16803   16804   14175    7676
CTETRA      4086       4    1777    5990    5989    6049   14650    7850+
+          16805   14652    7892    7891
CTETRA      4087       4     652     653     661    5856    1994    2035+
+           2036   13209   16806   16807
CTETRA      4088       4     632     633     638    5835    1926    1951+
+           1953   15661   16803   13790
CTETRA      4089       4     638     639     640    5950    1952    1963+
+           1962   14175   14168   14162
CTETRA      4090       4     633    5949    5818    5950   12949    7674+
+          16808   16804    7675    7672
CTETRA      4091       4     632    5835    5834    5949   15661    7394+
+          12943   12951    7670    7669
CTETRA      4092       4     594    6126    6125    6135   12138    8194+
+          12136   12128    8201    8200
CTETRA      4093       4     633    5835    5949    5950   16803    7670+
+          12949   16804    7676    7675
CTETRA      4094       4     868    7010    6997    7016   16570   10935+
+          16556   15382   10941   10931
CTETRA      4095       4      61     708     707    5937    2186    2185+
+           2183   16455   16458   16325
CTETRA      4096       4     843    7219    7218    7240   16809   11669+
+          15584   15587   11733   11732
CTETRA      4097       4     868    6998     890    7016   16810   12365+
+           2710   15382   10930   15380
CTETRA      4098       4      39     863     861    7230    2682    2680+
+           2675   13479   11880   11879
CTETRA      4099       4     349      64     699    5928    2209    2210+
+           2148   15929   12967   13015
CTETRA      4100       4     655    5844     660    5845   13443   13440+
+           2023   13436    7292   13437
CTETRA      4101       4     855    7217    7216    7236   12429   11661+
+          12407   12406   11719   11726
CTETRA      4102       4     906     912    7126    7128    2810   15073+
+          15072   16426   16811   11325
CTETRA      4103       4     672     712     715    5911    2217    2227+
+           2224   13731   16812   13732
CTETRA      4104       4     868    6996    1143    6997   16569   13963+
+           3593   16556   10937   16557
CTETRA      4105       4     886     887     905    7014    2736    2771+
+           2770   12023   12025   16813
CTETRA      4106       4     905    6986    6987    7007   16814   10921+
+          16063   15567   10920   10922
CTETRA      4107       4     955     990    6819    6830    3063   15733+
+          12338   12330   16815   10407
CTETRA      4108       4     519     328     326    7107   16084     327+
+          13381   13380   11274   11273
CTETRA      4109       4     519     932    7107    7117    2895   12464+
+          13380   13382   12465   11275
CTETRA      4110       4     519     932     521    7107    2895    2894+
+            520   13380   12464   13379
CTETRA      4111       4    1379    1382    6666    6669    4347   13201+
+          14367   13042   13185    9889
CTETRA      4112       4     515    7110     322    7113   14066   11244+
+          14065   11991   11246   11238
CTETRA      4113       4     521     328    7107    7121   12534   11274+
+          13379   12535   11281   11283
CTETRA      4114       4    1631    1642    6411    6415    5167   16240+
+          16244   13608   13605    9051
CTETRA      4115       4    1658    1786    1785    6013    5639    5645+
+           5644   16816   15974   13161
CTETRA      4116       4    1143    6997    6996    7069   16557   10937+
+          13963   13965   11165   11164
CTETRA      4117       4    1135    7077    7076    7078   12008   11194+
+          13614   13617   11196   11195
CTETRA      4118       4    1132    1148    7061    7067    3605   14217+
+          12500   12499   16399   11174
CTETRA      4119       4     950     990     955    6830    3064    3063+
+           3062   12271   16815   12330
CTETRA      4120       4     507     913     509    6935    2818    2819+
+            508   13418   13413   16106
CTETRA      4121       4     963     964     988    6842    2981    3048+
+           3054   16752   16082   14939
CTETRA      4122       4     901    7002    7003    7017   16759   10975+
+          14944   15579   10953   10972
CTETRA      4123       4     900     901     902    7002    2759    2768+
+           2767   14946   16759   15093
CTETRA      4124       4     964     985     988    6843    3047    3049+
+           3048   16226   15751   14938
CTETRA      4125       4     886     905    7007    7014    2770   15567+
+          15566   12023   16813   10923
CTETRA      4126       4     583    1745    1767    6044    5551    5569+
+           5561   16638   13913   16639
CTETRA      4127       4     906     907     912    7128    2787    2815+
+           2810   16426   16421   16811
CTETRA      4128       4     985     986     988    6843    3046    3060+
+           3049   15751   14931   14938
CTETRA      4129       4     870     885     901    7021    2724    2750+
+           2749   14440   15884   15885
CTETRA      4130       4     871    7004    7003    7035   15814   10978+
+          14943   15297   11041   11043
CTETRA      4131       4     674     694     714    5896    2157    2213+
+           2211   16817   16818   16819
CTETRA      4132       4     874    6934     875    6949   16820   16821+
+           2832   16822   10790   16823
CTETRA      4133       4     626    5839    5840    5849   16824    7352+
+          16383   11821    7351    7350
CTETRA      4134       4     874    6948    6934    6949   16825   10781+
+          16820   16822   10791   10790
CTETRA      4135       4    1710    1711    1716    6324    5396    5408+
+           5406   12672   12674   13663
CTETRA      4136       4     990    6811    6812    6819   13407   10376+
+          13399   15733   10375   10374
CTETRA      4137       4     584    6136    6117    6137   13916    8215+
+          12262   15854    8216    8211
CTETRA      4138       4     875    6933    6944    6949   16826   10783+
+          16827   16823   10785   10784
CTETRA      4139       4    1107    6944    6945    6949   16634   10789+
+          16629   16828   10784   10787
CTETRA      4140       4     987     989    6812    6841    3073   13398+
+          13397   15358   15359   10409
CTETRA      4141       4    1329    6159    1332    6160   16829   16830+
+           4171   16831    8238   16832
CTETRA      4142       4     875    6933     876    6944   16826   13410+
+           2829   16827   10783   12234
CTETRA      4143       4     876    6944    6932    6959   12234   10786+
+          13404   12235   10817   10816
CTETRA      4144       4     875     915     876    6933    2828    2827+
+           2829   16826   13411   13410
CTETRA      4145       4     875     876    1107    6944    2829    3410+
+           3409   16827   12234   16634
CTETRA      4146       4    1643    1645    1644    6421    5180    5179+
+           5181   16833   16834   16835
CTETRA      4147       4     505    6932     915    6937   13403   13405+
+           2821   13409   10741   13416
CTETRA      4148       4    1494    6193    6188    6196   15404    8361+
+          11981   13738    8381    8380
CTETRA      4149       4     963    6841     987    6846   16751   15358+
+           3051   16836   10446   16750
CTETRA      4150       4    1547    1549    1548    6384    4860    4862+
+           4861   16837   16838   16839
CTETRA      4151       4     913    6885    6935    6936   16840   10729+
+          13413   13412   10728   10730
CTETRA      4152       4    1417    1418    6198    6214    4458   16841+
+          16842   16843   12029    8449
CTETRA      4153       4     948     963     987    6846    2975    3051+
+           3050   16061   16836   16750
CTETRA      4154       4     926     927    6885    6991    2875   14110+
+          14933   12347   12362   10982
CTETRA      4155       4     513     942     515    7113    2935    2933+
+            514   14072   11992   11991
CTETRA      4156       4    1375    1376    1386    6673    4331    4372+
+           4371   13037   13039   14370
CTETRA      4157       4    1397    6630    6629    6679   15787    9829+
+          13304   13895    9919    9921
CTETRA      4158       4    1291    1293    6748    6749    3996   16844+
+          16845   16846   14630   10174
CTETRA      4159       4     913     922     927    6885    2864    2871+
+           2870   16840   14934   14110
CTETRA      4160       4     735     981     967    6505    3011    3014+
+           2998   14521   14827   16224
CTETRA      4161       4    1440    1450    6686    6699    4547   16709+
+          12000   15918   13020    9990
CTETRA      4162       4    1419    6149    1420    6150   15826   15827+
+           4443   16847    8391   14746
CTETRA      4163       4     405    1644    1645    6408    5177    5179+
+           5175   14468   16848   14457
CTETRA      4164       4     451     258     260    6526   13288     259+
+          13287   13311    9594    9593
CTETRA      4165       4    1029    6918    6757    6924   14912   10679+
+          14530   16792   10678   10677
CTETRA      4166       4    1000    6584    1002    6585   12698   14269+
+           3121   12279    9615   14268
CTETRA      4167       4     736     967     977    6869    2997    3000+
+           2990   16734   16849   16688
CTETRA      4168       4    1164    6756    6920    6924   16513   10681+
+          16850   16514   10680   10682
CTETRA      4169       4    1504    6462    6456    6463   16238    9239+
+          15836   13699    9245    9235
CTETRA      4170       4    1593    1619    1621    6424    5076    5079+
+           5078   15220   15221   14444
CTETRA      4171       4    1280    1332    1333    6215    4181    4180+
+           4182   13986   13985   16851
CTETRA      4172       4    1094    1095    1164    6919    3552    3670+
+           3669   14306   16852   16853
CTETRA      4173       4     732     962     733    6533    3006    3005+
+           3007   16173   15542   14267
CTETRA      4174       4     377     182     184    5996   15295     183+
+          15294   12616    7826    7825
CTETRA      4175       4    1095    6923    6918    6924   14801   10683+
+          16775   16793   10685   10678
CTETRA      4176       4    1704    6274    6282    6284   16854    8622+
+          16855   16856    8620    8614
CTETRA      4177       4     954    1173    1171    6779    3693    3695+
+           3694   15784   12140   12139
CTETRA      4178       4    1073    1080    1076    6939    3372    3373+
+           3360   15133   13653   15128
CTETRA      4179       4    1063    1065    1064    6976    3319    3318+
+           3320   14908   15539   15538
CTETRA      4180       4     948    1050    1039    6838    3227    3230+
+           3228   15905   15507   15506
CTETRA      4181       4     997     999     998    6771    3114    3106+
+           3115   16539   12307   16857
CTETRA      4182       4     998    6828    6771    6829   16858   10396+
+          16857   12304   10395   10397
CTETRA      4183       4    1509    6472    6438    6475   16859    9283+
+          13235   13244    9308    9298
CTETRA      4184       4     992    6771     997    6785   12318   16539+
+           3111   16860   10239   16861
CTETRA      4185       4    1483    6138    5971    6369   16374    8304+
+          16862   13642    8894    8893
CTETRA      4186       4     958     986     984    6822    3041    3044+
+           3030   16863   15745   16864
CTETRA      4187       4     958    6820    6821    6822   15862   10353+
+          15753   16863   10350   10352
CTETRA      4188       4    1648    6405    6404    6423   16865    9093+
+          16866   15619    9133    9136
CTETRA      4189       4     419    1429    1427    6151    4475    4474+
+           4473   11948   14742   14737
CTETRA      4190       4     399     401     208    6331     400   13582+
+          16867   16868   14031    8821
CTETRA      4191       4    1587    1702    1705    6270    5358    5359+
+           5354   14042   16869   16870
CTETRA      4192       4     983    6815     984    6836   14864   16871+
+           3037   15512   10416   16068
CTETRA      4193       4     964    6835     985    6843   14940   14942+
+           3047   16226   10418   15751
CTETRA      4194       4     736    6505     967    6869   14522   16224+
+           2997   16734   10541   16849
CTETRA      4195       4     962    1002    6584    6606    3125   14269+
+          12697   15543   13065    9684
CTETRA      4196       4    1511    1561    1551    6254    4912    4915+
+           4881   16872   12541   16873
CTETRA      4197       4     737     977    6868    6869    2989   16687+
+          16874   16875   16688   10549
CTETRA      4198       4     962    6534    6584    6587   14265    9612+
+          12697   12699    9610    9614
CTETRA      4199       4    1083    6856    6858    6860   14812   10512+
+          15727   16876   10508   10517
CTETRA      4200       4     740     741    1243    6793    2940    3866+
+           3867   13910   15780   13911
CTETRA      4201       4    1243    6802    6793    6803   15779   10289+
+          13911   15820   10288   10290
CTETRA      4202       4     943     944    6858    6863    2946   15702+
+          13357   12337   12335   10523
CTETRA      4203       4     740    6793    6792    6863   13910   10292+
+          13317   13359   10520   10529
CTETRA      4204       4     739    6791     972    6861   11869   16877+
+           2952   13322   10526   13904
CTETRA      4205       4    1588    1611    6287    6301    5020   15088+
+          12085   12084   12083    8712
CTETRA      4206       4     399     401    1639    6412     400    5154+
+           5155   16878   13581   16879
CTETRA      4207       4    1603    6288    1611    6298   16450   14046+
+           5039   14454    8697   14040
CTETRA      4208       4     991    6777    6785    6786   16340   10233+
+          16342   15131   10242   10243
CTETRA      4209       4     487     489     993    6777     488    3077+
+           3076   14014   16147   16341
CTETRA      4210       4     489     993    6777    6780    3077   16341+
+          16147   16145   16149   10205
CTETRA      4211       4     966     976     977    6867    2994    2993+
+           2995   16880   16526   16686
CTETRA      4212       4     993    6776    6777    6780   16151   10206+
+          16341   16149   10200   10205
CTETRA      4213       4     991    6772    1005    6786   16347   16344+
+           3130   15131   10245   15132
CTETRA      4214       4     991     997    1005    6772    3112    3131+
+           3130   16347   16881   16344
CTETRA      4215       4     421    1430    6200    6202    4480   16882+
+          16883   16884   16885    8408
CTETRA      4216       4     992    6776    6784    6785   16886   10234+
+          12319   16860   10232   10235
CTETRA      4217       4     737     977     970    6868    2989    2992+
+           2965   16874   16687   16095
CTETRA      4218       4     997    6771    6772    6785   16539   10246+
+          16881   16861   10239   10244
CTETRA      4219       4    1522    1523    1538    6487    4782    4826+
+           4813   12536   13135   13556
CTETRA      4220       4     953     992     993    6776    3086    3080+
+           3084   15782   16886   16151
CTETRA      4221       4     953     993     954    6776    3084    3083+
+           3085   15782   16151   15785
CTETRA      4222       4     736     977     737    6869    2990    2989+
+           2991   16734   16688   16875
CTETRA      4223       4    1418    6199    6198    6214   12028    8406+
+          16841   12029    8454    8449
CTETRA      4224       4     953     954    1171    6779    3085    3694+
+           3696   15783   15784   12139
CTETRA      4225       4     993    6777    6776    6785   16341   10206+
+          16151   16343   10233   10232
CTETRA      4226       4    1309    1319    5963    6704    4116   14355+
+          12614   14556   14350   10035
CTETRA      4227       4    1270    6622    1387    6721   16887   16402+
+           4357   13225   10068   13920
CTETRA      4228       4    1374    6623    6624    6671   13213    9887+
+          13216   13189    9885    9883
CTETRA      4229       4     729    6612    1343    6613   16888   16889+
+           4214   16890    9709   16891
CTETRA      4230       4     473     475     280    6800     474   16572+
+          16571   16892   16893   10271
CTETRA      4231       4     471     278    6599    6601   12645    9655+
+          12688   12650    9664    9666
CTETRA      4232       4     469     471     995    6601     470    3092+
+           3091   12649   12650   16067
CTETRA      4233       4     473     280    6574    6599   16571    9570+
+          16555   16894    9654    9656
CTETRA      4234       4     475    6574     282    6577   16573    9569+
+          16895   14050    9571    9559
CTETRA      4235       4    1237    6570    6562    6571   16733    9555+
+          16896   15183    9556    9549
CTETRA      4236       4    1207    1235    6508    6571    3827   14526+
+          15121   15182   15184    9548
CTETRA      4237       4    1212    1213    1232    6538    3769    3805+
+           3804   13302   12808   16046
CTETRA      4238       4     990    6811    6819    6830   13407   10375+
+          15733   16815   10402   10407
CTETRA      4239       4    1224    6537    6564    6565   12810    9514+
+          14599   15932    9510    9515
CTETRA      4240       4     980    6557    6558    6559   16897    9485+
+          12860   14262    9484    9483
CTETRA      4241       4    1214    6565    6564    6566   13673    9515+
+          15933   13674    9526    9518
CTETRA      4242       4    1199    6646    1239    6654   16633   16898+
+           3856   14248    9811   16899
CTETRA      4243       4    1531    6454    6455    6460   14752    9255+
+          16693   16900    9254    9253
CTETRA      4244       4    1255    6638    6639    6643   12098    9759+
+          12096   12100    9756    9752
CTETRA      4245       4    1205    1225    1231    6568    3807    3810+
+           3809   16901   14898   16902
CTETRA      4246       4    1528    6454    1529    6478   14751   14745+
+           4767   13559    9328   13560
CTETRA      4247       4     729    6611    6604    6612   16903    9699+
+          16904   16888    9701    9700
CTETRA      4248       4    1190    6603    1220    6608   16905   15046+
+           3719   15794    9703   16906
CTETRA      4249       4     481     483     290    6767     482   13991+
+          16907   14815   12453   10769
CTETRA      4250       4    1402    6489    6453    6490   12297    9350+
+          12769   16908    9354    9352
CTETRA      4251       4     950     955     951    6830    3062    3066+
+           3065   12271   12330   16540
CTETRA      4252       4    1570    6449    6348    6450   15746    9212+
+          16269   16016    9211    9210
CTETRA      4253       4     413     220    6393    6437   16361    9178+
+          15737   15738    9174    9180
CTETRA      4254       4    1650    1652    1655    6436    5214    5222+
+           5220   14669   15551   12792
CTETRA      4255       4     949    6811     950    6837   13406   13408+
+           3072   16059   10423   15736
CTETRA      4256       4     729    6604     730    6612   16904   15804+
+           3100   16888    9700   16909
CTETRA      4257       4     471    1258     473    6801    3916    3915+
+            472   14775   14777   16910
CTETRA      4258       4    1406    6361    1521    6385   16911   16912+
+           4863   16913    8996   16914
CTETRA      4259       4    1406    1549    6380    6385    4859   16915+
+          12070   16913   16916    8997
CTETRA      4260       4    1044    6810    1047    6847   16054   14921+
+           3215   15339   10449   14922
CTETRA      4261       4    1693    6276    1699    6277   12892   14663+
+           5326   12893    8577   15991
CTETRA      4262       4    1698    6263    6277    6281   12901    8571+
+          15992   12906    8590    8593
CTETRA      4263       4    1674    6320    6263    6347   16642    8791+
+          12580   14682    8892    8888
CTETRA      4264       4    1590    1735    6316    6328    5476   16505+
+          12681   16917   13072    8816
CTETRA      4265       4    1735    6316    6328    6336   16505    8816+
+          13072   13093    8839    8840
CTETRA      4266       4    1724    1725    1728    6333    5442    5446+
+           5445   12656   13068   12658
CTETRA      4267       4     966    6852     976    6867   16072   16918+
+           2994   16880   10546   16526
CTETRA      4268       4     473    6574    1011    6599   16555   14060+
+           3151   16894    9656   12689
CTETRA      4269       4    1311    1312    1318    6722    4082    4099+
+           4098   14823   15278   14824
CTETRA      4270       4    1196    1357    1360    6635    4254    4258+
+           4256   12765   12767   16701
CTETRA      4271       4    1609    6316    6258    6317   12680    8768+
+          12702   13863    8770    8766
CTETRA      4272       4    1188    1268    1393    6703    4062    4386+
+           4387   14795   14788   13933
CTETRA      4273       4    1589    1735    1677    6336    5475    5477+
+           5344   13091   13093   13083
CTETRA      4274       4     447    1392    1390    6676    4380    4383+
+           4381   15139   15138   15142
CTETRA      4275       4     730    6603    1190    6612   16919   16905+
+           3717   16909    9702   16920
CTETRA      4276       4    1590    1732    1735    6328    5462    5480+
+           5476   16917   12559   13072
CTETRA      4277       4    1300    6237    6236    6238   15241    8530+
+          13700   12912    8532    8531
CTETRA      4278       4     930    6990    6989    7108   13521   10988+
+          13520   13606   11234   11235
CTETRA      4279       4     437    1303    1304    6233    4043    4052+
+           4048   16921   13689   13094
CTETRA      4280       4    1313    6704    6705    6711   16922   10038+
+          16923   16924   10033   10036
CTETRA      4281       4    1078    1080    1079    6942    3377    3379+
+           3380   14003   13652   13648
CTETRA      4282       4    1418    6199    1419    6201   12028   16925+
+           4452   16926    8385   16927
CTETRA      4283       4    1419    6199    6149    6201   16925    8383+
+          15826   16927    8385    8384
CTETRA      4284       4    1451    6689    6691    6692   15431    9963+
+          11990   15430    9962    9964
CTETRA      4285       4    1475    6162    6189    6190   15758    8333+
+          14700   16274    8339    8340
CTETRA      4286       4    1276    1290    1277    6745    3976    3978+
+           3977   14547   12315   12314
CTETRA      4287       4    1419    6149    6150    6201   15826    8391+
+          16847   16927    8384    8388
CTETRA      4288       4    1487    6189    6191    6192   14702    8342+
+          11974   11976    8351    8352
CTETRA      4289       4     483     485    1005    6773     484    3128+
+           3129   13992   13988   16345
CTETRA      4290       4    1480    6140    1487    6191   14770   11975+
+           4674   14767    8357   11974
CTETRA      4291       4    1489    6142    6143    6196   13744    8379+
+          15410   13737    8374    8377
CTETRA      4292       4    1489    6143    1491    6195   15410   13535+
+           4686   15411    8368   13537
CTETRA      4293       4    1344    6523    6628    6744   16718    9841+
+          16719   15888   10149   10147
CTETRA      4294       4    1258    6796    6799    6801   12331   10276+
+          12332   14777   10279   10274
CTETRA      4295       4    1477    6187    6142    6196   14760    8373+
+          13743   13736    8375    8374
CTETRA      4296       4    1184    5964    1319    6711   16164   14349+
+           4109   15434   10034   14351
CTETRA      4297       4     465     729    1343    6613    3097    4214+
+           4216   16928   16890   16891
CTETRA      4298       4     879     929     930    6989    2879    2881+
+           2880   16929   13953   13520
CTETRA      4299       4    1184    5965    5964    6711   14343    8262+
+          16164   15434   10043   10034
CTETRA      4300       4    1499    1501    6168    6181    4738   12460+
+          13867   12468   12467    8293
CTETRA      4301       4     475     280     282    6574   16572     281+
+          16895   16573    9570    9569
CTETRA      4302       4    1457    6169    1501    6179   14154   12540+
+           4741   16930    8283   12519
CTETRA      4303       4    1007    6823    1008    6824   14327   15357+
+           3141   15323   10362   16125
CTETRA      4304       4     955     990     956    6819    3063    3067+
+           3069   12338   15733   15743
CTETRA      4305       4    1062    6956    6957    6961   16931   10834+
+          16932   16933   10833   10830
CTETRA      4306       4    1044    1051    1050    6850    3231    3233+
+           3226   16057   16050   16058
CTETRA      4307       4    1474    6161    6162    6180   16027    8301+
+          15756   14170    8291    8300
CTETRA      4308       4    1433    1434    1474    5967    4502    4675+
+           4678   12017   12019   16026
CTETRA      4309       4    1164    1166    6919    6922    3668   16934+
+          16853   16935   16936   10665
CTETRA      4310       4    1499    6168    6167    6181   13867    8253+
+          14173   12468    8293    8295
CTETRA      4311       4     734    6558    6557    6564   16697    9485+
+          13077   13081    9512    9516
CTETRA      4312       4    1184    5965    6711    6713   14343   10043+
+          15434   14344   10045   10044
CTETRA      4313       4    1181    6157    6158    6173   14833    8223+
+          16566   14190    8222    8221
CTETRA      4314       4    1209    6798    1244    6806   14338   11977+
+           3877   14332   10325   11979
CTETRA      4315       4     922    6885    6884    7022   14934   10731+
+          16937   14935   10984   11030
CTETRA      4316       4    1310    1330    6174    6175    4161   16938+
+          13538   13540   16282    8246
CTETRA      4317       4    1326    1328    1327    6733    4155    4157+
+           4156   12801   14174   12802
CTETRA      4318       4    1742    1756    6077    6116    5489   13776+
+          12995   13513   13504    8133
CTETRA      4319       4    1738    1803    1789    6026    5695    5696+
+           5647   13825   14135   13826
CTETRA      4320       4    1739    5992    5991    6069   14132    7799+
+          13823   13024    7986    7985
CTETRA      4321       4    1660    1683    1661    6008    5250    5252+
+           5251   15953   15952   16630
CTETRA      4322       4    1661    6008    1683    6024   16630   15952+
+           5252   14569    7788   15999
CTETRA      4323       4    1791    6008    5999    6016   16651    7727+
+          16590   16592    7726    7730
CTETRA      4324       4    1737    6026    1789    6034   13824   13826+
+           5646   16309    7846   16939
CTETRA      4325       4    1055    6848    6840    6849   14311   10459+
+          12585   12587   10462   10465
CTETRA      4326       4    1789    6026    6025    6034   13826    7807+
+          16584   16939    7846    7845
CTETRA      4327       4     481     288     290    6827   16564     289+
+          16907   16565   10382   10381
CTETRA      4328       4     134     145     602    5945   11780   11813+
+           1823   11790    7641   11814
CTETRA      4329       4     371    1817    5938    6085    5753   13745+
+          12870   14191   16940    7996
CTETRA      4330       4     601    5819    5818    5945   11799    7644+
+          14657   14659    7643    7645
CTETRA      4331       4     134     145     144     602   11780     147+
+          11783    1823   11813   11818
CTETRA      4332       4     385     192    6011    6018   14326    7709+
+          16335   16332    7743    7745
CTETRA      4333       4    1041    6760    1052    6925   16062   15337+
+           3242   14319   10697   16941
CTETRA      4334       4     633    5818     639    5950   16808   16942+
+           1950   16804    7672   14168
CTETRA      4335       4     135     146     145    5941   11778     148+
+          11781   11795    7636    7637
CTETRA      4336       4     923    7022    6884    7034   13639   11030+
+          16943   13630   11032   11031
CTETRA      4337       4    1821    5939    5940    5941   12434    7639+
+          12825   11797    7633    7638
CTETRA      4338       4     601     639     633    5818    1948    1950+
+           1921   14657   16942   16808
CTETRA      4339       4     641     644    5951    5953    1977   14385+
+          13733   13735   14165    7695
CTETRA      4340       4    1356    6660    1367    6661   15256   15249+
+           4307   15257    9851   16516
CTETRA      4341       4     945    6832    1032    6859   13975   15101+
+           3266   16206   10515   15103
CTETRA      4342       4    1145    1149    7063    7065    3609   15517+
+          16944   14223   14224   11149
CTETRA      4343       4     483     485     290    6941     484   12451+
+          13991   12455   12452   10761
CTETRA      4344       4     623     638    5836    5872    1960   13791+
+          12204   12206   13792    7395
CTETRA      4345       4     695     696     703    5929    2165    2172+
+           2171   15964   16153   15963
CTETRA      4346       4     902     903     904    7018    2769    2777+
+           2776   15094   15577   15573
CTETRA      4347       4     696    5893    5925    5929   16945    7567+
+          16152   16153    7590    7591
CTETRA      4348       4    1133    7068    7067    7077   16628   11177+
+          16398   12012   11190   11193
CTETRA      4349       4     766    7168    7167    7171   16447   11476+
+          16448   12564   11489   11488
CTETRA      4350       4     701     703     704    5932    2170    2181+
+           2175   15652   15023   15019
CTETRA      4351       4    1060    1062    1061    6962    3304    3303+
+           3305   16946   16947   16042
CTETRA      4352       4     483     290    6767    6941   13991   10769+
+          12453   12455   10761   10770
CTETRA      4353       4    1794    1799    6031    6033    5704   15635+
+          14605   14636   12624    7836
CTETRA      4354       4     791    7177    7173    7178   12351   11519+
+          16948   16949   11521   11520
CTETRA      4355       4     879    7001    6989    7023   14432   10956+
+          16929   14433   10987   10986
CTETRA      4356       4    1793    1794    1799    6031    5684    5704+
+           5705   14604   14605   15635
CTETRA      4357       4     902     904    6988    7018    2776   15572+
+          15099   15094   15573   10949
CTETRA      4358       4    1770    6044    6045    6065   16950    7957+
+          16951   16952    7954    7951
CTETRA      4359       4     753     754    7137    7138    2484   15376+
+          13601   16953   16188   11377
CTETRA      4360       4    1767    6044    1770    6065   16639   16950+
+           5570   16954    7954   16952
CTETRA      4361       4    1766    1770    1769    6065    5575    5576+
+           5573   16336   16952   16337
CTETRA      4362       4    1769    1770    6057    6065    5576   16955+
+          13800   16337   16952    7950
CTETRA      4363       4     879     880     929    6989    2783    2882+
+           2879   16929   16652   13953
CTETRA      4364       4    1769    1770    1772    6057    5576    5578+
+           5583   13800   16955   11847
CTETRA      4365       4    1745    1746    6045    6117    5554   13814+
+          16956   13915   16205    8139
CTETRA      4366       4    1590    6316    6315    6328   12681    8772+
+          15204   16917    8816    8813
CTETRA      4367       4    1591    6314    1730    6330   12556   14037+
+           5463   12557    8817   14034
CTETRA      4368       4    1609    6258    6257    6317   12702    8645+
+          13860   13863    8766    8767
CTETRA      4369       4    1356    6661    6657    6662   15257    9845+
+          16721   15258    9849    9847
CTETRA      4370       4    1512    6303    1513    6314   13891   16689+
+           4879   13887    8773   13901
CTETRA      4371       4     481    1081     483    6767    3385    3387+
+            482   14815   12454   12453
CTETRA      4372       4    1730    1731    6330    6331    5458   16264+
+          14034   14036   16957    8820
CTETRA      4373       4    1731    1733    1732    6327    5468    5469+
+           5465   16958   15371   12558
CTETRA      4374       4    1590    6315    6316    6317   15204    8772+
+          12681   15205    8771    8770
CTETRA      4375       4    1139    7071    7070    7072   12495   11176+
+          12498   15078   11182   11181
CTETRA      4376       4    1590    6315    1732    6328   15204   16255+
+           5462   16917    8813   12559
CTETRA      4377       4    1718    1720    1719    6321    5419    5412+
+           5420   15379   15385   13869
CTETRA      4378       4     503    1109     876    6959    3424    3425+
+           2826   12215   12236   12235
CTETRA      4379       4    1097    6880    1123    7030   13506   15722+
+           3508   16959   11015   13348
CTETRA      4380       4     912    7125    7126    7128   15860   11327+
+          15073   16811   11326   11325
CTETRA      4381       4    1672    6264    1673    6320   16275   12903+
+           5312   16265    8790   16346
CTETRA      4382       4     865    1137    1136    7074    3567    3573+
+           3572   16680   12007   16960
CTETRA      4383       4    1673    1719    1720    6320    5410    5412+
+           5411   16346   13870   16266
CTETRA      4384       4    1674    1719    6320    6347    5413   13870+
+          16642   14682   14681    8892
CTETRA      4385       4    1720    6320    6321    6323   16266    8793+
+          15385   15388    8792    8794
CTETRA      4386       4    1674    1698    1700    6263    5325    5332+
+           5331   12580   12901   12581
CTETRA      4387       4    1671    6265    6323    6325   15865    8789+
+          16268   12663    8804    8808
CTETRA      4388       4    1588    1677    1702    6260    5343    5345+
+           5347   11853   13089   11855
CTETRA      4389       4     844     846     845    7239    2608    2611+
+           2610   16117   16118   14987
CTETRA      4390       4     846    7239    7238    7241   16118   11730+
+          14985   14989   11737   11738
CTETRA      4391       4    1702    1705    6270    6283    5359   16870+
+          16869   11863   16961    8610
CTETRA      4392       4    1676    6335    6260    6336   11861    8831+
+          13088   13082    8850    8838
CTETRA      4393       4    1678    1694    1696    5980    5306    5305+
+           5304   16459   16575   12170
CTETRA      4394       4    1671    6323    1711    6325   16268   15387+
+           5388   12663    8808   12664
CTETRA      4395       4    1594    1627    1595    6430    5106    5109+
+           5111   13995   13996   14697
CTETRA      4396       4    1604    1615    6299    6300    5054   14677+
+          15190   14455   14679    8709
CTETRA      4397       4     810    7092     811    7191   16962   13575+
+           2512   12179   11558   13577
CTETRA      4398       4    1602    6250    6249    6428   16427    8655+
+          14435   14443    9120    9124
CTETRA      4399       4     822    7200    7199    7215   16963   11594+
+          16964   16965   11636   11638
CTETRA      4400       4    1603    1614    1611    6288    5041    5036+
+           5039   16450   14613   14046
CTETRA      4401       4     837     838     860    7225    2586    2670+
+           2671   11907   16966   14304
CTETRA      4402       4      81     849    7241    7242   16967   16543+
+          11743   11745   14982   11741
CTETRA      4403       4     527    7102     918    7139   15475   14128+
+           2834   13496   11383   15372
CTETRA      4404       4     846     848     849    7241    2620    2616+
+           2618   14989   16544   16543
CTETRA      4405       4     845     846     849    7239    2611    2618+
+           2619   14987   16118   14988
CTETRA      4406       4    1602    6249    6427    6428   14435    9108+
+          14436   14443    9124    9123
CTETRA      4407       4     763     827     826    7195    2545    2548+
+           2546   16433   16436   16434
CTETRA      4408       4    1625    1627    6425    6430    5110   16004+
+          13573   14698   13996    9141
CTETRA      4409       4    1586    1615    1604    6300    5051    5054+
+           5018   14044   14679   14455
CTETRA      4410       4    1601    1622    6400    6426    5081   14453+
+          16968   13873   14005    9115
CTETRA      4411       4    1603    6248    6249    6298   14425    8696+
+          14427   14454    8695    8694
CTETRA      4412       4    1623    6427    6426    6428   14442    9121+
+          13872   13875    9123    9114
CTETRA      4413       4       1      13       2    6131      14     542+
+            153    8178    8174   15891
CTETRA      4414       4      24      13      12    5842     541      15+
+            544   16286    7625    7318
CTETRA      4415       4     611    6126     612    6132   14860   14491+
+           1880   15890    8192   14493
CTETRA      4416       4    1619    1620    1621    6398    5075    5083+
+           5079   16372   16969   14445
CTETRA      4417       4    1604    1617    6298    6299    5062   14471+
+          14039   15190   14221    8703
CTETRA      4418       4    1575    1578    1577    6358    4978    4980+
+           4981   16970   12851   11962
CTETRA      4419       4     383    1706     385    6311    5361    5362+
+            384   16971   12150   14429
CTETRA      4420       4     415     417     224    6392     416   16261+
+          16260   13853   16270    9029
CTETRA      4421       4     417     226     224    6388   11945     225+
+          16261   16432    9011    9012
CTETRA      4422       4    1574    6358    1577    6389   16972   11962+
+           4982   15540    9008   16431
CTETRA      4423       4     715     717     719    5915    2231    2240+
+           2239   14642   13515   13517
CTETRA      4424       4     405    1552     407    6307    4871    4870+
+            406   16679   16684   16690
CTETRA      4425       4     405     214     407    6422   16677   16973+
+            406   16682    9099   15403
CTETRA      4426       4     407     216     214    6305   16974     215+
+          16973   16975    8731    8734
CTETRA      4427       4     407    6305     214    6307   16975    8734+
+          16973   16690    8735    8732
CTETRA      4428       4      35     849      81    7242    2621   16967+
+            577   15597   14982   11745
CTETRA      4429       4     407     216     409    6402   16974   16976+
+            408   15402    9104   14673
CTETRA      4430       4     827    7179    7194    7195   16771   11580+
+          16977   16436   11582   11581
CTETRA      4431       4      36     843      82    7219    2615   15596+
+            573   15599   16809   11739
CTETRA      4432       4     407     214    6402    6422   16973    9103+
+          15402   15403    9099    9105
CTETRA      4433       4     407     409    1651    6402     408    5197+
+           5198   15402   14673   15398
CTETRA      4434       4    1516    6440    1537    6441   16978   16979+
+           4818   16696    9204   15211
CTETRA      4435       4    1563    1567    1565    6444    4937    4938+
+           4935   16980   16981   14723
CTETRA      4436       4    1515    6440    1516    6443   14607   16978+
+           4816   14731    9203   14732
CTETRA      4437       4     847    7238    7212    7243   14984   11728+
+          16113   14195   11750   11748
CTETRA      4438       4    1516    6441    1517    6443   16696   16695+
+           4819   14732    9205   16694
CTETRA      4439       4    1516    1541    1537    6440    4817    4821+
+           4818   16978   14609   16979
CTETRA      4440       4     771     772     782    7169    2345    2371+
+           2376   16130   16982   16983
CTETRA      4441       4     880    7103    7104    7115   16984   11258+
+          16985   16653   11253   11257
CTETRA      4442       4    1461    1464    1465    6230    4568    4567+
+           4569   14711   15236   14712
CTETRA      4443       4    1460    1464    6230    6231    4570   15236+
+          16986   16987   16988    8520
CTETRA      4444       4     433    1300    1177    6236    4023    4022+
+           4021   13701   13700   15234
CTETRA      4445       4    1463    1465    1464    6228    4565    4567+
+           4566   14705   16989   14706
CTETRA      4446       4    1440    6699    6686    6700   15918    9990+
+          12000   14734    9992    9989
CTETRA      4447       4     439    1452    1450    6687    4557    4556+
+           4553   12001   11997   16708
CTETRA      4448       4    1450    1452    6686    6687    4556   11996+
+          16709   16708   11997    9972
CTETRA      4449       4     441    1450    1448    6702    4545    4544+
+           4543   16990   13023   13022
CTETRA      4450       4     421     230     228    6377   16669     229+
+          16991   12836    8954    8955
CTETRA      4451       4     421     228     230    6202   16991     229+
+          16669   16884    8398    8397
CTETRA      4452       4     421    6200     228    6202   16883    8407+
+          16991   16884    8408    8398
CTETRA      4453       4    1752    1758    1753    6115    5507    5506+
+           5508   16992   13502   16993
CTETRA      4454       4      24    5842     604    6082   16286   16283+
+           1876   16214    8083   16227
CTETRA      4455       4     581     607     606    5824    1838    1840+
+           1839   16169   14499   14509
CTETRA      4456       4     591    6043    6042    6128   15851    7970+
+          12046   12048    8213    8172
CTETRA      4457       4       1       2     607    6132     153    1837+
+          14516    8182   14492   14494
CTETRA      4458       4     419     228     421    6200   11973   16991+
+            420   15707    8407   16883
CTETRA      4459       4    1399    6464    1420    6466   16994   14747+
+           4435   16995    9269   16996
CTETRA      4460       4    1399    6459    6464    6466   16781    9259+
+          16994   16995    9267    9269
CTETRA      4461       4    1400    1420    1424    6466    4432    4434+
+           4433   15829   16996   15086
CTETRA      4462       4     445    1189    1392    6677    4379    4378+
+           4377   16997   16998   15141
CTETRA      4463       4    1744    6099    6091    6100   12414    8059+
+          15692   13836    8058    8061
CTETRA      4464       4    1390    1392    1391    6675    4383    4384+
+           4385   15150   14792   14791
CTETRA      4465       4    1392    6619    6675    6677   15442    9911+
+          14792   15141    9914    9909
CTETRA      4466       4     629    5954    6093    6094   15898    8038+
+          15899   16613    8030    8039
CTETRA      4467       4     445     254     447    5957   16999   17000+
+            446   16453    8432   17001
CTETRA      4468       4     445     447     254    6677     446   17000+
+          16999   16997   15140    9906
CTETRA      4469       4    1755    1758    1760    6124    5520    5516+
+           5519   13129   17002   13130
CTETRA      4470       4     645     687     688    5883    2117    2126+
+           2125   17003   16597   11806
CTETRA      4471       4     445     250     252    6206   14868     251+
+          17004   14869    8420    8421
CTETRA      4472       4     445     252     250    6618   17004     251+
+          14868   17005    9915    9916
CTETRA      4473       4     445     252    6618    6677   17004    9915+
+          17005   16997    9907    9917
CTETRA      4474       4     629    6094    6093    6103   16613    8039+
+          15899   16614    8078    8077
CTETRA      4475       4     598    5955     599    6092   13144   15389+
+           1973   12396    8043   15390
CTETRA      4476       4     597     603     629    6103    1854    1918+
+           1919   12411   16217   16614
CTETRA      4477       4    1359    1362    6520    6521    4277   17006+
+          15007   15014   17007    9425
CTETRA      4478       4    1349    1351    6579    6582    4242   17008+
+          17009   17010   17011    9605
CTETRA      4479       4     597     629     598    6093    1919    1938+
+           1939   12980   15899   13145
CTETRA      4480       4    1347    1362    6527    6528    4279   16710+
+          17012   14819   14808    9413
CTETRA      4481       4    1358    6520    1362    6550   17013   17006+
+           4281   16711    9421   14809
CTETRA      4482       4    1346    1362    1361    6527    4278    4276+
+           4280   17014   16710   17015
CTETRA      4483       4    1359    1361    1362    6521    4274    4276+
+           4277   15014   15013   17007
CTETRA      4484       4     587     596     588    6080    2279    2282+
+           2283   13131   14639   12390
CTETRA      4485       4    1347    6528    6527    6593   14819    9413+
+          17012   14759    9632    9633
CTETRA      4486       4     361    5820     168    5855   16595    7275+
+          17016   15681    7310    7309
CTETRA      4487       4    1278    6582    6581    6583   17017    9591+
+          14183   15468    9606    9609
CTETRA      4488       4    1277    6525    1278    6582   12313   14182+
+           3984   17018    9589   17017
CTETRA      4489       4     453     262     260    6656   13270     261+
+          13285   12619    9821    9822
CTETRA      4490       4    1334    1351    6578    6579    4238   17019+
+          16390   16301   17008    9603
CTETRA      4491       4    1277    1349    1350    6524    4220    4224+
+           4222   17020   16716   14548
CTETRA      4492       4    1351    6579    6582    6583   17008    9605+
+          17011   15463    9604    9606
CTETRA      4493       4    1349    6580    6524    6582   16299    9584+
+          16716   17010    9586    9585
CTETRA      4494       4    1278    1351    6582    6583    4236   17011+
+          17017   15468   15463    9606
CTETRA      4495       4    1278    6525    6581    6582   14182    9590+
+          14183   17017    9589    9591
CTETRA      4496       4    1289    6525    6526    6581   12320    9596+
+          13282   13284    9590    9595
CTETRA      4497       4    1303    6217    1305    6239   12937   12936+
+           4058   13690    8542   17021
CTETRA      4498       4     697     698     710    5926    2152    2202+
+           2201   17022   11944   11955
CTETRA      4499       4    1280    1305    1302    6216    4053    4054+
+           4037   13685   12942   12941
CTETRA      4500       4    1281    1332    6218    6219    4175   13987+
+          17023   17024   17025    8476
CTETRA      4501       4     363     600     170    5943    1831   17026+
+          13809   13811   17027    7657
CTETRA      4502       4    1294    6746    5958    6749   14627   10165+
+          13956   14631   10169   10168
CTETRA      4503       4    1280    1281    6218    6220    4038   17023+
+          13688   13686   13678    8470
CTETRA      4504       4    1281    6203    6219    6220   13677    8467+
+          17024   13678    8478    8477
CTETRA      4505       4    1281    6203    1282    6219   13677   14483+
+           4017   17024    8467   15264
CTETRA      4506       4    1180    1333    6158    6242    4177   17028+
+          17029   15763   16727    8558
CTETRA      4507       4    1279    1280    1333    6215    4057    4182+
+           4185   16726   13986   16851
CTETRA      4508       4    1279    1305    6216    6241    4055   12942+
+          16725   14830   17030    8554
CTETRA      4509       4     650    5877     692    5878   16798   16377+
+           2133   13431    7417   17031
CTETRA      4510       4    1279    1305    1280    6216    4055    4053+
+           4057   16725   12942   13685
CTETRA      4511       4     619    5822    5851    5860   16779    7296+
+          13193   13195    7328    7330
CTETRA      4512       4    1330    1333    1332    6159    4179    4180+
+           4172   17032   17033   16830
CTETRA      4513       4     617     657     618    5852    1991    1990+
+           1992   16318   17034   16780
CTETRA      4514       4    1332    6159    1333    6215   16830   17033+
+           4180   13985    8459   16851
CTETRA      4515       4    1305    6234    6239    6241   17035    8551+
+          17021   17030    8553    8552
CTETRA      4516       4     653     654     663    5846    2003    2040+
+           2037   17036   17037   15417
CTETRA      4517       4    1279    1299    1305    6241    4029    4056+
+           4055   14830   16729   17030
CTETRA      4518       4    1305    6239    6216    6241   17021    8543+
+          12942   17030    8552    8554
CTETRA      4519       4    1292    1294    1293    6749    4000    4002+
+           4001   17038   14631   14630
CTETRA      4520       4    1301    1303    6205    6217    4045   16730+
+          14876   14476   12937    8474
CTETRA      4521       4     627     628     665    5858    1911    2049+
+           2048   13031   15674   13179
CTETRA      4522       4     441    6205     248    6208   17039    8411+
+          17040   17041    8413    8409
CTETRA      4523       4     614     617     618    5821    2268    1992+
+           2266   14117   16321   16777
CTETRA      4524       4     700     703     701    5930    2168    2170+
+           2169   16801   15962   17042
CTETRA      4525       4     712    5911    5905    5923   16812    7564+
+          17043   15642    7565    7563
CTETRA      4526       4     689    5881    5880    5895   16795    7423+
+          16785   16607    7466    7465
CTETRA      4527       4     443     250    6206    6208   14867    8420+
+          13954   13955    8410    8422
CTETRA      4528       4     826    7195     833    7211   16434   16435+
+           2560   16112   11633   13489
CTETRA      4529       4     469    1266    1257    6795    3951    3950+
+           3920   15450   15448   15460
CTETRA      4530       4    1257    6796    6795    6808   14768   10283+
+          15460   15458   10329   10330
CTETRA      4531       4     712     715    5911    5923    2227   13732+
+          16812   15642   15644    7565
CTETRA      4532       4    1259    1260    1263    6510    3932    3945+
+           3944   15191   15118   17044
CTETRA      4533       4    1259    1261    1260    6510    3931    3930+
+           3932   15191   15119   15118
CTETRA      4534       4     465    1265     467    6512    3949    3948+
+            466   16537   12713   17045
CTETRA      4535       4    1263    1266    6511    6808    3953   15457+
+          15456   15453   15447   10335
CTETRA      4536       4     622     623     684    5872    1961    2107+
+           2101   14662   12206   13793
CTETRA      4537       4     622     684     682    5886    2101    2099+
+           2098   12383   14877   12384
CTETRA      4538       4     622    5872     684    5886   14662   13793+
+           2101   12383    7442   14877
CTETRA      4539       4    1262    6511    6513    6561   15993    9495+
+          12709   16561    9497    9496
CTETRA      4540       4     467    6512    1265    6809   17045   12713+
+           3948   12654   10338   15990
CTETRA      4541       4     623     686     684    5885    2110    2108+
+           2107   13789   13750   13794
CTETRA      4542       4     673     683     685    5898    2104    2114+
+           2111   17046   13751   16615
CTETRA      4543       4     673    5898    5904    5905   17046    7514+
+          17047   17048    7513    7515
CTETRA      4544       4     636    5954    5947    5955   13146   11777+
+          15901   13147    8040   11775
CTETRA      4545       4    1263    6511    6510    6808   15456    9540+
+          17044   15453   10335   10328
CTETRA      4546       4    1259    6510    1263    6561   15191   17044+
+           3944   17049    9537   16562
CTETRA      4547       4    1335    1339    6591    6614    4197   13295+
+          13294   13299   15262    9718
CTETRA      4548       4     461    1252    1250    6640    3894    3899+
+           3897   17050   17051   17052
CTETRA      4549       4     677     678    5889    5902    2074   14593+
+          12420   12423   13757    7478
CTETRA      4550       4     461     268     266    6645   15189     267+
+          15188   17053    9764    9765
CTETRA      4551       4     461     270     268    6640   17054     269+
+          15189   17050    9746    9747
CTETRA      4552       4     690    5879    5893    5894   13434    7459+
+          17055   17056    7462    7464
CTETRA      4553       4      62      63     114     709      68    5807+
+           5808    2194    2195   13005
CTETRA      4554       4     461     270     463    6610   17054   17057+
+            462   17058    9713   17059
CTETRA      4555       4     459     266     461    6615   17060   15188+
+            460   15147    9720   15148
CTETRA      4556       4     662     664     665    5848    2051    2050+
+           2052   13198   13197   16380
CTETRA      4557       4     675     689     694    5895    2144    2156+
+           2155   16787   16607   16609
CTETRA      4558       4     457     459     266    6636     458   17060+
+          16387   15478   17061    9769
CTETRA      4559       4     604     628     631    5841    1905    1909+
+           1907   16211   15675   15904
CTETRA      4560       4     457     266     459    6578   16387   17060+
+            458   16388    9601   16389
CTETRA      4561       4     712    5905    5904    5923   17043    7515+
+          17062   15642    7563    7561
CTETRA      4562       4     692    5878    5877    5892   17031    7417+
+          16377   11950    7457    7460
CTETRA      4563       4     459     266    6636    6645   17060    9769+
+          17061   17063    9765    9771
CTETRA      4564       4     459    6636    1238    6645   17061   17064+
+           3844   17063    9771   14375
CTETRA      4565       4    1252    6637    6644    6645   14374    9766+
+          14882   14376    9768    9763
CTETRA      4566       4     661    5846    5847    5856   17065    7346+
+          15424   16807    7342    7344
CTETRA      4567       4     459    1252     461    6645    3893    3894+
+            460   17063   14376   17053
CTETRA      4568       4    1191    6602    1192    6617   12502   12504+
+           3726   15039    9734   12506
CTETRA      4569       4     353     162     355    5889   16610   14588+
+            354   15035    7431   14590
CTETRA      4570       4     731    1219    1220    6605    3728    3730+
+           3723   13062   13061   13307
CTETRA      4571       4     994    6597    6596    6607   12669    9670+
+          14274   14277    9692    9695
CTETRA      4572       4    1092    1126    1093    6914    3523    3526+
+           3525   14295   14296   17066
CTETRA      4573       4    1099    6906    1127    6911   17067   16646+
+           3522   17068   10610   17069
CTETRA      4574       4    1099    1127    1125    6911    3522    3521+
+           3520   17068   17069   17070
CTETRA      4575       4    1127    6904    6905    6911   13331   10611+
+          16401   17069   10609   10603
CTETRA      4576       4     826     827     833    7195    2548    2561+
+           2560   16434   16436   16435
CTETRA      4577       4    1099    1100    1127    6906    3466    3529+
+           3522   17067   16518   16646
CTETRA      4578       4     649    5878     691    5879   13428   13432+
+           2139   13429    7414   17071
CTETRA      4579       4     652     661     667    5856    2036    2062+
+           2054   13209   16807   17072
CTETRA      4580       4      59     110    5913    5935    5800    7517+
+          16139   17073    7609    7611
CTETRA      4581       4     632     633    5835    5949    1926   16803+
+          15661   12951   12949    7670
CTETRA      4582       4      55     105     723    5920    5795   13181+
+           2259   15651    7550   13186
CTETRA      4583       4     691    5879    5878    5893   17071    7414+
+          13432   17074    7459    7456
CTETRA      4584       4    1100    6903    1128    6904   13327   13978+
+           3531   16520   10582   12193
CTETRA      4585       4    1116    6890    6891    6902   16037   10569+
+          16409   13981   10568   10570
CTETRA      4586       4     848    7243     851    7244   14196   13492+
+           2626   16545   11753   14334
CTETRA      4587       4     663    5847    5846    5866   15420    7346+
+          15417   15408    7368    7367
CTETRA      4588       4    1026    6897    6898    6913   13376   10626+
+          12207   12201   10625   10627
CTETRA      4589       4    1025    1101    6902    6913    3473   13980+
+          13979   16404   12184   10624
CTETRA      4590       4    1115    6906    6907    6908   16521   10585+
+          17075   16408   10581   10584
CTETRA      4591       4     670    5908    5907    5917   11926    7504+
+          14870   11923    7532    7531
CTETRA      4592       4     351    5876     158    5890   15659    7408+
+          15658   15665    7451    7450
CTETRA      4593       4     653     655    5845    5850    2002   13436+
+          17076   17077   17078    7293
CTETRA      4594       4    1099    1115    1100    6906    3465    3467+
+           3466   17067   16521   16518
CTETRA      4595       4    1107    6945    1108    6949   16629   16737+
+           3413   16828   10787   16739
CTETRA      4596       4     875    6944    1107    6949   16827   16634+
+           3409   16823   10784   16828
CTETRA      4597       4     874     875    1108    6949    2832    3411+
+           3412   16822   16823   16739
CTETRA      4598       4    1085    1086    6831    6860    3406   17079+
+          17080   17081   17082   10510
CTETRA      4599       4    1069    1070    1072    6951    3343    3354+
+           3356   15531   12991   12989
CTETRA      4600       4     491     298     296    6971   16150     297+
+          16144   15489   10857   10856
CTETRA      4601       4    1078    1084    1085    6765    3395    3402+
+           3399   14000   13655   15725
CTETRA      4602       4    1043    6896    1059    6928   13370   13373+
+           3298   14524   10707   14482
CTETRA      4603       4    1041    1042    1057    6925    3253    3296+
+           3277   14319   15333   15328
CTETRA      4604       4      59     109     718    5913    5799   17083+
+           2232   16139    7516   16140
CTETRA      4605       4    1042    6928    6925    6931   14481   10720+
+          15333   17084   10721   10716
CTETRA      4606       4    1042    1053    6928    6931    3254   17085+
+          14481   17084   17086   10721
CTETRA      4607       4     668    5910    5909    5921   15041    7499+
+          15040   15157    7552    7551
CTETRA      4608       4     471     276     278    6601   12646     277+
+          12645   12650    9665    9664
CTETRA      4609       4     471     278    6795    6801   12645   10280+
+          12647   14775   10270   10282
CTETRA      4610       4     349     156    5910    5921   13818    7495+
+          14103   13170    7557    7552
CTETRA      4611       4     471     473     280    6801     472   16571+
+          17087   14775   16910   10269
CTETRA      4612       4     471     473    1011    6599     472    3151+
+           3150   12688   16894   12689
CTETRA      4613       4     469     995    6598    6601    3091   12677+
+          12655   12649   16067    9673
CTETRA      4614       4    1019    6575    6576    6577   15930    9563+
+          15924   14051    9562    9564
CTETRA      4615       4    1743    6077    6100    6101   13766    8055+
+          13834   13772    8065    8069
CTETRA      4616       4    1805    1806    1814    6083    5729    5746+
+           5748   15939   15940   16624
CTETRA      4617       4     604    5842    5841    6104   16283    7324+
+          16211   16212    8088    8089
CTETRA      4618       4     978     979     983    6854    3027    3036+
+           3035   12037   14865   14866
CTETRA      4619       4     632    5834    5835    5873   12943    7394+
+          15661   15660    7388    7391
CTETRA      4620       4     983    6836    6852    6854   15512   10491+
+          15515   14866   10493   10486
CTETRA      4621       4     985    6835    6836    6843   14942   10422+
+          15547   15751   10418   10421
CTETRA      4622       4     604     628    5841    5842    1905   15675+
+          16211   16283   15324    7324
CTETRA      4623       4     956    6819     990    6825   15743   15733+
+           3067   15364   10377   15734
CTETRA      4624       4     946     974     947    6845    2969    2972+
+           2971   15730   16538   14324
CTETRA      4625       4     947    6839    1055    6840   14322   12586+
+           3259   14323   10443   12585
CTETRA      4626       4    1096    7025    7035    7036   14227   11052+
+          15298   14228   11049   11051
CTETRA      4627       4    1815    6087    6086    6089   11829    8016+
+          13782   15161    8022    8062
CTETRA      4628       4     871    7032     872    7035   16756   15486+
+           2760   15297   11044   15300
CTETRA      4629       4     900    7031    7032    7033   15484   11039+
+          14947   15090   11038   11026
CTETRA      4630       4    1356    1357    1367    6660    4260    4308+
+           4307   15256   12773   15249
CTETRA      4631       4     461    1342    1341    6610    4210    4209+
+           4208   17058   15791   16290
CTETRA      4632       4     743     744     895    7047    2396    2698+
+           2697   16765   16469   16766
CTETRA      4633       4     613     616    5827    5828    1900   15690+
+          15684   11838   15688    7264
CTETRA      4634       4     894    7043     895    7046   14972   14232+
+           2705   14954   11083   16767
CTETRA      4635       4     895    7043    7044    7046   14232   11084+
+          14234   16767   11083   11085
CTETRA      4636       4     853     855     854    7217    2645    2649+
+           2650   12428   12429   15438
CTETRA      4637       4     853     854     857    7217    2650    2656+
+           2657   12428   15438   17088
CTETRA      4638       4     849    7239    7241    7242   14988   11737+
+          16543   14982   11742   11741
CTETRA      4639       4     579     725     724    5945    2304    2305+
+           2302   12693   14388   11791
CTETRA      4640       4     841    7234     842    7235   17089   17090+
+           2598   17091   11712   15588
CTETRA      4641       4     842    7235    7234    7239   15588   11712+
+          17090   16462   11735   11731
CTETRA      4642       4     857    7218    7217    7235   17092   11655+
+          17088   15589   11720   11718
CTETRA      4643       4     830     844     841    7234    2600    2597+
+           2595   16179   16180   17089
CTETRA      4644       4     841     844     842    7234    2597    2599+
+           2598   17089   16180   17090
CTETRA      4645       4     537     342     344    7194   17093     343+
+          13449   13451   11578   11579
CTETRA      4646       4     537     834     827    7194    2554    2556+
+           2544   13451   17094   16977
CTETRA      4647       4     537     539     346    7208     538   11966+
+          13448   12438   11967   11619
CTETRA      4648       4     535     342    7094    7193   17095   11370+
+          16527   16528   11556   11553
CTETRA      4649       4     809    7192     815    7193   12210   14297+
+           2525   14900   11555   14695
CTETRA      4650       4     535     827    7179    7194    2543   16771+
+          17096   17097   16977   11580
CTETRA      4651       4    1134    7069    7075    7082   15709   11192+
+          12482   12487   11226   11225
CTETRA      4652       4     535     827     763    7179    2543    2545+
+           2410   17096   16771   16770
CTETRA      4653       4      34      81      35     849     576     577+
+             53    2617   16967    2621
CTETRA      4654       4     833    7195    7210    7211   16435   11634+
+          16114   13489   11633   11635
CTETRA      4655       4     535     537     827    7194     536    2544+
+           2543   17097   13451   16977
CTETRA      4656       4     846     847     848    7241    2609    2628+
+           2620   14989   14990   16544
CTETRA      4657       4     827    7194     834    7210   16977   17094+
+           2556   16437   11629   12760
CTETRA      4658       4      34      80      81    7241     575     102+
+            576   16625   11744   11743
CTETRA      4659       4     762    7162     789    7180   12907   12909+
+           2417   12898   11531   12899
CTETRA      4660       4     866    7075    7081    7082   12484   11220+
+          15708   12486   11225   11224
CTETRA      4661       4     865    7044     866    7081   15705   14233+
+           2695   16681   11218   15708
CTETRA      4662       4     603     631     629    6094    1908    1916+
+           1918   16612   12978   16613
CTETRA      4663       4     529     531     336    7134     530   17098+
+          16190   16189   17099   11359
CTETRA      4664       4     627     630     631    5840    1912    1915+
+           1910   16293   12976   12975
CTETRA      4665       4     745     781    6982    7048    2352   12924+
+          12923   12918   12919   11094
CTETRA      4666       4     529     336     531    7178   16190   17098+
+            530   17100   11522   12916
CTETRA      4667       4     533     342     535    7179   17101   17095+
+            534   17102   11536   17096
CTETRA      4668       4     823    7198     830    7214   16478   16769+
+           2570   17103   11640   17104
CTETRA      4669       4     519     326     328    7042   13381     327+
+          16084   16498   11053   11054
CTETRA      4670       4     935     938    7105    7116    2920   16088+
+          15879   13377   13378   11265
CTETRA      4671       4     531     789     791    7178    2420    2422+
+           2421   12916   12914   16949
CTETRA      4672       4     531     800     533    7136    2465    2466+
+            532   16497   17105   16494
CTETRA      4673       4     531     805     800    7136    2464    2467+
+           2465   16497   17106   17105
CTETRA      4674       4     791     792     795    7177    2427    2442+
+           2438   12351   12350   16120
CTETRA      4675       4     744     894     895    7046    2703    2705+
+           2698   14952   14954   16767
CTETRA      4676       4     529     805     531    7134    2461    2464+
+            530   16189   16487   17099
CTETRA      4677       4     521    7040     794    7042   12539   14149+
+           2430   14231   11066   14148
CTETRA      4678       4     529     531     791    7178     530    2421+
+           2436   17100   12916   16949
CTETRA      4679       4     517     519     326    7117     518   13381+
+          14087   14079   13382   11267
CTETRA      4680       4     529    7173     336    7178   14138   11507+
+          16190   17100   11520   11522
CTETRA      4681       4     529     791     795    7173    2436    2438+
+           2437   14138   16948   14139
CTETRA      4682       4     529     754    7134    7139    2463   16579+
+          16189   16191   15373   11378
CTETRA      4683       4     789    7162    7161    7180   12909   11530+
+          12913   12899   11531   11534
CTETRA      4684       4     764    7163    7181    7182   14764   11545+
+          12361   13474   11547   11546
CTETRA      4685       4     931     932    7106    7120    2898   12463+
+          12626   12642   12523   11277
CTETRA      4686       4     533     340     342    7179   16493     341+
+          17101   17102   11535   11536
CTETRA      4687       4     762    7181    7180    7196   12356   11532+
+          12898   16430   11583   11586
CTETRA      4688       4     825    7181    7196    7197   14991   11583+
+          14997   14993   11585   11584
CTETRA      4689       4     803     807     804    7148    2473    2472+
+           2474   15623   16445   11906
CTETRA      4690       4     814    7186     821    7187   14124   14127+
+           2515   13467   11577   17107
CTETRA      4691       4     757    7088    7087    7186   14122   11436+
+          16122   14123   11574   11573
CTETRA      4692       4     701     713    5933    5934    2221   17108+
+          17109   16136   16141    7608
CTETRA      4693       4     700     713     714    5922    2220    2218+
+           2214   16800   16474   16473
CTETRA      4694       4     351    5903     678    5910   15349   13756+
+           2070   15666    7496   14108
CTETRA      4695       4     704     708    5935    5936    2188   15650+
+          15649   15021   16618    7617
CTETRA      4696       4     747     748     889    7160    2340    2746+
+           2745   17110   16773   15561
CTETRA      4697       4     751    7144    7143    7146   17111   11401+
+          15049   17112   11417   11418
CTETRA      4698       4     811    7092    7091    7190   13575   11391+
+          15004   13576   11560   11564
CTETRA      4699       4     701     716     713    5934    2222    2226+
+           2221   16136   16135   16141
CTETRA      4700       4     672    5905     712    5911   15633   17043+
+           2217   13731    7564   16812
CTETRA      4701       4      60    5935     708    5936   17113   15650+
+           2190   17114    7617   16618
CTETRA      4702       4     935    7105    7106    7116   15879   11272+
+          12627   13377   11265   11270
CTETRA      4703       4     702    5913    5934    5935   16132    7605+
+          16134   15648    7611    7612
CTETRA      4704       4     701    5930    5932    5933   17042    7597+
+          15652   17109    7596    7598
CTETRA      4705       4     880     881     939    7104    2811    2912+
+           2914   16985   16100   17115
CTETRA      4706       4     700     701     713    5933    2169    2221+
+           2220   16802   17109   17108
CTETRA      4707       4     753    7138    7137    7140   16953   11377+
+          13601   13600   11392   11393
CTETRA      4708       4     807    7144    7146    7148   15617   11417+
+          17116   16445   11409   11419
CTETRA      4709       4     710    5924    5925    5926   13526    7572+
+          13529   11955    7571    7570
CTETRA      4710       4     801     805     808    7135    2486    2485+
+           2488   16438   16486   16439
CTETRA      4711       4     701    5930     703    5932   17042   15962+
+           2170   15652    7597   15023
CTETRA      4712       4     700    5930     701    5933   16801   17042+
+           2169   16802    7596   17109
CTETRA      4713       4     695    5895    5894    5930   16608    7467+
+          16476   15965    7587    7589
CTETRA      4714       4     529     791    7173    7178    2436   16948+
+          14138   17100   16949   11520
CTETRA      4715       4     864    7226    7227    7228   11889   11679+
+          17117   11901   11678   11680
CTETRA      4716       4     695     703     700    5930    2171    2168+
+           2166   15965   15962   16801
CTETRA      4717       4     625     645     688    5883    2042    2125+
+           2123   11816   17003   11806
CTETRA      4718       4     811     812     818    7190    2510    2520+
+           2530   13576   15010   15011
CTETRA      4719       4     811     818     817    7190    2530    2532+
+           2531   13576   15011   16627
CTETRA      4720       4     881     882    7104    7126    2814   15064+
+          16100   15071   15065   11324
CTETRA      4721       4     808    7135    7138    7142   16439   11374+
+          16443   16441   11390   11394
CTETRA      4722       4     626    5839    5849    5869   16824    7351+
+          11821   11819    7376    7379
CTETRA      4723       4     521     794     788    7042    2430    2429+
+           2428   14231   14148   14147
CTETRA      4724       4     645     664     646    5868    2045    2047+
+           2046   13759   13076   13075
CTETRA      4725       4     883     884     919    7099    2807    2852+
+           2853   16483   16480   16484
CTETRA      4726       4     800     805    7135    7136    2467   16486+
+          17118   17105   17106   11364
CTETRA      4727       4     645    5882     687    5883   17119   16604+
+           2117   17003    7430   16597
CTETRA      4728       4     818    7190    7204    7205   15011   11610+
+          14199   14197   11612   11614
CTETRA      4729       4     863    7227    7226    7230   17120   11679+
+          11888   11880   11690   11691
CTETRA      4730       4     751     807    7144    7146    2471   15617+
+          17111   17112   17116   11417
CTETRA      4731       4     857     859     858    7223    2664    2667+
+           2659   15595   16617   15582
CTETRA      4732       4     645    5868     646    5882   13759   13075+
+           2046   17119    7425   16794
CTETRA      4733       4     646    5868    5867    5882   13075    7375+
+          13074   16794    7425    7424
CTETRA      4734       4     646    5867     647    5881   13074   15352+
+           2028   16791    7422   15353
CTETRA      4735       4     662    5848    5847    5867   13198    7349+
+          15419   13199    7371    7370
CTETRA      4736       4     842    7234     844    7239   17090   16180+
+           2599   16462   11731   16117
CTETRA      4737       4     645     646     687    5882    2046    2116+
+           2117   17119   16794   16604
CTETRA      4738       4     674     687    5896    5897    2121   16790+
+          16817   16606   16598    7474
CTETRA      4739       4     625    5869     645    5883   11815   11820+
+           2042   11816    7427   17003
CTETRA      4740       4     817    7190     818    7205   16627   15011+
+           2532   13567   11612   14197
CTETRA      4741       4     658    5844     659    5854   16161   13444+
+           2013   16162    7306   16159
CTETRA      4742       4     658    5844    5843    5863   16161    7308+
+          16160   13445    7359    7358
CTETRA      4743       4     817     838     837    7205    2585    2586+
+           2582   13567   14198   14301
CTETRA      4744       4     533     535     342    7094     534   17095+
+          17101   16492   16527   11370
CTETRA      4745       4     357     164    5833    5875   15668    7386+
+          16076   16077    7384    7381
CTETRA      4746       4     827    7195    7194    7210   16436   11581+
+          16977   16437   11634   11629
CTETRA      4747       4     355     162     164    5875   14588     163+
+          16322   14589    7385    7384
CTETRA      4748       4     357     659     359    5854    2012    2014+
+            358   15669   16159   15670
CTETRA      4749       4     931     933     932    7120    2897    2896+
+           2898   12642   12524   12523
CTETRA      4750       4     651     658    5862    5863    2009   17121+
+          17122   16797   13445    7360
CTETRA      4751       4     539       3      31      77     540      48+
+           2638   13549     566     567
CTETRA      4752       4     355     658    5843    5862    2007   16160+
+          16323   17123   17121    7356
CTETRA      4753       4     826    7180    7195    7196   16429   11587+
+          16434   14998   11586   11588
CTETRA      4754       4     133     643     644    5952    1986    1980+
+           1985   16457   14386   14382
CTETRA      4755       4     539       5     346    7229   11971     347+
+          11966   11968   11685   11683
CTETRA      4756       4     539      77     834    7209   13549   13558+
+           2555   14895   11771   13557
CTETRA      4757       4     834    7194    7209    7210   17094   11627+
+          13557   12760   11629   11628
CTETRA      4758       4     683     684    5885    5899    2106   13794+
+          13749   15311   16222    7491
CTETRA      4759       4    1217    6536    1224    6537   16171   14600+
+           3765   12811    9445   12810
CTETRA      4760       4     365     615     367    5831    1894    1895+
+            366   12194   12232   12195
CTETRA      4761       4     132     143    5946    5952   11784    7679+
+          14155   14584    7677    7680
CTETRA      4762       4     533     338     340    7161   16495     339+
+          16493   16499   11527   11528
CTETRA      4763       4     863     864    7226    7227    2685   11889+
+          11888   17120   17117   11679
CTETRA      4764       4     843    7240     845    7242   15587   15601+
+           2606   14980   11746   14981
CTETRA      4765       4      34      81     849    7241     576   16967+
+           2617   16625   11743   16543
CTETRA      4766       4      35      81      82    7242     577     103+
+            574   15597   11745   11747
CTETRA      4767       4     845    7240    7239    7242   15601   11736+
+          14987   14981   11746   11742
CTETRA      4768       4      41      88      89    7229     558      92+
+            553   17124   11688   11686
CTETRA      4769       4    1217    6536    6537    6552   16171    9445+
+          12811   12826    9444    9446
CTETRA      4770       4     916     918    7101    7137    2838   13940+
+          13598   13597   14292   11381
CTETRA      4771       4     770    7166    7165    7184   15629   11487+
+          15694   16127   11542   11543
CTETRA      4772       4     830    7198    7213    7214   16769   11645+
+          16177   17104   11640   11646
CTETRA      4773       4     823     824     830    7198    2538    2574+
+           2570   16478   13484   16769
CTETRA      4774       4     824    7197     831    7213   13483   14996+
+           2573   16175   11644   16176
CTETRA      4775       4      40     863      87    7227    2683   17125+
+            555   17126   17120   11689
CTETRA      4776       4      88     864    7227    7228   17127   17117+
+          11682   11681   11901   11680
CTETRA      4777       4     829     830     841    7214    2569    2595+
+           2596   17128   17104   17129
CTETRA      4778       4      40      88      41     864     556     558+
+             44    2688   17127    2689
CTETRA      4779       4    1217    6531    6532    6552   14905    9440+
+          13313   12826    9439    9438
CTETRA      4780       4      40      88     864    7227     556   17127+
+           2688   17126   11682   17117
CTETRA      4781       4     823    7199    7214    7215   16479   11639+
+          17103   17130   11638   11641
CTETRA      4782       4     829    7214     841    7236   17128   17129+
+           2596   12399   11714   15435
CTETRA      4783       4     891     898    7011    7013    2732   13450+
+          13446   15894   15896   10911
CTETRA      4784       4     744     769     745    7048    2362    2361+
+           2363   12246   12247   12918
CTETRA      4785       4     762     826     825    7196    2547    2553+
+           2552   16430   14998   14997
CTETRA      4786       4    1089    7006    1121    7026   12161   14244+
+           3493   13344   10997   12178
CTETRA      4787       4     867     890     868    6998    2707    2710+
+           2709   12373   12365   16810
CTETRA      4788       4     772    7085    7084    7169   16360   11351+
+          14916   16982   11479   11478
CTETRA      4789       4     771    7085     772    7169   12386   16360+
+           2345   16130   11479   16982
CTETRA      4790       4     866     867    1134    7082    2701    3565+
+           3564   12486   12490   12487
CTETRA      4791       4     746     899     892    6983    2738    2740+
+           2715   14969   14967   16116
CTETRA      4792       4     745     892     894    7000    2714    2716+
+           2704   14959   15893   14960
CTETRA      4793       4     872    7031    6882    7036   15485   11045+
+          15290   14307   11047   11046
CTETRA      4794       4     898    6984    6985    7011   16363   10912+
+          17131   13450   10910   10913
CTETRA      4795       4    1091    1124    6877    6878    3514   16503+
+          16502   17132   16199   10605
CTETRA      4796       4     887     898    6985    7011    2737   17131+
+          16423   12027   13450   10913
CTETRA      4797       4     887     898     888    6985    2737    2742+
+           2744   16423   17131   16489
CTETRA      4798       4    1122    1123    1125    6879    3510    3512+
+           3518   16195   15723   15720
CTETRA      4799       4    1117    1123    1122    7028    3509    3510+
+           3503   12165   16196   13349
CTETRA      4800       4    1117    1123    7028    7030    3509   16196+
+          12165   13345   13348   11019
CTETRA      4801       4    1097    7025    6880    7030   14341   11014+
+          13506   16959   11016   11015
CTETRA      4802       4    1043    6897    6896    6928   13371   10620+
+          13370   14524   10708   10707
CTETRA      4803       4     733    6532    6533    6536   16172    9442+
+          14267   13309    9441    9443
CTETRA      4804       4     904    7007    6987    7018   16066   10922+
+          15571   15573   10944   10947
CTETRA      4805       4    1233    6562    1237    6563   15166   16896+
+           3841   13982    9524   16731
CTETRA      4806       4     733    6536    6533    6558   13309    9443+
+          14267   12859    9511    9478
CTETRA      4807       4     743    7045     785    7047   13425   13426+
+           2395   16765   11089   16470
CTETRA      4808       4     797    6979    6978    7170   12550   11078+
+          12530   14255   11495   11496
CTETRA      4809       4     748     779     775    7155    2338    2341+
+           2320   14421   14420   14919
CTETRA      4810       4    1041    6761    6760    6925   14317   10471+
+          16062   14319   10696   10697
CTETRA      4811       4     733    6533     962    6534   14267   15542+
+           3005   12857    9479   14265
CTETRA      4812       4    1045    6768    6759    6847   12255   10261+
+          12254   15338   10448   10450
CTETRA      4813       4    1045    6759    6760    6847   12254   10451+
+          15336   15338   10450   10452
CTETRA      4814       4     751    7143     884    7151   15049   15050+
+           2805   17133   11427   16482
CTETRA      4815       4     754     808     805    7138    2482    2485+
+           2462   16188   16443   16488
CTETRA      4816       4     873    1102    1113    6882    3421    3445+
+           3443   17134   17135   15291
CTETRA      4817       4     979    6503    6502    6815   14875    9492+
+          14575   14863   10340   10339
CTETRA      4818       4     911    7098    7097    7149   15869   11334+
+          15558   17136   11429   11430
CTETRA      4819       4     519     788    7039    7042    2403   16490+
+          14092   16498   14147   11057
CTETRA      4820       4     880     906     881    7103    2784    2808+
+           2811   16984   17137   17138
CTETRA      4821       4     882     934    7104    7130    2908   16101+
+          15064   15066   16192   11335
CTETRA      4822       4     748    7156    7155    7160   14422   11456+
+          14421   16773   11466   11468
CTETRA      4823       4     887     888     907    6985    2744    2780+
+           2779   16423   16489   16420
CTETRA      4824       4     882     910     883    7129    2802    2800+
+           2803   16097   16647   16098
CTETRA      4825       4     979    6503    6815    6854   14875   10340+
+          14863   14865   10489   10490
CTETRA      4826       4     981     982    6504    6559    3026   17139+
+          17140   17141   14263    9489
CTETRA      4827       4     981    6504    6557    6559   17140    9486+
+          14828   17141    9489    9484
CTETRA      4828       4     962    6534    6533    6584   14265    9479+
+          15542   12697    9612    9613
CTETRA      4829       4     982    6503    6504    6559   17142    9494+
+          17139   14263    9493    9489
CTETRA      4830       4     751     752     921    7143    2480    2848+
+           2855   15049   15873   13595
CTETRA      4831       4     978     982    6503    6504    3025   17142+
+          14874   12034   17139    9494
CTETRA      4832       4     979    6815    6502    6822   14863   10339+
+          14575   14577   10341   10344
CTETRA      4833       4     959     984     979    6822    3029    3032+
+           3020   14576   16864   14577
CTETRA      4834       4     960    6502     979    6535   12705   14575+
+           3017   12288    9491   15346
CTETRA      4835       4     956     957    6824    6825    3058   16124+
+          16123   15364   15365   10370
CTETRA      4836       4     804     807    7146    7148    2472   17116+
+          15607   11906   16445   11419
CTETRA      4837       4     906    7126    7103    7128   15072   11323+
+          17137   16426   11325   11319
CTETRA      4838       4     978    6504    6503    6854   12034    9494+
+          14874   12037   10488   10489
CTETRA      4839       4     909    7097    7096    7159   15559   11331+
+          15556   15555   11462   11472
CTETRA      4840       4     921    7099    7100    7124   16641   11309+
+          13594   14340   11305   11308
CTETRA      4841       4     980     981    6557    6559    3028   14828+
+          16897   14262   17141    9484
CTETRA      4842       4     958     984     959    6822    3030    3029+
+           3031   16863   16864   14576
CTETRA      4843       4     984    6814    6815    6822   14927   10343+
+          16871   16864   10342   10341
CTETRA      4844       4     751     752    7143    7144    2480   15873+
+          15049   17111   15874   11401
CTETRA      4845       4    1202    1229    1203    6651    3791    3802+
+           3803   15032   13049   14889
CTETRA      4846       4     752     921    7143    7145    2848   13595+
+          15873   14214   13596   11400
CTETRA      4847       4    1324    6729    6726    6730   13545   10094+
+          13544   15259   10091   10095
CTETRA      4848       4    1325    1327    5960    6733    4152   13919+
+          12798   12800   12802   10111
CTETRA      4849       4    1281    1331    1332    6219    4174    4173+
+           4175   17024   15882   17025
CTETRA      4850       4     881    7104    7103    7126   16100   11258+
+          17138   15071   11324   11323
CTETRA      4851       4    1203    1229    1230    6651    3802    3797+
+           3799   14889   13049   13620
CTETRA      4852       4     920     921    7100    7124    2849   13594+
+          12874   12643   14340   11308
CTETRA      4853       4     880    7104     939    7115   16985   17115+
+           2914   16653   11257   17143
CTETRA      4854       4    1229    6517    1230    6651   15769   13619+
+           3797   13049    9793   13620
CTETRA      4855       4    1330    6171    6174    6175   16281    8245+
+          16938   16282    8247    8246
CTETRA      4856       4    1349    1351    1352    6579    4242    4241+
+           4243   17009   17008   16300
CTETRA      4857       4     883    7129    7119    7130   16098   11333+
+          16485   16099   11339   11342
CTETRA      4858       4     934    7104    7105    7114   16101   11264+
+          16087   16631   11259   11263
CTETRA      4859       4    1311    6722    6719    6723   14823   10084+
+          14835   15280   10081   10083
CTETRA      4860       4     907    7127     912    7128   16413   17144+
+           2815   16421   11322   16811
CTETRA      4861       4    1314    6707    6706    6723   13253   10023+
+          13266   15281   10078   10080
CTETRA      4862       4    1272    6716    6717    6720   15271   10053+
+          15270   12041   10052   10051
CTETRA      4863       4    1242    1258    6799    6800    3917   12332+
+          15778   15111   16041   10275
CTETRA      4864       4    1069    6950    6951    6953   12572   10798+
+          15531   12574   10797   10799
CTETRA      4865       4     969     976    6870    6872    2983   16075+
+          16080   16522   16524   10561
CTETRA      4866       4     981    6504    6505    6557   17140    9487+
+          14827   14828    9486    9488
CTETRA      4867       4     473     475    1010    6574     474    3155+
+           3154   16555   16573   14061
CTETRA      4868       4     469     471     276    6795     470   12646+
+          12648   15450   12647   10281
CTETRA      4869       4    1084    1085    6765    6860    3402   15725+
+          13655   17145   17081   10509
CTETRA      4870       4    1198    6647    6633    6648   15029    9775+
+          15444   15030    9774    9773
CTETRA      4871       4    1375    1381    1379    6669    4341    4342+
+           4330   16386   13184   13042
CTETRA      4872       4    1376    1377    1395    6672    4328    4402+
+           4401   16384   17146   15245
CTETRA      4873       4    1396    6629    6678    6679   13303    9924+
+          15146   13894    9921    9925
CTETRA      4874       4     737     738    1209    6790    2966    3830+
+           3829   14495   17147   14496
CTETRA      4875       4    1033    6764    1085    6831   14325   15724+
+           3400   16748   10453   17080
CTETRA      4876       4     477     741     479    6794    3865    3383+
+            478   16307   15816   17148
CTETRA      4877       4    1057    6926    6894    6927   14380   10687+
+          14379   15329   10693   10690
CTETRA      4878       4     457    1334    1351    6578    4204    4238+
+           4237   16388   16390   17019
CTETRA      4879       4     969     971     972    6864    2961    2956+
+           2962   14484   15105   16208
CTETRA      4880       4    1209    1246    1244    6798    3879    3875+
+           3877   14338   11878   11977
CTETRA      4881       4     971     973    6861    6862    2949   12343+
+          17149   15104   12333   10528
CTETRA      4882       4    1206    6509    6569    6571   15126    9552+
+          15193   15185    9551    9554
CTETRA      4883       4    1082    6855    6856    6857   13360   10505+
+          13361   15831   10504   10500
CTETRA      4884       4    1356    1359    1360    6662    4261    4264+
+           4259   15258   15008   16702
CTETRA      4885       4    1367    6660    1383    6668   15249   12775+
+           4354   15254    9870   15261
CTETRA      4886       4    1357    1360    6635    6662    4258   16701+
+          12767   12774   16702    9854
CTETRA      4887       4     948     949    6838    6844    3052   15906+
+          15905   12323   12325   10429
CTETRA      4888       4    1351    6578    6579    6583   17019    9603+
+          17008   15463    9602    9604
CTETRA      4889       4     463     465     272    6642     464   17150+
+          17151   15998   17152    9740
CTETRA      4890       4    1226    6555    6539    6556   17153    9466+
+          17154   14902    9471    9475
CTETRA      4891       4    1086    6858    6859    6860   15726   10518+
+          17155   17082   10517   10516
CTETRA      4892       4    1355    1371    1372    6658    4313    4312+
+           4314   12777   12776   17156
CTETRA      4893       4    1355    6658    6657    6661   12777    9833+
+          14565   12778    9846    9845
CTETRA      4894       4    1198    6632    6633    6647   17157    9810+
+          15444   15029    9807    9775
CTETRA      4895       4     733     962     980    6534    3005    3008+
+           3002   12857   14265   12858
CTETRA      4896       4    1197    6634    1357    6635   12762   12764+
+           4255   12766    9787   12767
CTETRA      4897       4    1378    1382    1383    6633    4348    4353+
+           4352   15445   16519   15446
CTETRA      4898       4    1278    1351    1349    6582    4236    4242+
+           4221   17017   17011   17010
CTETRA      4899       4     966     983    6852    6854    3034   15515+
+          16072   15511   14866   10486
CTETRA      4900       4    1200    1201    1377    6655    3854    4323+
+           4322   15476   12637   15774
CTETRA      4901       4    1199    6632    6647    6654   17158    9807+
+          16632   14248    9809    9808
CTETRA      4902       4     495     497    1170    6753     496    3680+
+           3685   12147   17159   12133
CTETRA      4903       4     491    6778     954    6780   12143   16156+
+           3082   16146   10196   15786
CTETRA      4904       4     978     982     979    6503    3025    3019+
+           3027   14874   17142   14875
CTETRA      4905       4     455    1278    6581    6583    3967   14183+
+          13273   15461   15468    9609
CTETRA      4906       4    1434    6161    5968    6183   16547    8290+
+          12724   15749    8308    8307
CTETRA      4907       4     793    6980    6979    7172   16620   11073+
+          12549   12563   11498   11497
CTETRA      4908       4    1197    1198    1383    6633    3789    4350+
+           4351   16717   15444   15446
CTETRA      4909       4    1198    6632    1378    6633   17157   16385+
+           4334   15444    9810   15445
CTETRA      4910       4     995    6599    1011    6600   12690   12689+
+           3152   12692    9659   16065
CTETRA      4911       4     475    6800    1242    6803   16893   15111+
+           3860   17160   10286   15112
CTETRA      4912       4     980    6534    6535    6559   12858    9481+
+          14260   14262    9480    9482
CTETRA      4913       4    1202    1203    6639    6651    3803   12094+
+          15027   15032   14889    9794
CTETRA      4914       4     794     797    6979    7040    2447   12550+
+          12554   14149   12532   11074
CTETRA      4915       4    1434    5968    1435    6183   12724   12726+
+           4521   15749    8307   15750
CTETRA      4916       4    1378    6632    1380    6674   16385   13034+
+           4335   14369    9895   13036
CTETRA      4917       4     485     292    6941    6943   12450   10760+
+          12452   13644   10750   10762
CTETRA      4918       4     797    6978    6979    7040   12530   11078+
+          12550   12532   11077   11074
CTETRA      4919       4    1199    1380    6632    6654    4325   13034+
+          17158   14248   14250    9809
CTETRA      4920       4    1434    1474    5967    6161    4675   16026+
+          12019   16547   16027    8288
CTETRA      4921       4    1255    6515    6514    6643   14814    9502+
+          12092   12100    9751    9754
CTETRA      4922       4    1253    6514    6513    6641   12091    9505+
+          12727   16002    9744    9743
CTETRA      4923       4    1253    1255    6514    6643    3913   12092+
+          12091   17161   12100    9754
CTETRA      4924       4    1254    1264    1262    6514    3940    3942+
+           3941   12093   17162   17163
CTETRA      4925       4    1433    5967    1474    6180   12017   16026+
+           4678   14171    8287   14170
CTETRA      4926       4    1238    1247    1252    6637    3889    3896+
+           3895   14373   16548   14374
CTETRA      4927       4     461    1252    6640    6645    3894   17051+
+          17050   17053   14376    9762
CTETRA      4928       4     459    6578     266    6615   16389    9601+
+          17060   15147    9725    9720
CTETRA      4929       4    1161    7050    7051    7053   14239   11116+
+          16328   16330   11115   11107
CTETRA      4930       4    1052    6760    6759    6931   15337   10451+
+          15335   17164   10715   10717
CTETRA      4931       4     489     491     954    6780     490    3082+
+           3081   16145   16146   15786
CTETRA      4932       4    1474    6180    6162    6181   14170    8300+
+          15756   14166    8296    8298
CTETRA      4933       4     455     262     264    6583   13271     263+
+          15464   15461    9599    9598
CTETRA      4934       4    1352    6579    6590    6595   16300    9644+
+          16292   14762    9646    9645
CTETRA      4935       4     489     491     296    6971     490   16144+
+          14961   14962   15489   10856
CTETRA      4936       4     924    6883    6884    6934   17165   10727+
+          17166   17167   10726   10723
CTETRA      4937       4     457    1238     459    6636    3843    3844+
+            458   15478   17064   17061
CTETRA      4938       4    1342    6610    6609    6614   15791    9716+
+          15790   15793    9722    9729
CTETRA      4939       4     463    6610     270    6613   17059    9713+
+          17057   17168    9715    9707
CTETRA      4940       4    1172    6754    6755    6781   12144   10226+
+          13323   12146   10225   10217
CTETRA      4941       4    1343    6609    6610    6613   15789    9716+
+          15792   16891    9711    9715
CTETRA      4942       4    1000    1001    1009    6585    3122    3159+
+           3160   12279   12295   12280
CTETRA      4943       4     731    6596    1002    6606   14275   14270+
+           3119   13063    9685   13065
CTETRA      4944       4    1456    1457    1497    6178    4625    4718+
+           4717   13660   14452   15968
CTETRA      4945       4    1072    6951    6952    6955   12989   10806+
+          12985   14464   10804   10807
CTETRA      4946       4     961    6535    6534    6587   16659    9481+
+          14264   14266    9611    9610
CTETRA      4947       4     945    1032    1086    6859    3266    3405+
+           3403   16206   15103   17155
CTETRA      4948       4     950     951    6769    6830    3065   12277+
+          12269   12271   16540   10403
CTETRA      4949       4     967     981    6504    6505    3014   17140+
+          12033   16224   14827    9487
CTETRA      4950       4    1456    1497    6164    6178    4717   15967+
+          15966   13660   15968    8273
CTETRA      4951       4    1355    6657    1356    6661   14565   16721+
+           4263   12778    9845   15257
CTETRA      4952       4    1358    6549    6520    6550   12064    9420+
+          17013   16711    9416    9421
CTETRA      4953       4    1496    1497    6163    6164    4721   16031+
+          15969   11986   15967    8280
CTETRA      4954       4    1542    1543    1545    6496    4834    4836+
+           4842   14406   15117   13125
CTETRA      4955       4    1402    6488    1536    6489   17169   12302+
+           4789   12297    9356   12298
CTETRA      4956       4    1401    6453    1402    6454   12751   12769+
+           4425   12752    9275   12768
CTETRA      4957       4    1602    1624    1623    6427    5088    5089+
+           5086   14436   13877   14442
CTETRA      4958       4    1600    1622    1620    6399    5080    5082+
+           5072   16757   14004   15214
CTETRA      4959       4    1623    6425    1627    6426   16003   16004+
+           5113   13872    9122   16001
CTETRA      4960       4    1015    6500    6499    6823   13392    9578+
+          16168   13393   10354   10356
CTETRA      4961       4    1495    1497    1496    6164    4719    4721+
+           4720   11985   15967   11986
CTETRA      4962       4     413     415    1653    6393     414    5208+
+           5210   15737   16253   15544
CTETRA      4963       4    1015    1018    1020    6499    3192    3194+
+           3198   16168   15528   17170
CTETRA      4964       4    1571    1574    1579    6389    4968    4987+
+           4988   14413   15540   12832
CTETRA      4965       4     740    6855    6793    6863   13905   10503+
+          13910   13359   10519   10520
CTETRA      4966       4    1517    1566    6443    6452    4932   14730+
+          16694   14411   14412    9225
CTETRA      4967       4     407    1651    1644    6422    5198    5204+
+           5178   15403   15399   17171
CTETRA      4968       4     399     208     206    6331   16867     207+
+          17172   16868    8821    8822
CTETRA      4969       4     399     206     208    6412   17172     207+
+          16867   16878    9045    9046
CTETRA      4970       4     481     290     483    6827   16907   13991+
+            482   16565   10381   17173
CTETRA      4971       4    1018    6498    6499    6575   17174    9583+
+          15528   15527    9582    9579
CTETRA      4972       4    1498    6162    6163    6181   15757    8299+
+          16030   12466    8298    8297
CTETRA      4973       4    1407    6366    6374    6375   15414    8945+
+          13262   15421    8941    8943
CTETRA      4974       4     487     993     991    6777    3076    3078+
+           3074   14014   16341   16340
CTETRA      4975       4     740    6792     973    6863   13317   13316+
+           2942   13359   10529   12336
CTETRA      4976       4    1457    1501    1497    6179    4741    4737+
+           4718   16930   12519   12518
CTETRA      4977       4     477    1243     741    6794    3859    3866+
+           3865   16307   15819   15816
CTETRA      4978       4     475     477    1019    6577     476    3189+
+           3186   14050   17175   14051
CTETRA      4979       4    1522    1534    1523    6487    4781    4777+
+           4782   12536   13143   13135
CTETRA      4980       4     477     284     286    6575   17176     285+
+          17177   17178    9560    9561
CTETRA      4981       4    1480    6139    6140    6191   14780    8358+
+          14770   14767    8346    8357
CTETRA      4982       4    1527    6482    1534    6483   16371   13141+
+           4771   15960    9322   15961
CTETRA      4983       4    1674    1700    1675    6262    5331    5334+
+           5333   12579   12578   14685
CTETRA      4984       4    1083    1086    1084    6860    3408    3407+
+           3397   16876   17082   17145
CTETRA      4985       4    1045    1052    1051    6760    3237    3239+
+           3232   15336   15337   15341
CTETRA      4986       4    1724    1726    1725    6333    5441    5434+
+           5442   12656   13054   13068
CTETRA      4987       4    1046    1053    1052    6931    3243    3244+
+           3238   17179   17086   17164
CTETRA      4988       4    1731    6327    6330    6331   16958    8823+
+          16264   16957    8825    8820
CTETRA      4989       4     794    7040    6979    7041   14149   11074+
+          12554   14145   11067   11072
CTETRA      4990       4    1677    6260    6259    6336   13089    8608+
+          12781   13083    8838    8837
CTETRA      4991       4    1086    6859    6831    6860   17155   10514+
+          17079   17082   10516   10510
CTETRA      4992       4    1588    6259    6271    6287   11852    8607+
+          11854   12085    8642    8710
CTETRA      4993       4    1598    1599    6245    6292    5061   17180+
+          15842   15843   16013    8678
CTETRA      4994       4    1598    6246    6245    6411   14157    8689+
+          15842   16243    9052    9049
CTETRA      4995       4    1619    6398    1621    6424   16372   14445+
+           5079   15221    9127   14444
CTETRA      4996       4     957     958    1007    6824    3043    3142+
+           3139   16124   16126   15323
CTETRA      4997       4     953    1171    6775    6779    3696   13339+
+          15522   15783   12139   10201
CTETRA      4998       4    1042    6925    1052    6931   15333   16941+
+           3252   17084   10716   17164
CTETRA      4999       4    1596    1642    1640    6419    5173    5169+
+           5171   11936   13613   13612
CTETRA      5000       4    1069    1071    1070    6968    3342    3341+
+           3343   14252   12838   12992
CTETRA      5001       4    1052    6925    6760    6931   16941   10697+
+          15337   17164   10716   10715
CTETRA      5002       4    1599    1635    6245    6295    5143   17181+
+          17180   16349   16351    8677
CTETRA      5003       4    1635    6244    6245    6295   17182    8680+
+          17181   16351    8674    8677
CTETRA      5004       4    1505    6483    1534    6486   15840   15961+
+           4768   12822    9339   16174
CTETRA      5005       4     497     304     306    7052   17183     305+
+          17184   16009   11103   11104
CTETRA      5006       4     928    7108     937    7112   12358   13959+
+           2918   12359   11236   13948
CTETRA      5007       4    1640    6418    6405    6419   13611    9079+
+          17185   13612    9073    9076
CTETRA      5008       4    1675    1700    1703    6261    5334    5338+
+           5337   13069   14686   13070
CTETRA      5009       4     507     314    7061    7066   13395   11160+
+          14225   13390   11156   11162
CTETRA      5010       4    1691    6273    6272    6286   14692    8588+
+          12885   12887    8631    8633
CTETRA      5011       4    1038    1065    1063    6964    3323    3319+
+           3321   13333   13350   13335
CTETRA      5012       4    1718    1722    1723    6344    5423    5426+
+           5425   17186   11930   11902
CTETRA      5013       4    1663    1678    1696    6041    5273    5304+
+           5301   12168   15641   12169
CTETRA      5014       4     499    1021     501    6961    3306    3307+
+            500   17187   12243   17188
CTETRA      5015       4    1700    6274    1704    6275   12895   16854+
+           5351   12896    8602   17189
CTETRA      5016       4    1023    1060    1065    6967    3310    3316+
+           3317   15309   16510   15766
CTETRA      5017       4     929    7114    7108    7115   17190   11254+
+          13607   16654   11256   11249
CTETRA      5018       4    1534    6483    6482    6486   15961    9322+
+          13141   16174    9339    9347
CTETRA      5019       4     489    6940    1073    6971   14023   14022+
+           3352   14962   10858   14448
CTETRA      5020       4    1468    6231    6223    6232   17191    8510+
+          17192   17193    8519    8518
CTETRA      5021       4    1463    1467    1466    6222    4582    4581+
+           4580   17194   12748   12595
CTETRA      5022       4     425    6197     232    6224   17195    8400+
+          13636   13638    8479    8481
CTETRA      5023       4    1091    1092    1152    6876    3516    3628+
+           3627   17196   14303   12973
CTETRA      5024       4     433     240    5971    6690   14489    9958+
+          17197   15098    9949    9959
CTETRA      5025       4     495    1061     497    6975    3300    3299+
+            496   16643   16645   17198
CTETRA      5026       4    1507    1620    6468    6476    5071   15215+
+          16410   17199   15216    9302
CTETRA      5027       4     493     300     302    6783   17200     301+
+          12110   12112   10223   10224
CTETRA      5028       4     493     300     298    6973   17200     299+
+          16158   16157   10867   10866
CTETRA      5029       4    1177    6236    1300    6237   15234   13700+
+           4022   12921    8530   15241
CTETRA      5030       4    1467    1468    6223    6232    4593   17192+
+          14054   17201   17193    8518
CTETRA      5031       4    1463    6227    6228    6232   12576    8517+
+          14705   14707    8512    8515
CTETRA      5032       4    1542    1544    6352    6493    4839   14408+
+          15198   14400   14409    9372
CTETRA      5033       4    1332    6160    6159    6218   16832    8238+
+          16830   13987    8458    8457
CTETRA      5034       4    1542    6495    1543    6496   13116   15116+
+           4834   14406    9381   15117
CTETRA      5035       4    1282    1283    1327    5960    4008    4151+
+           4169   15263   13530   13919
CTETRA      5036       4     686    5885    5884    5898   13750    7449+
+          15656   13752    7492    7484
CTETRA      5037       4     590     599    5956    6092    2270   14161+
+          14080   12397   15390    8046
CTETRA      5038       4    1069    1070    6951    6968    3343   12991+
+          15531   14252   12992   10863
CTETRA      5039       4    1555    6371    6367    6372   13718    8916+
+          13656   12855    8918    8917
CTETRA      5040       4     582     591    6043    6067    2294   15851+
+          15921   15857   15852    7966
CTETRA      5041       4    1064    6974    1066    6976   16040   16051+
+           3335   15538   10888   16052
CTETRA      5042       4    1766    1768    1767    6066    5563    5562+
+           5564   17202   17203   16637
CTETRA      5043       4    1766    1767    6065    6066    5564   16954+
+          16336   17202   16637    7955
CTETRA      5044       4     583    6043    6044    6066   15934    7965+
+          16638   16636    7964    7956
CTETRA      5045       4    1409    6370    6368    6371   15208    8910+
+          13722   13716    8912    8915
CTETRA      5046       4     489    1074     491    6971    3349    3348+
+            490   14962   14449   15489
CTETRA      5047       4    1408    1409    1553    6365    4635    4893+
+           4894   13249   15213   13250
CTETRA      5048       4    1736    5999    5998    6036   16304    7729+
+          12754   14554    7853    7861
CTETRA      5049       4    1737    1780    1778    6037    5615    5618+
+           5605   12744   12745   14563
CTETRA      5050       4    1737    1778    6035    6037    5605   13828+
+          13827   12744   14563    7851
CTETRA      5051       4    1033    6764    6831    6848   14325   10453+
+          16748   14310   10455   10454
CTETRA      5052       4     427    6367     234    6372   13635    8902+
+          15580   12856    8917    8919
CTETRA      5053       4    1661    5998    5999    6008   16626    7729+
+          16650   16630    7728    7727
CTETRA      5054       4    1408    1481    1409    6365    4634    4633+
+           4635   13249   15276   15213
CTETRA      5055       4    1684    1691    1689    6272    5278    5277+
+           5276   13111   12885   14688
CTETRA      5056       4    1737    6035    6034    6036   13827    7847+
+          16309   12742    7855    7854
CTETRA      5057       4    1554    6364    1555    6372   15134   13719+
+           4887   12849    8923   12855
CTETRA      5058       4     703    5929     705    5932   15963   15654+
+           2179   15023    7599   15020
CTETRA      5059       4     706    5929    5925    5931   16154    7591+
+          13528   15646    7602    7600
CTETRA      5060       4      63      64     115     711      69    5810+
+           5809    2207    2208   12966
CTETRA      5061       4     804    7147    7089    7148   15604   11413+
+          11904   11906   11416   11411
CTETRA      5062       4     944    1086    6858    6859    3404   15726+
+          15702   15701   17155   10518
CTETRA      5063       4     698    5891    5890    5927   11943    7455+
+          11958   11956    7585    7586
CTETRA      5064       4    1032    1085    1086    6831    3401    3406+
+           3405   15102   17080   17079
CTETRA      5065       4    1085    6831    6765    6860   17080   10457+
+          15725   17081   10510   10509
CTETRA      5066       4     803    7090    7091    7141   15012   11388+
+          15000   15003   11387   11384
CTETRA      5067       4     715    5911    5915    5918   13732    7524+
+          14642   14872    7538    7536
CTETRA      5068       4     671    5906    5911    5918   13728    7540+
+          13730   15321    7539    7538
CTETRA      5069       4     721    5917    5919    5920   11916    7544+
+          11919   11921    7545    7546
CTETRA      5070       4     355     357     620    5875     356    1927+
+           1928   14589   16077   15342
CTETRA      5071       4     671    5907    5906    5918   13729    7509+
+          13728   15321    7537    7539
CTETRA      5072       4    1028    1095    6917    6918    3548   14800+
+          14799   16774   16775   10684
CTETRA      5073       4    1562    1563    1565    6445    4928    4935+
+           4936   16366   17204   16369
CTETRA      5074       4    1565    6449    6444    6451   15741    9209+
+          14723   14725    9218    9220
CTETRA      5075       4     812    7091    7189    7190   15612   11565+
+          14202   15010   11564   11566
CTETRA      5076       4    1070    6968    6969    6972   12992   10872+
+          12121   12124   10865   10870
CTETRA      5077       4    1103    1114    1112    6888    3458    3457+
+           3456   13666   17205   13667
CTETRA      5078       4    1098    1112    1114    6910    3450    3457+
+           3459   13670   13509   13672
CTETRA      5079       4     674    5897    5896    5904   16606    7474+
+          16817   17206    7506    7507
CTETRA      5080       4     664    5849    5848    5868   13029    7354+
+          13197   13076    7374    7373
CTETRA      5081       4     674     687     675    5896    2121    2120+
+           2122   16817   16790   16788
CTETRA      5082       4     886    7014    7008    7015   12023   10927+
+          15392   12363   10926   10929
CTETRA      5083       4     647    5880     689    5881   16784   16785+
+           2142   15353    7423   16795
CTETRA      5084       4    1140    6995    6994    7072   12154   10965+
+          12152   15079   11179   11180
CTETRA      5085       4    1112    6887    6888    6910   13664   10588+
+          13667   13509   10587   10586
CTETRA      5086       4     872    7035    7032    7036   15300   11044+
+          15486   14307   11051   11050
CTETRA      5087       4     648     654     649    5865    2038    2024+
+           2039   15405   15423   15407
CTETRA      5088       4     649     654    5864    5865    2024   17207+
+          13427   15407   15423    7363
CTETRA      5089       4    1114    6889    1115    6907   17208   16405+
+           3463   17209   10577   17075
CTETRA      5090       4    1114    6888    6907    6910   17205   10578+
+          17209   13672   10586   10589
CTETRA      5091       4    1097    1123    1118    7030    3508    3507+
+           3506   16959   13348   13346
CTETRA      5092       4     656     657    5852    5853    1999   17034+
+          16596   16155   17210    7300
CTETRA      5093       4     902    7002    7001    7033   15093   10952+
+          15092   15091   11025   11028
CTETRA      5094       4     355    5843     162    5862   16323    7305+
+          14588   17123    7356    7355
CTETRA      5095       4    1093    6900    6914    6915   16334   10636+
+          17066   16333   10638   10637
CTETRA      5096       4    1113    6881    7025    7036   14284   11017+
+          14226   14229   11048   11049
CTETRA      5097       4     656    5853    5852    5855   16155    7300+
+          16596   15683    7316    7315
CTETRA      5098       4     614    5820     617    5821   14116   16319+
+           2268   14117    7270   16321
CTETRA      5099       4     813    7089    7187    7188   11885   11571+
+          14119   11886   11570   11572
CTETRA      5100       4      59     702      60    5935    2192    2191+
+             67   17073   15648   17113
CTETRA      5101       4     415     222     224    6465   16263     223+
+          16260   16254    9262    9263
CTETRA      5102       4      59      60     111    5935      67    5813+
+           5812   17073   17113    7610
CTETRA      5103       4      60     112     111    5936    5816     130+
+           5813   17114    7619    7618
CTETRA      5104       4     146    1821     728    5940   12824    5778+
+          14610    7640   12825   14539
CTETRA      5105       4    1815    6089    1819    6096   15161   15162+
+           5761   15163    8017   12884
CTETRA      5106       4     146     728       8    5940   14610   11798+
+            149    7640   14539    7661
CTETRA      5107       4       8    5940     728    6095    7661   14539+
+          11798    8026    8025   11793
CTETRA      5108       4     727    1819     728    5940    5775    5773+
+           5776   12882   12881   14539
CTETRA      5109       4    1102    1103    6887    6948    3423   13665+
+          14285   17211   17212   10779
CTETRA      5110       4     727     728    1821    5940    5776    5778+
+           5779   12882   14539   12825
CTETRA      5111       4    1027    1053    1028    6929    3246    3245+
+           3247   17213   17214   17215
CTETRA      5112       4     727    1818    1819    6096    5771    5763+
+           5775   12883   15367   12884
CTETRA      5113       4     727    5939    1818    6096   12433   14542+
+           5771   12883    8023   15367
CTETRA      5114       4    1121    7006    7005    7026   14244   10971+
+          12176   12178   10997   10996
CTETRA      5115       4     724    1821    5941    5942    5781   11797+
+          11796   12461   12436    7634
CTETRA      5116       4    1169    6754    6873    6921   14789   10656+
+          15480   15483   10655   10658
CTETRA      5117       4     865    7079    7044    7081   16676   11207+
+          15705   16681   11216   11218
CTETRA      5118       4    1816    6089    6090    6095   13784    8035+
+          13783   14540    8018    8034
CTETRA      5119       4     591     609     592    6128    1862    1864+
+           1863   12048   12049   14414
CTETRA      5120       4     791     795    7173    7177    2438   14139+
+          16948   12351   16120   11519
CTETRA      5121       4     373     182     375    6074   15288   14517+
+            374   15289    7974   14519
CTETRA      5122       4     377    6062     184    6067   11913    7947+
+          15294   15296    7960    7962
CTETRA      5123       4     379     184     186    6032   15301     185+
+          12511   14612    7817    7816
CTETRA      5124       4     377     582    6062    6067    2295   11914+
+          11913   15296   15857    7960
CTETRA      5125       4     866     893     867    7043    2699    2702+
+           2701   12488   16110   12489
CTETRA      5126       4    1738    5990    5991    6035   13819    7841+
+          13821   13829    7840    7839
CTETRA      5127       4     919    7119    7099    7124   16193   11302+
+          16484   13417   11301   11305
CTETRA      5128       4    1661    5998    1736    5999   16626   12754+
+           5622   16650    7729   16304
CTETRA      5129       4    1087    1119    1088    7020    3482    3484+
+           3483   13970   17216   13962
CTETRA      5130       4    1789    1795    6025    6027    5670   16576+
+          16584   14136   16577    7806
CTETRA      5131       4     883    7098     884    7099   17217   16481+
+           2807   16483   11304   16480
CTETRA      5132       4    1794    6028    1795    6033   16468   16578+
+           5673   14636    7829   14638
CTETRA      5133       4    1795    6028    6027    6033   16578    7808+
+          16577   14638    7829    7831
CTETRA      5134       4     888    6984     899    7095   17218   14966+
+           2743   16414   11313   17219
CTETRA      5135       4    1788    1790    1789    6025    5651    5650+
+           5652   16464   16583   16584
CTETRA      5136       4    1583    6294    6291    6295   17220    8672+
+          16354   16355    8682    8681
CTETRA      5137       4    1582    1687    1688    5975    5242    5244+
+           5241   16656   16655   16665
CTETRA      5138       4    1688    5974    5975    6019   17221    7757+
+          16665   17222    7754    7758
CTETRA      5139       4    1583    6266    6291    6294   16667    8663+
+          16354   17220    8671    8672
CTETRA      5140       4    1582    1688    5974    5975    5241   17221+
+          17223   16656   16665    7757
CTETRA      5141       4    1138    7062    7067    7071   15526   11171+
+          12513   12494   11173   11172
CTETRA      5142       4    1582    6290    1636    6291   17224   17225+
+           5146   16352    8666   16353
CTETRA      5143       4     742     865    1136    7079    2693    3572+
+           3563   16585   16676   17226
CTETRA      5144       4    1122    1125    6878    6879    3518   16198+
+          16197   16195   15720   10608
CTETRA      5145       4     867    6997    7069    7082   16078   11165+
+          16023   12490   11222   11226
CTETRA      5146       4    1538    1541    6470    6471    4824   14391+
+          15077   13551   15124    9296
CTETRA      5147       4    1539    6473    1540    6474   17227   17228+
+           4822   17229    9288   14392
CTETRA      5148       4    1504    1530    1527    6456    4754    4760+
+           4757   15836   15958   15959
CTETRA      5149       4    1592    1619    6397    6457    5069   15219+
+          17230   15838   16229    9233
CTETRA      5150       4    1503    6462    1504    6463   15018   16238+
+           4753   13695    9245   13699
CTETRA      5151       4    1592    6397    6396    6457   17230    9162+
+          15837   15838    9233    9232
CTETRA      5152       4     441    1301    6205    6208    4034   14876+
+          17039   17041   13951    8413
CTETRA      5153       4     880     904     906    6988    2782    2785+
+           2784   17231   15572   16666
CTETRA      5154       4     786    7039    7038    7045   13420   11059+
+          16471   13421   11091   11090
CTETRA      5155       4     443     250     248    6702   14867     249+
+          17232   17233   10001   10000
CTETRA      5156       4     443     445     250    6618     444   14868+
+          14867   17234   17005    9916
CTETRA      5157       4    1103    1106    1104    6947    3416    3418+
+           3417   17235   16740   17236
CTETRA      5158       4     443    1448    1189    6618    4533    4532+
+           4531   17234   13681   13680
CTETRA      5159       4    1036    1059    1037    6893    3289    3292+
+           3291   16536   14510   13340
CTETRA      5160       4     443    1295    1297    6206    4012    4014+
+           4013   13954   16452   13947
CTETRA      5161       4     439     441     246    6687     440   17237+
+          13097   12001   17238    9969
CTETRA      5162       4     997     998    1004    6828    3115    3138+
+           3137   17239   16858   17240
CTETRA      5163       4    1139    1141    1142    7070    3580    3582+
+           3581   12498   15510   13968
CTETRA      5164       4     882    7126    7129    7130   15065   11338+
+          16097   15066   11337   11339
CTETRA      5165       4    1450    6687    6699    6702   16708    9991+
+          13020   13023   10002   10003
CTETRA      5166       4     441     443     248    6702     442   17232+
+          17040   16990   17233   10000
CTETRA      5167       4    1095    6919    6923    6924   16852   10672+
+          14801   16793   10686   10685
CTETRA      5168       4     439     246     441    6205   13097   17237+
+            440   13098    8412   17039
CTETRA      5169       4    1163    1166    1164    6922    3665    3668+
+           3667   13219   16936   16935
CTETRA      5170       4    1799    5994    6031    6033   12623    7823+
+          15635   12624    7837    7836
CTETRA      5171       4    1164    6919    6920    6922   16853   10670+
+          16850   16935   10665   10669
CTETRA      5172       4    1575    1578    6358    6376    4978   12851+
+          16970   12835   12834    8956
CTETRA      5173       4     423    1431    1430    6202    4488    4490+
+           4489   17241   17242   16885
CTETRA      5174       4    1094    1131    1095    6923    3551    3550+
+           3552   14806   14802   14801
CTETRA      5175       4    1094    6900    6899    6923   13320   10647+
+          13319   14806   10671   10673
CTETRA      5176       4     421     230     423    6202   16669   16668+
+            422   16884    8397   17241
CTETRA      5177       4    1124    1127    6905    6911    3527   16401+
+          16400   17243   17069   10603
CTETRA      5178       4    1093    1130    1094    6900    3540    3542+
+           3541   16334   13321   13320
CTETRA      5179       4    1094    1166    6901    6919    3671   16500+
+          14305   14306   16934   10663
CTETRA      5180       4    1200    1239    6653    6654    3855   16649+
+          15479   14249   16899    9812
CTETRA      5181       4    1029    1095    6918    6924    3549   16775+
+          14912   16792   16793   10678
CTETRA      5182       4    1378    1380    1379    6674    4335    4332+
+           4336   14369   13036   13041
CTETRA      5183       4     445     252    5957    6206   17004    8431+
+          16453   14869    8421    8433
CTETRA      5184       4    1163    1164    1176    6920    3667    3716+
+           3712   13217   16850   16512
CTETRA      5185       4    1283    1294    1284    6746    3998    3997+
+           3999   15260   14627   13511
CTETRA      5186       4    1281    6219    6218    6220   17024    8476+
+          17023   13678    8477    8470
CTETRA      5187       4     960    6535     961    6587   12288   16659+
+           3024   12289    9611   14266
CTETRA      5188       4    1295    1296    1297    6207    4011    4019+
+           4014   15591   14478   12953
CTETRA      5189       4    1282    1327    1331    5960    4169    4168+
+           4170   15263   13919   15880
CTETRA      5190       4    1329    1332    1331    6160    4171    4173+
+           4167   16831   16832   15878
CTETRA      5191       4     447    1291    1293    6748    3994    3996+
+           3995   17244   16845   16844
CTETRA      5192       4    1292    6746    1294    6749   17245   14627+
+           4000   17038   10169   14631
CTETRA      5193       4     441     443    1297    6208     442    4013+
+           4033   17041   13955   12955
CTETRA      5194       4    1283    6724    5959    6746   13532   10112+
+          13531   15260   10164   10163
CTETRA      5195       4    1225    6516    1230    6554   12108   12089+
+           3794   12109    9454   14892
CTETRA      5196       4    1158    6875    1165    7051   12971   17246+
+           3661   17247   11108   17248
CTETRA      5197       4    1205    1254    6515    6560    3907   14813+
+          12101   12103   16692    9500
CTETRA      5198       4    1248    1255    1251    6638    3909    3912+
+           3903   15922   12098   12097
CTETRA      5199       4    1008    6823    6817    6824   15357   10363+
+          15355   16125   10362   10365
CTETRA      5200       4    1220    6605    6603    6607   13307    9681+
+          15046   15158    9687    9686
CTETRA      5201       4    1360    6520    6519    6662   17249    9423+
+          16700   16702    9848    9855
CTETRA      5202       4     469     995     996    6598    3091    3093+
+           3089   12655   12677   12678
CTETRA      5203       4    1250    6640    6641    6642   17052    9749+
+          14884   15997    9748    9745
CTETRA      5204       4    1253    1254    1262    6514    3914    3941+
+           3943   12091   12093   17163
CTETRA      5205       4    1232    6539    6563    6570   17250    9546+
+          16047   16732    9545    9547
CTETRA      5206       4    1234    1236    1235    6507    3822    3824+
+           3823   14504   14505   15168
CTETRA      5207       4    1210    6545    1227    6551   15807   14893+
+           3779   12074    9428   15818
CTETRA      5208       4    1236    6507    6506    6789   14505    9533+
+          14503   14508   10316   10319
CTETRA      5209       4    1233    1234    1235    6567    3819    3823+
+           3842   13984   15164   15167
CTETRA      5210       4    1212    1232    1226    6539    3804    3806+
+           3777   16223   17250   17154
CTETRA      5211       4     980    6558    6534    6559   12860    9477+
+          12858   14262    9483    9480
CTETRA      5212       4    1226    1232    1231    6539    3806    3812+
+           3811   17154   17250   17251
CTETRA      5213       4     986    6813     988    6843   14930   14936+
+           3060   14931   10410   14938
CTETRA      5214       4    1195    6519    6549    6551   15809    9422+
+          12071   12073    9431    9432
CTETRA      5215       4     735    6506    1234    6566   14523   14502+
+           3816   13080    9521   14826
CTETRA      5216       4     730     996    6597    6604    3099   12670+
+          15805   15804   14545    9690
CTETRA      5217       4    1233    1235    1237    6562    3842    3838+
+           3841   15166   15165   16896
CTETRA      5218       4    1264    6561    6560    6569   17252    9506+
+          16691   17253    9538    9541
CTETRA      5219       4     738    6791    6790    6871   11876   10303+
+          17147   17254   10556   10558
CTETRA      5220       4    1232    6539    6538    6563   17250    9465+
+          16046   16047    9546    9509
CTETRA      5221       4    1091    1152    1154    6992    3627    3626+
+           3629   16018   12972   17255
CTETRA      5222       4    1152    1154    6992    7058    3626   17255+
+          12972   12963   16396   11125
CTETRA      5223       4    1153    7056    7057    7058   14246   11128+
+          15081   17256   11127   11126
CTETRA      5224       4    1021    1062    1022    6957    3312    3311+
+           3313   17257   16932   17258
CTETRA      5225       4    1090    1091    6993    7029    3504   16019+
+          15519   16021   16020   11002
CTETRA      5226       4     970     977     976    6867    2992    2993+
+           2984   16525   16686   16526
CTETRA      5227       4     767     768     793    7172    2360    2431+
+           2433   12441   12448   12563
CTETRA      5228       4    1235    6507    1236    6508   15168   14505+
+           3824   14526    9529   14527
CTETRA      5229       4    1154    1155    6993    7057    3634   15521+
+          15520   15083   15082   11122
CTETRA      5230       4    1090    6993    1155    6994   15519   15521+
+           3635   15504   10995   12171
CTETRA      5231       4    1193    6546    6547    6548   14903    9410+
+          12060   12516    9406    9409
CTETRA      5232       4    1090    1091    1154    6993    3504    3629+
+           3630   15519   16019   15520
CTETRA      5233       4    1154    6993    6992    7058   15520   11004+
+          17255   16396   11124   11125
CTETRA      5234       4     742    7079    7073    7080   16585   11210+
+          14075   14085   11209   11208
CTETRA      5235       4    1136    7074    7073    7079   16960   11205+
+          14076   17226   11215   11210
CTETRA      5236       4     503     505    1144    7064     504    3597+
+           3598   12214   13400   14254
CTETRA      5237       4     503    1144    1160    7049    3598    3647+
+           3646   12217   14253   12218
CTETRA      5238       4     914    6933    6934    6936   17259   10746+
+          17260   17261   10744   10725
CTETRA      5239       4     417     224    6151    6465   16261    8393+
+          11947   14744    9263    9265
CTETRA      5240       4    1244    1245    1256    6797    3876    3924+
+           3925   11978   14774   12327
CTETRA      5241       4     501    1021    6959    6961    3307   12242+
+          12230   17188   12243   10826
CTETRA      5242       4     738    6790    6791    6798   17147   10303+
+          11876   11877   10302   10301
CTETRA      5243       4     737    6868    6789    6869   16874   10547+
+          14507   16875   10549   10544
CTETRA      5244       4     793    6979    6980    7041   12549   11073+
+          16620   15716   11072   11071
CTETRA      5245       4     876    1109    1107    6944    3425    3431+
+           3410   12234   12233   16634
CTETRA      5246       4    1106    1108    1107    6945    3414    3413+
+           3415   15317   16737   16629
CTETRA      5247       4    1107    1109    1110    6960    3431    3430+
+           3432   16635   12240   12248
CTETRA      5248       4    1357    6635    6634    6660   12767    9787+
+          12764   12773    9852    9853
CTETRA      5249       4    1198    1249    1199    6647    3885    3887+
+           3886   15029   16720   16632
CTETRA      5250       4    1108    6947    6948    6949   16738   10792+
+          17262   16739   10788   10791
CTETRA      5251       4     913     915     914    6936    2822    2824+
+           2823   13412   13415   17261
CTETRA      5252       4    1376    6631    6672    6674   15777    9899+
+          16384   13040    9896    9900
CTETRA      5253       4     875    6934    6933    6949   16821   10746+
+          16826   16823   10790   10785
CTETRA      5254       4     914     915    6933    6936    2824   13411+
+          17259   17261   13415   10744
CTETRA      5255       4    1032    1033    1085    6831    3268    3400+
+           3401   15102   16748   17080
CTETRA      5256       4     799    6979    7170    7172   12551   11495+
+          15400   12442   11497   11493
CTETRA      5257       4    1072    1076    1077    6955    3359    3363+
+           3361   14464   14465   14956
CTETRA      5258       4    1037    6892    1038    6977   13336   13332+
+           3294   12842   10893   13334
CTETRA      5259       4     769     787    6980    7037    2404   17263+
+          14104   12245   17264   11068
CTETRA      5260       4     473    1258    1242    6800    3915    3917+
+           3861   16892   16041   15111
CTETRA      5261       4    1104    1111    1105    6966    3433    3436+
+           3435   14280   15308   16025
CTETRA      5262       4    1022    6957    1060    6967   17258   17265+
+           3308   16028   10848   16510
CTETRA      5263       4    1374    6622    6623    6670   15155    9882+
+          13213   13191    9881    9880
CTETRA      5264       4    1060    6957    6962    6967   17265   10846+
+          16946   16510   10848   10847
CTETRA      5265       4    1198    1199    1378    6632    3886    4333+
+           4334   17157   17158   16385
CTETRA      5266       4    1378    6633    6632    6666   15445    9810+
+          16385   14368    9876    9877
CTETRA      5267       4    1358    6519    6520    6549   17266    9423+
+          17013   12064    9422    9420
CTETRA      5268       4    1022    1111    6958    6967    3442   16036+
+          17267   16028   15310   10853
CTETRA      5269       4    1021    6957    1022    6960   17257   17258+
+           3313   12241   10828   16736
CTETRA      5270       4    1104    1105    1115    6889    3435    3471+
+           3464   14278   16406   16405
CTETRA      5271       4    1115    6890    1116    6908   16407   16037+
+           3472   16408   10571   13329
CTETRA      5272       4    1022    6958    6957    6967   17267   10829+
+          17258   16028   10853   10848
CTETRA      5273       4     479     481     286    6857     480   17268+
+          15926   15830   17269   10498
CTETRA      5274       4    1261    6510    6509    6805   15119    9553+
+          16137   14336   10326   10315
CTETRA      5275       4     481    1082    6767    6857    3384   14816+
+          14815   17269   15831   10499
CTETRA      5276       4    1205    1206    1264    6560    3836    3937+
+           3939   12103   17270   16691
CTETRA      5277       4    1263    6510    6511    6561   17044    9540+
+          15456   16562    9537    9497
CTETRA      5278       4    1001    1011    1009    6586    3153    3157+
+           3159   12294   14063   14049
CTETRA      5279       4     481     286     288    6498   17268     287+
+          16564   16563    9580    9581
CTETRA      5280       4     481     290     288    6767   16907     289+
+          16564   14815   10769   10501
CTETRA      5281       4    1285    6741    6740    6752   13221   10145+
+          13220   17271   10189   10186
CTETRA      5282       4    1280    1281    1332    6218    4038    4175+
+           4181   13688   17023   13987
CTETRA      5283       4     483     290    6773    6827   13991   10248+
+          13992   17173   10381   10383
CTETRA      5284       4    1003    1006    6816    6826    3146   15361+
+          17272   17273   15362   10379
CTETRA      5285       4    1292    6749    6750    6752   17038   10191+
+          17274   17275   10188   10190
CTETRA      5286       4    1293    5958    5957    6749   14629    8434+
+          17276   14630   10168   10170
CTETRA      5287       4    1006    1015    1020    6816    3182    3198+
+           3197   15361   17277   12050
CTETRA      5288       4     467     469     996    6598     468    3089+
+           3090   12640   12655   12678
CTETRA      5289       4     467    6598     996    6611   12640   12678+
+           3090   17278    9698   14546
CTETRA      5290       4    1376    1395    1386    6672    4401    4399+
+           4372   16384   15245   14371
CTETRA      5291       4    1284    1292    1285    6752    3989    3988+
+           3990   15137   17275   17271
CTETRA      5292       4    1323    1324    6725    6734    4141   13518+
+          12794   14851   14302   10130
CTETRA      5293       4     467     996     729    6611    3090    3098+
+           3096   17278   14546   16903
CTETRA      5294       4    1265    6512    6511    6809   12713    9498+
+          12712   15990   10338   10336
CTETRA      5295       4    1284    1285    6747    6752    3990   14846+
+          13512   15137   17271   10185
CTETRA      5296       4     467    1266     469    6809    3954    3951+
+            468   12654   15449   15451
CTETRA      5297       4     467     469     276    6809     468   12648+
+          12639   12654   15451   10333
CTETRA      5298       4     469    1257     471    6795    3920    3919+
+            470   15450   15460   12647
CTETRA      5299       4     962    1002    1000    6584    3125    3121+
+           3123   12697   14269   12698
CTETRA      5300       4     417     419     226    6388     418   11946+
+          11945   16432   11953    9011
CTETRA      5301       4     453    1201     455    6656    3851    3850+
+            454   12619   12621   15471
CTETRA      5302       4     966    6853    6852    6867   16225   10487+
+          16072   16880   10545   10546
CTETRA      5303       4     966    6853     978    6854   16225   12036+
+           3033   15511   10485   12037
CTETRA      5304       4     967    6505    6853    6869   16224   10484+
+          12035   16849   10541   10542
CTETRA      5305       4     967     981     978    6504    3014    3016+
+           3015   12033   17140   12034
CTETRA      5306       4     977    6853    6867    6869   17279   10545+
+          16686   16688   10542   10550
CTETRA      5307       4    1452    6691    6686    6692   11989    9965+
+          11996   11998    9964    9966
CTETRA      5308       4     979     984     983    6815    3032    3037+
+           3036   14863   16871   14864
CTETRA      5309       4     986     989    6813    6825    3059   15360+
+          14930   15747   15363   10366
CTETRA      5310       4    1463    1464    1467    6232    4566    4594+
+           4582   14707   14708   17201
CTETRA      5311       4     963    6845    6842    6846   16753   10436+
+          16752   16836   10444   10447
CTETRA      5312       4     986    6813    6814    6821   14930   10348+
+          14928   15744   10347   10346
CTETRA      5313       4     419    1429    6151    6200    4475   14742+
+          11948   15707   17280    8394
CTETRA      5314       4    1185    1313    6709    6711    4084   13258+
+          13166   14348   16924   10037
CTETRA      5315       4    1282    5959    1283    5960   15590   13531+
+           4008   15263    8425   13530
CTETRA      5316       4    1417    1431    1428    6209    4486    4484+
+           4471   17281   17282   14053
CTETRA      5317       4    1457    1473    6169    6170    4624   13882+
+          14154   15760   13881    8235
CTETRA      5318       4    1464    6228    1465    6230   14706   16989+
+           4567   15236    8505   14712
CTETRA      5319       4    1421    1422    1425    6213    4428    4444+
+           4445   17283   16755   12020
CTETRA      5320       4     968     975     974    6834    2977    2979+
+           2970   13973   14949   13974
CTETRA      5321       4     437     439    1303    6240     438    4042+
+           4043   17284   13099   13952
CTETRA      5322       4     441    1448     443    6702    4543    4533+
+            442   16990   13022   17233
CTETRA      5323       4     974    6834    6842    6845   13974   10419+
+          16083   16538   10435   10436
CTETRA      5324       4     947    6839    6845    6846   14322   10442+
+          14324   16060   10441   10444
CTETRA      5325       4     968    6833    6832    6866   13972   10434+
+          13976   14488   10533   10532
CTETRA      5326       4    1303    6205    6217    6240   16730    8474+
+          12937   13952    8546    8547
CTETRA      5327       4    1180    1333    1181    6158    4177    4176+
+           4178   17029   17028   16566
CTETRA      5328       4     946     947    1055    6840    2971    3259+
+           3260   15729   14323   12585
CTETRA      5329       4    1457    6170    6169    6178   15760    8235+
+          14154   14452    8277    8282
CTETRA      5330       4     947    1039    1055    6839    3229    3256+
+           3259   14322   12602   12586
CTETRA      5331       4     946     947    6840    6845    2971   14323+
+          15729   15730   14324   10432
CTETRA      5332       4     929    7108    6989    7115   13607   11235+
+          13953   16654   11249   11248
CTETRA      5333       4    1463    1467    6222    6232    4582   12748+
+          17194   14707   17201    8513
CTETRA      5334       4     505     915     507    6937    2821    2820+
+            506   13409   13416   13419
CTETRA      5335       4     922     926     927    6885    2877    2875+
+           2871   14934   14933   14110
CTETRA      5336       4     913     922    6885    6936    2864   14934+
+          16840   13412   17285   10728
CTETRA      5337       4    1327    1328    1331    5961    4157    4166+
+           4168   15881   14553   15876
CTETRA      5338       4    1329    5962    5963    6174   17286    8243+
+          14450   15875    8242    8244
CTETRA      5339       4    1329    1330    1332    6159    4162    4172+
+           4171   16829   17032   16830
CTETRA      5340       4    1182    1310    1183    6175    4107    4104+
+           4108   14353   13540   14354
CTETRA      5341       4     875     914     915    6933    2830    2824+
+           2828   16826   17259   13411
CTETRA      5342       4     914    6884     922    6936   17287   16937+
+           2863   17261   10724   17285
CTETRA      5343       4    1181    1330    1182    6171    4164    4163+
+           4165   16567   16281   16280
CTETRA      5344       4    1457    6178    6169    6179   14452    8282+
+          14154   16930    8281    8283
CTETRA      5345       4     507     316     314    6935   16102     315+
+          13395   13418   10736   10747
CTETRA      5346       4     875     914    6933    6934    2830   17259+
+          16826   16821   17260   10746
CTETRA      5347       4     914    6934    6884    6936   17260   10723+
+          17287   17261   10725   10724
CTETRA      5348       4     509     511    1132    7076     510    3555+
+           3556   16109   13615   12501
CTETRA      5349       4     511     513    1135    7078     512    3554+
+           3553   13616   14094   13617
CTETRA      5350       4    1182    1330    1310    6175    4163    4161+
+           4107   14353   16282   13540
CTETRA      5351       4     914     924     922    6884    2865    2866+
+           2863   17287   17166   16937
CTETRA      5352       4    1333    6159    6158    6215   17033    8219+
+          17028   16851    8459    8460
CTETRA      5353       4    1477    6141    1486    6375   13150   14771+
+           4661   15416    8940   15422
CTETRA      5354       4    1313    6705    6709    6711   16923   10025+
+          13258   16924   10036   10037
CTETRA      5355       4     922     923     926    7022    2867    2878+
+           2877   14935   13639   13609
CTETRA      5356       4    1274    6735    6736    6737   12076   10123+
+          16706   15754   10122   10121
CTETRA      5357       4    1344    1350    6523    6744    4233   15909+
+          16718   15888   14549   10149
CTETRA      5358       4     515     320     322    7073   14070     321+
+          14065   14074   11202   11203
CTETRA      5359       4    1368    6626    1372    6665   16032   16034+
+           4310   12782    9859   12783
CTETRA      5360       4     880    6989    6988    7115   16652   10955+
+          17231   16653   11248   11250
CTETRA      5361       4     871    7003     900    7032   14943   14945+
+           2758   16756   11027   14947
CTETRA      5362       4    1310    1330    1329    6174    4161    4162+
+           4159   13538   16938   15875
CTETRA      5363       4    1334    1352    1351    6579    4239    4241+
+           4238   16301   16300   17008
CTETRA      5364       4     877    7031     900    7033   14434   15484+
+           2756   13632   11038   15090
CTETRA      5365       4     870     901     871    7003    2749    2752+
+           2751   15886   14944   14943
CTETRA      5366       4     463    1267     465    6642    3960    3958+
+            464   15998   15995   17152
CTETRA      5367       4    1195    1360    1358    6519    4257    4267+
+           4265   15809   16700   17266
CTETRA      5368       4    1339    1341    1342    6614    4206    4209+
+           4211   15262   13300   15793
CTETRA      5369       4     978     981     982    6504    3016    3026+
+           3025   12034   17140   17139
CTETRA      5370       4     742    7045     743    7079   16491   13425+
+           2399   16585   11206   16675
CTETRA      5371       4     742    1136    7073    7079    3563   14076+
+          14075   16585   17226   11210
CTETRA      5372       4     515    7073     322    7080   14074   11203+
+          14065   14067   11208   11211
CTETRA      5373       4     467     272     274    6611   17288     273+
+          12638   17278    9697    9696
CTETRA      5374       4     879     904     880    6988    2775    2782+
+           2783   15574   15572   17231
CTETRA      5375       4    1376    6631    1377    6672   15777   15775+
+           4328   16384    9899   17146
CTETRA      5376       4     743    7044    7045    7047   16764   11088+
+          13425   16765   11086   11089
CTETRA      5377       4    1199    1249    1239    6646    3887    3890+
+           3856   16633   16551   16898
CTETRA      5378       4    1286    6740    6741    6743   12079   10145+
+          12309   12080   10144   10146
CTETRA      5379       4     729     996     730    6604    3098    3099+
+           3100   16904   14545   15804
CTETRA      5380       4     743    7044     865    7079   16764   15705+
+           2692   16675   11207   16676
CTETRA      5381       4     830     831     844    7213    2575    2601+
+           2600   16177   16176   16178
CTETRA      5382       4     729    1190    1343    6612    3718    4215+
+           4214   16888   16920   16889
CTETRA      5383       4     415     417    1398    6465     416    4459+
+           4462   16254   14744   16250
CTETRA      5384       4    1216    1217    1223    6552    3742    3758+
+           3757   12818   12826   12819
CTETRA      5385       4    1268    1269    1384    6697    4064    4358+
+           4359   13230   13231   14787
CTETRA      5386       4     823     830     829    7214    2570    2569+
+           2568   17103   17104   17128
CTETRA      5387       4     759    7183    7198    7199   15053   11598+
+          16477   15698   11593   11599
CTETRA      5388       4     760    7183    7182    7198   17289   11552+
+          13476   17290   11598   11597
CTETRA      5389       4     760     784     764    7182    2380    2379+
+           2378   13476   13475   13474
CTETRA      5390       4     765    7163    7164    7176   14763   11517+
+          14765   13926   11514   11511
CTETRA      5391       4     764     784     765    7164    2379    2383+
+           2385   13473   13472   14765
CTETRA      5392       4     764    7164    7163    7182   13473   11517+
+          14764   13474   11551   11547
CTETRA      5393       4     790    7163    7162    7181   12352   11525+
+          12908   12355   11545   11533
CTETRA      5394       4     789     790     791    7162    2419    2426+
+           2422   12909   12908   17291
CTETRA      5395       4     765    7164    7168    7176   14765   11484+
+          16446   13926   11511   11510
CTETRA      5396       4     792    7163    7176    7177   12353   11514+
+          13928   12350   11516   11515
CTETRA      5397       4    1269    1316    1314    6707    4065    4076+
+           4069   13245   13268   13253
CTETRA      5398       4     774     775     778    7153    2323    2333+
+           2332   12379   14918   12380
CTETRA      5399       4     756     774    7087    7154    2315   15630+
+          16181   16182   17292   11435
CTETRA      5400       4    1358    1363    6549    6550    4287   12065+
+          12064   16711   14810    9416
CTETRA      5401       4     756    7087     757    7088   16181   16122+
+           2317   14120   11436   14122
CTETRA      5402       4     757    7185     758    7186   16586   15624+
+           2326   14123   11575   17293
CTETRA      5403       4    1336    1337    1347    6592    4192    4249+
+           4248   15042   14825   14820
CTETRA      5404       4    1358    1360    1359    6520    4267    4264+
+           4268   17013   17249   15007
CTETRA      5405       4      21     613      10    5828    1899   11839+
+            547   11837   11838    7255
CTETRA      5406       4    1346    6527    6522    6594   17014    9419+
+          15910   15913    9640    9639
CTETRA      5407       4      10     613     619    5822   11839    2264+
+          16799    7249   16783   16779
CTETRA      5408       4    1639    6413    6412    6416   13585    9048+
+          16879   17294    9059    9060
CTETRA      5409       4    1356    1360    1357    6662    4259    4258+
+           4260   15258   16702   12774
CTETRA      5410       4     361     170     168    5820   17295     169+
+          17016   16595    7274    7275
CTETRA      5411       4     672     673     712    5905    2103    2215+
+           2217   15633   17048   17043
CTETRA      5412       4     671    5906     672    5911   13728   15344+
+           2091   13730    7540   13731
CTETRA      5413       4     671    5911     715    5918   13730   13732+
+           2225   15321    7538   14872
CTETRA      5414       4     661     662     665    5847    2034    2052+
+           2061   15424   15419   17296
CTETRA      5415       4    1275    6743    1276    6744   13211   13212+
+           4128   17297   10158   15887
CTETRA      5416       4     654     663    5846    5865    2040   15417+
+          17037   15423   15418    7364
CTETRA      5417       4    1370    6625    6717    6739   14853   10055+
+          14855   14858   10135   10134
CTETRA      5418       4    1386    6672    1395    6681   14371   15245+
+           4399   14372    9933   15210
CTETRA      5419       4     653     663     661    5846    2037    2033+
+           2035   17036   15417   17065
CTETRA      5420       4    1275    6736    6743    6744   16707   10141+
+          13211   17297   10148   10158
CTETRA      5421       4    1275    1344    1373    6736    4232    4318+
+           4316   16707   17298   16705
CTETRA      5422       4     646     664     662    5867    2047    2051+
+           2027   13074   13073   13199
CTETRA      5423       4     664    5848    5849    5858   13197    7354+
+          13029   13032    7348    7353
CTETRA      5424       4     626     627     664    5849    1914    2044+
+           2043   11821   13030   13029
CTETRA      5425       4    1335    1341    1339    6614    4205    4206+
+           4197   13299   13300   15262
CTETRA      5426       4     628     666     665    5857    2058    2064+
+           2049   15676   12222   15677
CTETRA      5427       4     662     665    5847    5848    2052   17296+
+          15419   13198   16380    7349
CTETRA      5428       4    1354    1355    1372    6658    4275    4314+
+           4315   17299   12777   17156
CTETRA      5429       4    1199    1380    1378    6632    4325    4335+
+           4333   17158   13034   16385
CTETRA      5430       4     661    5847     665    5857   15424   17296+
+           2061   17300    7345   15677
CTETRA      5431       4     661    5846     663    5847   17065   15417+
+           2033   15424    7346   15420
CTETRA      5432       4     653    5846     661    5856   17036   17065+
+           2035   16806    7342   16807
CTETRA      5433       4     665    5847    5848    5857   17296    7349+
+          16380   15677    7345    7347
CTETRA      5434       4     353     651    5862    5876    2006   17122+
+          16611   15664   16378    7407
CTETRA      5435       4    1101    6903    6902    6913   12183   10575+
+          13980   12184   10649   10624
CTETRA      5436       4    1198    1199    6632    6647    3886   17158+
+          17157   15029   16632    9807
CTETRA      5437       4    1376    6673    1379    6674   13039   13038+
+           4329   13040    9902   13041
CTETRA      5438       4     361     656     617    5855    1997    1996+
+           1998   15681   15683   16320
CTETRA      5439       4     651    5876     693    5877   16378   15663+
+           2137   16375    7411   16376
CTETRA      5440       4     650     658     651    5863    2010    2009+
+           2011   13442   13445   16797
CTETRA      5441       4     650     651     692    5877    2011    2134+
+           2133   16798   16375   16377
CTETRA      5442       4    1385    6681    1394    6683   15151   15152+
+           4397   14986    9943   16285
CTETRA      5443       4     660    5844    5863    5864   13440    7359+
+          13441   13438    7365    7366
CTETRA      5444       4    1376    6672    1386    6673   16384   14371+
+           4372   13039    9903   14370
CTETRA      5445       4     357     164     359    5833   15668   15667+
+            358   16076    7386   15672
CTETRA      5446       4     353     355     162    5862     354   14588+
+          16610   16611   17123    7355
CTETRA      5447       4     363     365     172    5830     364   12237+
+          13810   13763   13765    7273
CTETRA      5448       4     363     578     600    5943    1835    1833+
+           1831   13811   13807   17027
CTETRA      5449       4     363     172     365    5943   13810   12237+
+            364   13811    7659   13805
CTETRA      5450       4     361     170     363     600   17295   13809+
+            362    1832   17026    1831
CTETRA      5451       4     367     580     369    5826    1896    1844+
+            368   16167   16451   12198
CTETRA      5452       4     580     606     605    5824    1846    1848+
+           1843   15047   14509   15048
CTETRA      5453       4     361     168     170    5817   17016     169+
+          17295   12956    7658    7656
CTETRA      5454       4    1419    1424    6149    6199    4440   15087+
+          15826   16925   17301    8383
CTETRA      5455       4     634    5948    5817    5949   13259    7666+
+          12958   12950    7667    7668
CTETRA      5456       4    1581    5974    1688    6019   13760   17221+
+           5240   13761    7754   17222
CTETRA      5457       4    1546    6491    6354    6494   15944    9363+
+          15200   15202    9370    9369
CTETRA      5458       4    1637    1639    1638    6416    5157    5156+
+           5158   13592   17294   13578
CTETRA      5459       4    1100    1115    1116    6908    3467    3472+
+           3476   13328   16408   13329
CTETRA      5460       4    1619    6397    6398    6424   15219    9146+
+          16372   15221    9143    9127
CTETRA      5461       4     771    7166    7085    7169   16183   11480+
+          12386   16130   11482   11479
CTETRA      5462       4    1460    1464    1461    6230    4570    4568+
+           4571   16986   15236   14711
CTETRA      5463       4     757    7087    7185    7186   16122   11540+
+          16586   14123   11573   11575
CTETRA      5464       4     758    7184     759    7200   16128   15054+
+           2329   16184   11591   17302
CTETRA      5465       4     759    7199     822    7200   15698   16964+
+           2541   17302   11594   16963
CTETRA      5466       4    1411    1423    6146    6356    4420   16713+
+          16712   14010   17303    8969
CTETRA      5467       4     847    7241    7238    7243   14990   11738+
+          14984   14195   11751   11750
CTETRA      5468       4     764    7163     790    7181   14764   12352+
+           2414   12361   11545   12355
CTETRA      5469       4     399    1639    1633    6414    5155    5163+
+           5159   16743   17304   16744
CTETRA      5470       4    1403    1411    1404    6356    4414    4416+
+           4415   17305   14010   14015
CTETRA      5471       4    1685    1692    1691    6286    5284    5286+
+           5285   12890   12891   12887
CTETRA      5472       4     397     204     399    6414   15980   17306+
+            398   16742    9040   16743
CTETRA      5473       4     423     425    1431    6197     424    4485+
+           4488   17307   17195   17308
CTETRA      5474       4    1177    1300    1178    6237    4022    4030+
+           4031   12921   15241   12922
CTETRA      5475       4    1575    6359    6358    6386   15246    8957+
+          16970   17309    9003    9005
CTETRA      5476       4     761     764    7181    7182    2382   12361+
+          12354   13477   13474   11546
CTETRA      5477       4     761    7182    7181    7197   13477   11546+
+          12354   14992   11595   11585
CTETRA      5478       4     759    7184    7199    7200   15054   11592+
+          15698   17302   11591   11594
CTETRA      5479       4    1419    1420    1429    6150    4443    4476+
+           4477   16847   14746   14740
CTETRA      5480       4     830    7214    7213    7234   17104   11646+
+          16177   16179   11716   11717
CTETRA      5481       4    1554    6364    6363    6376   15134    8927+
+          12847   16673    8950    8951
CTETRA      5482       4     772    7084     782    7169   14916   17310+
+           2371   16982   11478   16983
CTETRA      5483       4     782    7084    7167    7169   17310   11473+
+          17311   16983   11478   11475
CTETRA      5484       4     419    6357     226    6388   11952    8960+
+          11946   11953    9013    9011
CTETRA      5485       4    1400    1401    1531    6460    4439    4750+
+           4749   15828   17312   16900
CTETRA      5486       4    1101    1116    6902    6903    3475   13981+
+          13980   12183   13326   10575
CTETRA      5487       4    1419    1429    1430    6201    4477    4479+
+           4481   16927   17313   17314
CTETRA      5488       4     782    7168     783    7169   17315   15703+
+           2375   16983   11477   16131
CTETRA      5489       4     783    7168    7165    7169   15703   11483+
+          15700   16131   11477   11486
CTETRA      5490       4     764     765     792    7163    2385    2424+
+           2423   14764   14763   12353
CTETRA      5491       4     751    7146    7143    7151   17112   11418+
+          15049   17133   11426   11427
CTETRA      5492       4     751     807     752    7144    2471    2479+
+           2480   17111   15617   15874
CTETRA      5493       4    1391    6680    6675    6683   15441    9927+
+          14791   16284    9941    9942
CTETRA      5494       4    1684    1685    1691    6285    5260    5285+
+           5278   13113   15849   12886
CTETRA      5495       4    1463    6222    1466    6227   17194   12595+
+           4580   12576    8511   12577
CTETRA      5496       4     752     806    7140    7144    2481   16187+
+          16186   15874   15616   11397
CTETRA      5497       4     535     809     815    7193    2504    2525+
+           2524   16528   14900   14695
CTETRA      5498       4    1387    6622    6621    6721   16402    9940+
+          13934   13920   10068   10066
CTETRA      5499       4    1684    5976    1687    6266   13839   16663+
+           5259   15855    8627   16658
CTETRA      5500       4     441     248     443    6208   17040   17232+
+            442   17041    8409   13955
CTETRA      5501       4     535     537     342    7193     536   17093+
+          17095   16528   14699   11556
CTETRA      5502       4    1584    1692    6267    6268    5282   12889+
+          16660   15175   15177    8637
CTETRA      5503       4     908    7096     910    7125   15562   15563+
+           2817   16416   11315   16417
CTETRA      5504       4    1584    1692    1685    6267    5282    5284+
+           5257   16660   12889   12888
CTETRA      5505       4     939    7104    7114    7115   17115   11259+
+          17316   17143   11257   11256
CTETRA      5506       4    1394    6679    6680    6681   13896    9929+
+          13899   15152    9931    9932
CTETRA      5507       4    1188    1189    1448    6701    4393    4532+
+           4534   13463   13464   13682
CTETRA      5508       4     880    7103     881    7104   16984   17138+
+           2811   16985   11258   16100
CTETRA      5509       4    1188    6698    1268    6703   13943   13942+
+           4062   14795   10010   14788
CTETRA      5510       4    1308    6714    1320    6731   16394   17317+
+           4121   13008   10101   14557
CTETRA      5511       4    1318    6715    6714    6728   14821   10071+
+          16393   16395   10085   10086
CTETRA      5512       4    1332    6159    6215    6218   16830    8459+
+          13985   13987    8457    8461
CTETRA      5513       4     447     449     254    6676     448   17318+
+          17000   15139   15143    9904
CTETRA      5514       4    1189    6619    1392    6677   13462   15442+
+           4378   16998    9914   15141
CTETRA      5515       4    1394    6681    6680    6683   15152    9932+
+          13899   16285    9943    9941
CTETRA      5516       4    1583    1685    6266    6294    5256   15859+
+          16667   17220   16662    8671
CTETRA      5517       4    1415    1467    1468    6223    4584    4593+
+           4592   14055   14054   17192
CTETRA      5518       4    1585    1616    1615    6297    5055    5057+
+           5052   15171   15174   14676
CTETRA      5519       4     934    7118    7105    7130   16086   11340+
+          16087   16192   11341   11336
CTETRA      5520       4    1584    1585    6268    6293    5056   15176+
+          15175   15187   15172    8670
CTETRA      5521       4     515     322     320    7113   14065     321+
+          14070   11991   11238   11237
CTETRA      5522       4    1155    6994    6993    7057   12171   10995+
+          15521   15082   11123   11122
CTETRA      5523       4    1146    7057    7063    7072   15518   11150+
+          15516   15080   11184   11183
CTETRA      5524       4    1147    1148    1149    7062    3603    3615+
+           3613   17319   14218   15525
CTETRA      5525       4    1460    1468    1464    6231    4589    4590+
+           4570   16987   17191   16988
CTETRA      5526       4    1133    7075    7068    7077   12011   11189+
+          16628   12012   11191   11190
CTETRA      5527       4    1147    1148    7062    7066    3603   14218+
+          17319   13391   14114   11159
CTETRA      5528       4    1414    1468    1459    6211    4587    4586+
+           4585   17320   17321   17322
CTETRA      5529       4    1132    7076    1135    7077   12501   13614+
+           3557   13618   11194   12008
CTETRA      5530       4    1436    1437    1484    5970    4538    4651+
+           4646   17323   12056   16201
CTETRA      5531       4    1157    1161    1158    7051    3651    3650+
+           3652   16329   16328   17247
CTETRA      5532       4    1163    6921    6874    6922   13218   10666+
+          15497   13219   10668   10660
CTETRA      5533       4     501     306     308    7054   17324     307+
+          12229   14251   11113   11114
CTETRA      5534       4     437     244    6689    6692   15095    9951+
+          15097   15429    9960    9962
CTETRA      5535       4    1656    1657    6396    6435    5232   15841+
+          15833   13846   15832    9161
CTETRA      5536       4    1162    6874    1163    6921   15495   15497+
+           3663   15482   10666   13218
CTETRA      5537       4     435     437     242    6689     436   15096+
+          13095   17325   15097    9950
CTETRA      5538       4    1719    6340    1722    6346   14680   12652+
+           5424   13871    8886   15378
CTETRA      5539       4    1151    1158    7059    7060    3648   17326+
+          15469   12964   17327   11140
CTETRA      5540       4    1475    6163    6162    6190   16029    8299+
+          15758   16274    8336    8339
CTETRA      5541       4     421    1430    1429    6200    4480    4479+
+           4478   16883   16882   17280
CTETRA      5542       4     431     240     433    6236   13714   14489+
+            432   13715    8524   13701
CTETRA      5543       4     423     232     425    6197   16672   13636+
+            424   17307    8400   17195
CTETRA      5544       4    1165    6874    6875    6922   15496   10661+
+          17246   17328   10660   10659
CTETRA      5545       4     439    1450     441    6687    4553    4545+
+            440   12001   16708   17238
CTETRA      5546       4    1721    1724    1729    6342    5439    5447+
+           5443   14082   12657   12662
CTETRA      5547       4    1166    6875    6901    6922   16501   10631+
+          16500   16936   10659   10662
CTETRA      5548       4    1091    6877    6992    7029   16502   11008+
+          16018   16020   11013   11003
CTETRA      5549       4    1436    5970    5969    6688   17323    8312+
+          16741   17329    9955    9956
CTETRA      5550       4    1146    1155    1153    7057    3631    3633+
+           3619   15518   15082   15081
CTETRA      5551       4    1152    6876    6875    7060   12973   10632+
+          12969   12965   11138   11142
CTETRA      5552       4    1721    1723    1722    6339    5430    5426+
+           5431   13044   11929   11928
CTETRA      5553       4    1090    6993    7027    7029   15519   10994+
+          12162   16021   11002   11005
CTETRA      5554       4    1091    1122    1124    6878    3505    3515+
+           3514   17132   16197   16199
CTETRA      5555       4    1124    6877    6878    6905   16503   10605+
+          16199   16400   10604   10601
CTETRA      5556       4    1090    7027    7028    7029   12162   11006+
+          12164   16021   11005   11007
CTETRA      5557       4    1091    1122    6878    7029    3505   16197+
+          17132   16020   16022   11011
CTETRA      5558       4    1153    7057    1154    7058   15081   15083+
+           3624   17256   11126   16396
CTETRA      5559       4    1158    6875    7051    7060   12971   11108+
+          17247   17327   11142   11141
CTETRA      5560       4    1528    1530    1531    6455    4762    4756+
+           4766   15956   15955   16693
CTETRA      5561       4    1557    6373    6364    6376   16670    8931+
+          16671   12833    8947    8950
CTETRA      5562       4    1092    1167    1152    6876    3678    3674+
+           3628   14303   12974   12973
CTETRA      5563       4    1491    1493    1492    6144    4704    4705+
+           4693   13536   15610   13118
CTETRA      5564       4    1183    1310    1319    5964    4104    4106+
+           4105   15945   14352   14349
CTETRA      5565       4    1754    1762    1763    6112    5527    5530+
+           5529   13033   13028   14633
CTETRA      5566       4    1062    6957    6956    6962   16932   10834+
+          16931   16947   10846   10849
CTETRA      5567       4     499     306    6956    6961   17330   10831+
+          17331   17187   10825   10833
CTETRA      5568       4     875    1107    1108    6949    3409    3413+
+           3411   16823   16828   16739
CTETRA      5569       4    1454    6185    6194    6195   13554    8371+
+          13651   13555    8370    8372
CTETRA      5570       4     922    6884    6885    6936   16937   10731+
+          14934   17285   10724   10728
CTETRA      5571       4     874     924     914    6934    2862    2865+
+           2831   16820   17167   17260
CTETRA      5572       4    1403    6356    6355    6488   17305    8966+
+          15845   15798    9357    9358
CTETRA      5573       4    1404    1405    1547    6381    4697    4848+
+           4847   14020   14019   17332
CTETRA      5574       4    1404    1492    1405    6382    4695    4696+
+           4697   14016   14017   14021
CTETRA      5575       4     922     924     923    6884    2866    2858+
+           2867   16937   17166   16943
CTETRA      5576       4    1404    1411    1492    6382    4416    4694+
+           4695   14016   14012   14017
CTETRA      5577       4    1761    6106    6105    6114   17333    8116+
+          15717   15285    8126    8125
CTETRA      5578       4     874    1108    6948    6949    3412   17262+
+          16825   16822   16739   10791
CTETRA      5579       4    1403    1404    6355    6356    4415   15605+
+          15845   17305   14015    8966
CTETRA      5580       4     923    6884     924    7034   16943   17166+
+           2858   13630   11031   13631
CTETRA      5581       4    1026    6912    6897    6913   13364   10621+
+          13376   12201   10623   10625
CTETRA      5582       4    1415    1417    6209    6210    4456   17281+
+          14059   14058   17334    8453
CTETRA      5583       4    1762    6109    1763    6112   14625   14624+
+           5530   13028    8114   14633
CTETRA      5584       4    1026    6897    1027    6898   13376   17335+
+           3250   12207   10626   12208
CTETRA      5585       4    1095    6917    6918    6923   14800   10684+
+          16775   14801   10676   10683
CTETRA      5586       4    1748    1761    1763    6105    5537    5533+
+           5540   14649   15717   16237
CTETRA      5587       4    1036    1059    6893    6894    3289   14510+
+          16536   15334   14378   10689
CTETRA      5588       4    1502    6394    1653    6458   16418   15545+
+           5217   16258    9247   16259
CTETRA      5589       4    1058    6893    1059    6896   13341   14510+
+           3295   13347   10618   13373
CTETRA      5590       4    1502    1532    1503    6459    4744    4746+
+           4745   14976   16782   14977
CTETRA      5591       4    1059    6896    6926    6928   13373   10705+
+          14381   14482   10707   10706
CTETRA      5592       4    1059    6896    6893    6926   13373   10618+
+          14510   14381   10705   10688
CTETRA      5593       4    1076    1078    6938    6939    3376   14002+
+          16535   15128   15748   10758
CTETRA      5594       4     945    6859    6862    6866   16206   10522+
+          16529   16207   10530   10531
CTETRA      5595       4     481    1020    6498    6827    3195   12051+
+          16563   16565   12052   10387
CTETRA      5596       4     969     971    6864    6866    2961   15105+
+          14484   14486   15106   10539
CTETRA      5597       4     969    6865    6864    6872   14485   10540+
+          14484   16522   10560   10562
CTETRA      5598       4     738     970     972    6871    2964    2967+
+           2953   17254   16096   16210
CTETRA      5599       4     391    6004    1580    6012   11872   11874+
+           5123   15374    7721   15375
CTETRA      5600       4     972    6861    6791    6871   13904   10526+
+          16877   16210   10557   10556
CTETRA      5601       4    1020    6499    6498    6816   17170    9583+
+          12051   12050   10357   10358
CTETRA      5602       4     477     286     284    6794   17177     285+
+          17176   16307   10294   10293
CTETRA      5603       4    1508    1539    6472    6473    4800   15075+
+          17336   17337   17227    9287
CTETRA      5604       4     413     220     415    6393   16361   16262+
+            414   15737    9178   16253
CTETRA      5605       4     479    6498    1018    6575   15927   17174+
+           3184   15928    9582   15527
CTETRA      5606       4     477     479    1018    6575     478    3184+
+           3183   17178   15928   15527
CTETRA      5607       4    1658    1785    6005    6013    5644   17338+
+          17339   16816   13161    7716
CTETRA      5608       4     999    6771    6770    6829   12307   10238+
+          12306   12305   10397   10405
CTETRA      5609       4    1405    1493    1406    6383    4699    4698+
+           4700   15611   12069   12068
CTETRA      5610       4    1559    1563    6255    6447    4920   17340+
+          17341   16746   14735    9190
CTETRA      5611       4    1640    1641    1643    6418    5170    5183+
+           5184   13611   13621   17342
CTETRA      5612       4    1784    1785    1786    6013    5633    5645+
+           5643   13162   13161   15974
CTETRA      5613       4    1562    1564    1563    6445    4927    4923+
+           4928   16366   16367   17204
CTETRA      5614       4     950    6811     990    6830   13408   13407+
+           3064   12271   10402   16815
CTETRA      5615       4    1511    1551    1512    6304    4881    4880+
+           4882   17343   13885   13890
CTETRA      5616       4    1511    6304    6318    6319   17343    8780+
+          15207   13241    8784    8786
CTETRA      5617       4    1550    1559    6255    6306    4914   17341+
+          17344   16558   17345    8723
CTETRA      5618       4    1044    6837    6810    6847   16055   10424+
+          16054   15339   10467   10449
CTETRA      5619       4    1580    1658    1785    6005    5236    5644+
+           5635   17346   17339   17338
CTETRA      5620       4    1051    6847    6760    6850   15340   10452+
+          15341   16050   10468   10470
CTETRA      5621       4    1045    1046    1052    6759    3221    3238+
+           3237   12254   14538   15335
CTETRA      5622       4    1515    6446    1560    6448   12553   14719+
+           4909   12546    9195   12547
CTETRA      5623       4    1046    6759    6758    6930   14538   10260+
+          14537   17347   10718   10712
CTETRA      5624       4    1539    1541    6440    6474    4815   14609+
+          14608   17229   14393    9285
CTETRA      5625       4    1559    6254    6255    6306   16745    8726+
+          17341   17345    8719    8723
CTETRA      5626       4    1048    6758    6759    6768   14536   10260+
+          12253   12249   10257   10261
CTETRA      5627       4     960     982     961    6535    3018    3022+
+           3024   12288   14261   16659
CTETRA      5628       4     956    6824    6818    6825   16123   10371+
+          15742   15364   10370   10372
CTETRA      5629       4     957     986    6821    6825    3042   15744+
+          15752   15365   15747   10369
CTETRA      5630       4    1047    6769    6768    6810   12251   10264+
+          12250   14921   10398   10399
CTETRA      5631       4    1511    6253    1561    6254   13239   12542+
+           4912   16872    8722   12541
CTETRA      5632       4     949    6837    6838    6844   16059   10428+
+          15906   12325   10427   10429
CTETRA      5633       4     954    6778    6779    6780   16156   10197+
+          15784   15786   10196   10198
CTETRA      5634       4     955    6818     998    6829   12339   17348+
+           3104   12303   10393   12304
CTETRA      5635       4    1187    6696    1268    6698   13265   13228+
+           4060   13941    9995   13942
CTETRA      5636       4    1406    1493    1478    6362    4698    4701+
+           4665   12067   12066   17349
CTETRA      5637       4    1539    6440    6439    6474   14608    9193+
+          14606   17229    9285    9284
CTETRA      5638       4     449    1287    1291    6751    3985    3987+
+           3986   17350   17351   17352
CTETRA      5639       4    1291    6750    6748    6751   17353   10183+
+          16845   17352   10181   10182
CTETRA      5640       4     724     725    5942    5944    2305   13780+
+          12461   12462   14387    7653
CTETRA      5641       4    1307    6729    1324    6730   14177   13545+
+           4135   14843   10091   15259
CTETRA      5642       4    1329    1330    6159    6174    4162   17032+
+          16829   15875   16938    8237
CTETRA      5643       4    1307    6728    6729    6730   13542   10090+
+          14177   14843   10089   10091
CTETRA      5644       4    1309    1329    1328    5962    4158    4160+
+           4154   12610   17286   12611
CTETRA      5645       4     369     726    1822    5942    5783    5786+
+           5784   12200   12961   13779
CTETRA      5646       4    1330    6171    6159    6174   16281    8220+
+          17032   16938    8245    8237
CTETRA      5647       4     441     248    6687    6702   17040    9970+
+          17238   16990   10000   10002
CTETRA      5648       4    1546    1547    1548    6354    4851    4861+
+           4854   15200   17354   17355
CTETRA      5649       4     441    1297    1301    6208    4033    4035+
+           4034   17041   12955   13951
CTETRA      5650       4     417     419    1427    6151     418    4473+
+           4461   11947   11948   14737
CTETRA      5651       4     441     246     248    6205   17237     247+
+          17040   17039    8412    8411
CTETRA      5652       4    1526    1547    1546    6354    4849    4851+
+           4850   15835   17354   15200
CTETRA      5653       4    1525    1536    1526    6491    4797    4796+
+           4798   12301   12300   15821
CTETRA      5654       4     441     248     246    6687   17040     247+
+          17237   17238    9970    9969
CTETRA      5655       4     439    6687     246    6692   12001    9969+
+          13097   12002    9971    9961
CTETRA      5656       4    1186    1315    1316    6710    4072    4075+
+           4067   13160   16530   13269
CTETRA      5657       4    1559    1561    1560    6447    4916    4908+
+           4917   16746   16747   14721
CTETRA      5658       4     437     246     439    6240   17356   13097+
+            438   17284    8544   13099
CTETRA      5659       4    1188    1448    1441    6701    4534    4535+
+           4509   13463   13682   13684
CTETRA      5660       4    1440    1450    1452    6686    4547    4556+
+           4554   12000   16709   11996
CTETRA      5661       4    1003    6826    6816    6827   17273   10379+
+          17272   17357   10385   10386
CTETRA      5662       4    1551    6254    1559    6306   16873   16745+
+           4913   13886    8719   17345
CTETRA      5663       4     439     441    1301    6205     440    4034+
+           4044   13098   17039   14876
CTETRA      5664       4     437     439     246    6692     438   13097+
+          17356   15429   12002    9961
CTETRA      5665       4    1015    6499    1020    6816   16168   17170+
+           3198   17277   10357   12050
CTETRA      5666       4    1202    6639    6649    6651   15027    9795+
+          15031   15032    9794    9796
CTETRA      5667       4    1383    6634    6633    6668   12763    9776+
+          15446   15261    9879    9878
CTETRA      5668       4     724    1822    1821    5942    5790    5789+
+           5781   12461   13779   12436
CTETRA      5669       4    1511    6253    6254    6304   13239    8722+
+          16872   17343    8721    8718
CTETRA      5670       4    1009    1011    1010    6586    3157    3156+
+           3158   14049   14063   14062
CTETRA      5671       4    1190    1191    1338    6608    3720    4193+
+           4195   15794   15038   15179
CTETRA      5672       4    1003    6816    1020    6827   17272   12050+
+           3196   17357   10386   12052
CTETRA      5673       4    1511    6254    1551    6304   16872   16873+
+           4881   17343    8718   13885
CTETRA      5674       4    1190    6609    1343    6612   15795   15789+
+           4215   16920    9710   16889
CTETRA      5675       4    1337    6528    1347    6592   14818   14819+
+           4249   14825    9634   14820
CTETRA      5676       4    1338    6614    6609    6616   15771    9729+
+          15178   13301    9728    9730
CTETRA      5677       4     455     264     262    6652   15464     263+
+          13271   15466    9803    9804
CTETRA      5678       4    1477    1486    1478    6375    4661    4667+
+           4668   15416   15422   17358
CTETRA      5679       4    1559    1560    1563    6447    4917    4921+
+           4920   16746   14721   14735
CTETRA      5680       4    1821    5939    5941    5942   12434    7633+
+          11797   12436    7632    7634
CTETRA      5681       4    1215    6530    6542    6548   12515    9393+
+          13739   12517    9396    9399
CTETRA      5682       4     994    1001    6596    6600    3116   14271+
+          14274   12691   12296    9663
CTETRA      5683       4    1574    1575    6358    6386    4972   16970+
+          16972   16185   17309    9005
CTETRA      5684       4     726    5939     727    5942   14541   12433+
+           5770   12961    7632   12435
CTETRA      5685       4     471     278     280    6599   12645     279+
+          17087   12688    9655    9654
CTETRA      5686       4     961     980    6534    6535    3009   12858+
+          14264   16659   14260    9481
CTETRA      5687       4    1218    6531    6530    6602   14581    9394+
+          15061   12503    9677    9678
CTETRA      5688       4    1345    1361    1354    6628    4271    4270+
+           4269   15915   16699   17359
CTETRA      5689       4    1355    1361    6657    6659    4273   15015+
+          14565   14566   15017    9832
CTETRA      5690       4    1345    6522    6523    6594   15911    9643+
+          15914   15912    9639    9641
CTETRA      5691       4    1354    6628    1361    6659   17359   16699+
+           4270   15016    9842   15017
CTETRA      5692       4    1361    6521    6657    6659   15013    9830+
+          15015   15017    9835    9832
CTETRA      5693       4    1510    1561    1511    6253    4910    4912+
+           4911   13238   12542   13239
CTETRA      5694       4    1361    6521    6522    6527   15013    9418+
+          16698   17015    9417    9419
CTETRA      5695       4    1361    6628    6522    6659   16699    9840+
+          16698   15017    9842    9836
CTETRA      5696       4    1506    1507    6468    6469    4779   16410+
+          15534   13139   16231    9307
CTETRA      5697       4    1562    1565    1570    6449    4936    4944+
+           4940   16014   15741   15746
CTETRA      5698       4    1507    6468    6469    6476   16410    9307+
+          16231   17199    9302    9305
CTETRA      5699       4    1600    6400    6399    6476   17360    9131+
+          16757   16758    9315    9303
CTETRA      5700       4    1529    6478    6489    6492   13560    9364+
+          12299   14743    9366    9365
CTETRA      5701       4    1401    1402    1529    6454    4425    4764+
+           4763   12752   12768   14745
CTETRA      5702       4    1540    6473    6470    6474   17228    9291+
+          12528   14392    9288    9292
CTETRA      5703       4    1514    6438    6439    6448   13236    9185+
+          16763   12545    9184    9186
CTETRA      5704       4    1507    1540    1508    6473    4808    4810+
+           4809   17361   17228   17337
CTETRA      5705       4    1507    6469    6473    6476   16231    9293+
+          17361   17199    9305    9306
CTETRA      5706       4    1507    1522    1540    6469    4780    4811+
+           4808   16231   12526   12525
CTETRA      5707       4    1632    1634    6243    6244    5135   13771+
+          17362   17363   17364    8676
CTETRA      5708       4    1507    6473    1508    6476   17361   17337+
+           4809   17199    9306   17365
CTETRA      5709       4    1584    6293    6267    6294   15187    8667+
+          16660   16661    8669    8668
CTETRA      5710       4    1585    6268    6293    6297   15176    8670+
+          15172   15171    8685    8687
CTETRA      5711       4     419    6151     226    6200   11948    8392+
+          11946   15707    8394    8396
CTETRA      5712       4    1585    6269    6268    6297   15170    8616+
+          15176   15171    8686    8685
CTETRA      5713       4     363     365     578    5943     364    2298+
+           1835   13811   13805   13807
CTETRA      5714       4    1522    6469    6486    6487   12526    9336+
+          13140   12536    9349    9348
CTETRA      5715       4      20       9     607    5829     549   14515+
+           1836   14511    7260   14512
CTETRA      5716       4    1700    1701    6274    6281    5336   12569+
+          12895   12897   12570    8599
CTETRA      5717       4    1568    6348    1570    6349   12843   16269+
+           4949   12844    9037   14717
CTETRA      5718       4     415     224     222    6392   16260     223+
+          16263   13853    9029    9030
CTETRA      5719       4    1632    1633    1639    6413    5136    5163+
+           5162   13584   17366   13585
CTETRA      5720       4    1563    1564    6255    6445    4923   17367+
+          17340   17204   16367    9197
CTETRA      5721       4    1563    6444    6445    6447   16980    9201+
+          17204   14735    9200    9199
CTETRA      5722       4     369    5825     176    5826   15044    7252+
+          12196   12198    7256    7259
CTETRA      5723       4    1565    1567    1566    6444    4938    4931+
+           4939   14723   16981   14724
CTETRA      5724       4    1562    6445    6449    6450   16366    9208+
+          16014   16015    9215    9211
CTETRA      5725       4    1598    6246    1616    6292   14157   14159+
+           5058   15843    8688   16012
CTETRA      5726       4    1566    1567    6443    6444    4931   14733+
+          14730   14724   16981    9207
CTETRA      5727       4    1576    6387    6386    6390   13623    9007+
+          13627   13625    9016    9019
CTETRA      5728       4    1675    1700    6261    6262    5334   14686+
+          13069   14685   12578    8597
CTETRA      5729       4    1531    1532    6460    6462    4751   17368+
+          16900   17369   17370    9256
CTETRA      5730       4    1593    1646    1656    6432    5194    5224+
+           5226   15227   17371   15834
CTETRA      5731       4    1507    1600    1620    6476    5034    5072+
+           5071   17199   16758   15216
CTETRA      5732       4     365     725    5943    5944    2300   13806+
+          13805   13812   14387    7651
CTETRA      5733       4    1646    1647    1649    6431    5192    5205+
+           5206   15620   17372   13847
CTETRA      5734       4    1403    1423    6356    6490    4417   17303+
+          17305   17373   17374    9359
CTETRA      5735       4    1402    6488    6489    6490   17169    9356+
+          12297   16908    9355    9354
CTETRA      5736       4     413     218     220    6437   16356     219+
+          16361   15738    9173    9174
CTETRA      5737       4    1509    1510    1605    6252    4803    5010+
+           5012   13243   13242   13247
CTETRA      5738       4    1530    6455    6456    6462   15955    9241+
+          15958   16239    9240    9239
CTETRA      5739       4    1003    1006    1020    6816    3146    3197+
+           3196   17272   15361   12050
CTETRA      5740       4    1532    6459    6460    6462   16782    9257+
+          17368   17370    9251    9256
CTETRA      5741       4    1503    6395    6461    6463   12803    9242+
+          14979   13695    9238    9243
CTETRA      5742       4    1525    1526    1546    6491    4798    4850+
+           4846   12301   15821   15944
CTETRA      5743       4    1620    6399    6398    6468   15214    9128+
+          16969   15215    9301    9304
CTETRA      5744       4     367    5826     174    5831   16167    7279+
+          12187   12195    7280    7278
CTETRA      5745       4    1654    6395    1655    6436   12805   12790+
+           5223   15739    9167   12792
CTETRA      5746       4    1628    5973    1634    6290   15673   13768+
+           5133   17375    8661   15697
CTETRA      5747       4    1582    5974    1628    6290   17223   13774+
+           5129   17224    8665   17375
CTETRA      5748       4     363     170    5820    5830   13809    7274+
+          14115   13763    7272    7269
CTETRA      5749       4    1632    1635    6244    6415    5139   17182+
+          17363   17376   17377    9053
CTETRA      5750       4    1644    1651    6403    6422    5204   13850+
+          17378   17171   15399    9102
CTETRA      5751       4     399    6412    1639    6414   16878   16879+
+           5155   16743    9047   17304
CTETRA      5752       4     391    1715    1723    6345    5399    5421+
+           5422   11893   14965   11894
CTETRA      5753       4    1784    6013    6010    6014   13162    7704+
+          13705   13163    7703    7705
CTETRA      5754       4     405    1513    1552    6302    4875    4877+
+           4871   14470   14032   16683
CTETRA      5755       4     407    1550    6305    6307    4868   16559+
+          16975   16690   16560    8735
CTETRA      5756       4    1783    6009    6007    6016   16313    7714+
+          17379   16317    7724    7723
CTETRA      5757       4    1668    1766    6060    6063    5566   13816+
+          12592   12604   17380    7944
CTETRA      5758       4    1550    1552    1551    6306    4872    4874+
+           4873   16558   13893   13886
CTETRA      5759       4     381     383    1798    6003     382    5685+
+           5680   14601   13708   14655
CTETRA      5760       4     401    1730    6329    6331    5455   14035+
+          14030   14031   14036    8819
CTETRA      5761       4    1520    6378    6379    6385   15231    8995+
+          17381   17382    8990    8993
CTETRA      5762       4    1493    6143    6362    6383   15609    8939+
+          12066   12069    8971    8973
CTETRA      5763       4    1633    6413    6243    6414   17366    9042+
+          17383   16744    9044    9039
CTETRA      5764       4    1581    6019    6005    6020   13761    7761+
+          17384   13762    7755    7759
CTETRA      5765       4    1584    1599    1616    6294    5046    5048+
+           5047   16661   17385   17386
CTETRA      5766       4     403    1645    1638    6417    5176    5182+
+           5153   14458   14459   13580
CTETRA      5767       4    1643    6409    1645    6421   17387   17388+
+           5180   16833    9094   16834
CTETRA      5768       4    1642    6411    6410    6419   16240    9058+
+          13603   13613    9089    9074
CTETRA      5769       4    1478    1489    6142    6143    4702   13744+
+          17389   17390   15410    8379
CTETRA      5770       4    1477    6141    6187    6192   13150    8356+
+          14760   13151    8353    8349
CTETRA      5771       4     679    5901    5900    5907   13726    7487+
+          12369   14887    7503    7505
CTETRA      5772       4    1482    1484    6138    6139    4649   16203+
+          16373   17391   17392    8345
CTETRA      5773       4    1437    1483    1484    6138    4643    4652+
+           4651   16202   16374   16203
CTETRA      5774       4    1638    1645    1641    6409    5182    5185+
+           5165   17393   17388   17394
CTETRA      5775       4     435    6689     242    6690   17325    9950+
+          13095   16204    9952    9948
CTETRA      5776       4     429     236     431    6221   12867   12853+
+            430   12749    8496   12600
CTETRA      5777       4    1436    1449    5970    6688    4536   12057+
+          17323   17329   15428    9955
CTETRA      5778       4    1186    1187    1445    6695    4068    4507+
+           4510   13159   13945   14973
CTETRA      5779       4    1480    1484    1482    6139    4648    4649+
+           4637   14780   17392   17391
CTETRA      5780       4    1642    6410    6411    6415   13603    9058+
+          16240   13605    9055    9051
CTETRA      5781       4    1484    6138    6139    6182   16203    8345+
+          17392   17395    8305    8344
CTETRA      5782       4    1307    1318    1308    6728    4103    4119+
+           4120   13542   16395   13007
CTETRA      5783       4    1319    5964    5963    6704   14349    8249+
+          14355   14350   10032   10035
CTETRA      5784       4    1587    1588    1702    6271    5022    5347+
+           5358   17396   11854   11856
CTETRA      5785       4    1647    6403    1649    6431   17397   13848+
+           5205   17372    9149   13847
CTETRA      5786       4    1643    1647    1648    6404    5186    5190+
+           5188   17398   17399   16866
CTETRA      5787       4    1657    6395    6396    6435   12804    9168+
+          15841   15832    9165    9161
CTETRA      5788       4     411     218     216    6256   16357     217+
+          16674   16368    8728    8727
CTETRA      5789       4    1502    6458    6459    6461   16258    9252+
+          14976   14978    9248    9250
CTETRA      5790       4    1181    6171    6172    6173   16567    8225+
+          16568   14190    8224    8226
CTETRA      5791       4    1329    6160    5962    6174   16831    8239+
+          17286   15875    8236    8242
CTETRA      5792       4    1550    6255    1564    6305   17344   17367+
+           4918   16559    8724   17400
CTETRA      5793       4     411     218     413    6437   16357   16356+
+            412   15735    9173   15738
CTETRA      5794       4    1637    1638    1641    6416    5158    5165+
+           5164   13592   13578   13593
CTETRA      5795       4    1181    6172    1458    6173   16568   13866+
+           4626   14190    8226   13868
CTETRA      5796       4    1420    1427    1429    6150    4464    4474+
+           4476   14746   14741   14740
CTETRA      5797       4    1321    6735    6734    6740   14845   10127+
+          14844   12078   10142   10143
CTETRA      5798       4    1309    6704    5963    6731   14556   10035+
+          12614   12612   10100   10102
CTETRA      5799       4    1429    6200    1430    6201   17280   16882+
+           4479   17313    8390   17314
CTETRA      5800       4     621     682     680    5887    2095    2094+
+           2093   12394   11804   11803
CTETRA      5801       4    1683    5977    5978    6024   13100    7796+
+          13102   15999    7795    7794
CTETRA      5802       4    1440    6686    6685    6700   12000    9968+
+          13183   14734    9989    9988
CTETRA      5803       4    1503    6461    6462    6463   14979    9246+
+          15018   13695    9243    9245
CTETRA      5804       4    1741    6110    6108    6111   13001    8106+
+          12998   13010    8109    8101
CTETRA      5805       4    1789    6025    1790    6034   16584   16583+
+           5650   16939    7845   16306
CTETRA      5806       4    1647    6404    6403    6431   17399    9101+
+          17397   17372    9147    9149
CTETRA      5807       4    1655    6395    1657    6435   12790   12804+
+           5233   12791    9165   15832
CTETRA      5808       4    1643    1644    1647    6421    5181    5187+
+           5186   16833   16835   17401
CTETRA      5809       4    1740    1801    6070    6111    5688   15114+
+          13043   13009   13787    8110
CTETRA      5810       4    1800    1802    1801    6071    5693    5692+
+           5694   15109   15110   15113
CTETRA      5811       4    1742    6108    1759    6116   12997   12938+
+           5496   13513    8132   12940
CTETRA      5812       4    1753    1754    6106    6107    5510   16762+
+          16761   17402   13013    8121
CTETRA      5813       4    1746    1747    1772    6046    5544    5585+
+           5579   13815   14141   11848
CTETRA      5814       4    1585    1586    1682    6269    5053    5288+
+           5287   15170   15169   15181
CTETRA      5815       4    1583    1584    1685    6294    5050    5257+
+           5256   17220   16661   16662
CTETRA      5816       4    1773    1775    6050    6052    5597   17403+
+          15306   15704   17404    7886
CTETRA      5817       4    1665    1773    6050    6054    5590   15306+
+          15304   15303   13798    7904
CTETRA      5818       4    1334    1341    1335    6590    4202    4205+
+           4207   16291   13298   13297
CTETRA      5819       4    1681    1692    6282    6286    5290   15850+
+          16749   16722   12891    8632
CTETRA      5820       4    1665    5987    1695    6055   16574   16298+
+           5292   15305    7899   16297
CTETRA      5821       4     393    6004     200    6021   11873    7720+
+          16554   11910    7762    7764
CTETRA      5822       4    1441    6698    6699    6700   13687    9997+
+          13683   15916    9996    9992
CTETRA      5823       4    1748    6048    6105    6109   14634    8097+
+          14649   15718    8096    8099
CTETRA      5824       4    1663    1696    1664    6040    5301    5303+
+           5302   12167   12166   15868
CTETRA      5825       4    1660    1783    6007    6016    5637   17379+
+          16760   17405   16317    7723
CTETRA      5826       4    1684    1691    6272    6285    5278   12885+
+          13111   13113   12886    8625
CTETRA      5827       4    1775    1779    5988    5989    5611   17406+
+          17407   17408   14561    7859
CTETRA      5828       4    1660    6008    6007    6023   15953    7725+
+          16760   13840    7789    7781
CTETRA      5829       4    1701    6273    6274    6280   14696    8600+
+          12569   12568    8589    8598
CTETRA      5830       4    1660    6007    6008    6016   16760    7725+
+          15953   17405    7723    7726
CTETRA      5831       4    1775    5989    5988    6052   17408    7859+
+          17407   17404    7890    7889
CTETRA      5832       4    1785    6012    6005    6013   14617    7718+
+          17338   13161    7702    7716
CTETRA      5833       4    1792    6000    6001    6015   16588    7741+
+          16589   16593    7736    7740
CTETRA      5834       4     621     635     632    5834    1933    1936+
+           1937   12990   12944   12943
CTETRA      5835       4    1584    1616    6293    6294    5047   15173+
+          15187   16661   17386    8669
CTETRA      5836       4     598    6093    6092    6102   13145    8044+
+          12396   15897    8072    8071
CTETRA      5837       4    1681    1691    1692    6286    5281    5286+
+           5290   16722   12887   12891
CTETRA      5838       4     603     604     631    6104    1856    1907+
+           1908   16219   16212   16213
CTETRA      5839       4     675    5882    5881    5896   16789    7426+
+          16786   16788    7469    7468
CTETRA      5840       4     626    5839     630    5840   16824   17409+
+           1913   16383    7352   12976
CTETRA      5841       4    1681    1682    1704    6282    5291    5356+
+           5350   16749   17410   16855
CTETRA      5842       4     415     222    6348    6392   16263    9034+
+          13852   13853    9030    9036
CTETRA      5843       4     596    6080    6081    6103   14639    8091+
+          16257   16230    8082    8090
CTETRA      5844       4     397    1729    1727    6341    5449    5452+
+           5450   16442   14024   17411
CTETRA      5845       4      10     619      11    5822   16799   17412+
+             17    7249   16779    7248
CTETRA      5846       4      22      11      10     619     545      17+
+            548    2055   17412   16799
CTETRA      5847       4     613    5821    5822    5832   14118    7282+
+          16783   11840    7281    7283
CTETRA      5848       4    1676    1703    1702    6260    5339    5341+
+           5340   13088   11862   11855
CTETRA      5849       4     652     657    5850    5851    1993   17413+
+          17414   13194   17415    7301
CTETRA      5850       4     581     607    5824    5829    1838   14499+
+          16169   14513   14512    7265
CTETRA      5851       4      22    5860     667    5861   17416   12219+
+           2056   13192    7334   12221
CTETRA      5852       4      61      62     113     707      65    5811+
+           5814    2183    2184   16324
CTETRA      5853       4     365     174     725    5944   12186   12188+
+           2300   13812    7655   14387
CTETRA      5854       4    1703    1705    6283    6284    5360   16961+
+          11864   17417   17418    8618
CTETRA      5855       4    1738    1739    1803    5992    5525    5697+
+           5695   14131   14132   15696
CTETRA      5856       4    1819    6095    5940    6096   11794    8025+
+          12881   12884    8019    8024
CTETRA      5857       4    1819    6089    6095    6096   15162    8018+
+          11794   12884    8017    8019
CTETRA      5858       4     726    1818    5939    6084    5769   14542+
+          14541   13746   15366    7998
CTETRA      5859       4    1745    1770    1767    6044    5571    5570+
+           5569   13913   16950   16639
CTETRA      5860       4    1805    1810    6073    6074    5728   15639+
+          15938   15935   16621    7973
CTETRA      5861       4     377    1808    1810    5996    5712    5719+
+           5721   12616   12615   15638
CTETRA      5862       4    1700    1704    1703    6275    5351    5352+
+           5338   12896   17189   17419
CTETRA      5863       4     375     377    1810    5996     376    5721+
+           5722   14518   12616   15638
CTETRA      5864       4     730     996     994    6597    3099    3094+
+           3101   15805   12670   12669
CTETRA      5865       4     730    6597     994    6607   15805   12669+
+           3101   15802    9692   14277
CTETRA      5866       4    1787    1788    1796    6001    5661    5667+
+           5668   13724   16463   13725
CTETRA      5867       4    1782    1786    6009    6010    5641   15972+
+          16310   14616   15973    7707
CTETRA      5868       4    1781    1787    1797    6017    5665    5677+
+           5676   15919   16316   16461
CTETRA      5869       4    1580    6005    6004    6020   17346    7722+
+          11874   15772    7759    7760
CTETRA      5870       4    1712    5984    1714    6308   12666   12668+
+           5395   15397    8759   12675
CTETRA      5871       4     995    6600    6597    6601   12692    9668+
+          12671   16067    9667    9669
CTETRA      5872       4     391     198    6004    6012   11895    7719+
+          11872   15374    7700    7721
CTETRA      5873       4    1803    5992    5993    6027   15696    7833+
+          12631   12632    7800    7832
CTETRA      5874       4    1796    6002    6001    6028   13712    7749+
+          13725   16466    7803    7802
CTETRA      5875       4    1750    5991    5990    6068   13822    7841+
+          13820   14621    7983    7982
CTETRA      5876       4     389    1717    1715    6310    5400    5402+
+           5398   14358   14357   14963
CTETRA      5877       4    1778    5989    5990    6037   14562    7850+
+          14643   14563    7849    7848
CTETRA      5878       4    1778    5990    6035    6037   14643    7840+
+          13828   14563    7848    7851
CTETRA      5879       4    1777    1778    5989    5990    5603   14562+
+          16805   14650   14643    7850
CTETRA      5880       4     377    1768     379    6062    5559    5568+
+            378   11913   11915   15302
CTETRA      5881       4    1718    6322    6321    6344   17420    8797+
+          15379   17186    8872    8873
CTETRA      5882       4     375     182    6042    6067   14517    7967+
+          15293   15856    7963    7969
CTETRA      5883       4    1581    1628    1582    5974    5127    5129+
+           5128   13760   13774   17223
CTETRA      5884       4    1581    1658    6005    6019    5235   17339+
+          17384   13761   17421    7761
CTETRA      5885       4     399     206     204    6326   17172     205+
+          17306   17422    8826    8827
CTETRA      5886       4     377     184     379    6032   15294   15301+
+            378   12617    7817   14612
CTETRA      5887       4    1809    1810    5995    6073    5720   15637+
+          17423   16623   15639    7980
CTETRA      5888       4    1799    5994    1809    5995   12623   17424+
+           5717   15634    7824   17423
CTETRA      5889       4    1810    5996    6073    6074   15638    7972+
+          15639   16621    7971    7973
CTETRA      5890       4     377     379     184    6062     378   15301+
+          15294   11913   15302    7947
CTETRA      5891       4    1700    1703    6261    6275    5338   13070+
+          14686   12896   17419    8596
CTETRA      5892       4    1599    6292    6294    6295   16013    8683+
+          17385   16349    8679    8682
CTETRA      5893       4    1684    1686    1687    5976    5255    5249+
+           5259   13839   16664   16663
CTETRA      5894       4     379    6062    1669    6064   15302   16602+
+           5369   12512    7948   13830
CTETRA      5895       4     397    1727     399    6326    5450    5451+
+            398   17425   16247   17422
CTETRA      5896       4    1731    6326    6327    6331   17426    8829+
+          16958   16957    8828    8825
CTETRA      5897       4     401     210     208    6329   14460     209+
+          13582   14030    8811    8812
CTETRA      5898       4     399     206    6412    6414   17172    9045+
+          16878   16743    9041    9047
CTETRA      5899       4     379    1669     381    6064    5369    5368+
+            380   12512   13830   12160
CTETRA      5900       4     401     403    1638    6417     402    5153+
+           5152   13583   14458   13580
CTETRA      5901       4    1745    1770    6044    6045    5571   16950+
+          13913   16956   16951    7957
CTETRA      5902       4    1802    1804    1803    5993    5702    5703+
+           5698   15108   12630   12631
CTETRA      5903       4     397    1727    6326    6341    5450   16247+
+          17425   16442   17411    8851
CTETRA      5904       4     585    1765    6117    6118    5555   12264+
+          12263   16456   14586    8146
CTETRA      5905       4    1721    6342    1729    6343   14082   12662+
+           5443   14028    8862   14025
CTETRA      5906       4     585     586    1751    6118    2286    5511+
+           5514   16456   15233   14587
CTETRA      5907       4    1791    6000    1792    6016   16591   16588+
+           5658   16592    7734   16600
CTETRA      5908       4     597     629    6093    6103    1919   15899+
+          12980   12411   16614    8077
CTETRA      5909       4    1672    1693    1673    6264    5311    5313+
+           5312   16275   14667   12903
CTETRA      5910       4    1714    6324    6308    6325   12673    8802+
+          12675   12665    8807    8806
CTETRA      5911       4    1658    6006    1786    6013   15975   15977+
+           5639   16816    7715   15974
CTETRA      5912       4    1659    1688    1686    6022    5239    5248+
+           5245   15948   15950   15949
CTETRA      5913       4    1659    1660    1783    6007    5246    5637+
+           5636   15947   16760   17379
CTETRA      5914       4    1820    6095    6090    6097   14534    8034+
+          15687   14089    8036    8031
CTETRA      5915       4    1710    6308    1714    6324   12880   12675+
+           5394   12672    8802   12673
CTETRA      5916       4    1745    6045    6044    6117   16956    7957+
+          13913   13915    8139    8140
CTETRA      5917       4    1658    1659    6006    6019    5238   15976+
+          15975   17421   17427    7773
CTETRA      5918       4     584     593    6136    6137    2288   13917+
+          13916   15854   14399    8216
CTETRA      5919       4     609    6129    6128    6130   14179    8173+
+          12049   14181    8170    8171
CTETRA      5920       4    1754    1763    6106    6112    5529   14632+
+          16762   13033   14633    8117
CTETRA      5921       4    1659    6007    6006    6022   15947    7713+
+          15976   15948    7779    7775
CTETRA      5922       4    1670    5982    1671    5983   16296   15863+
+           5299   14290    7902   14291
CTETRA      5923       4    1777    6049    5989    6052   14652    7891+
+          16805   17428    7893    7890
CTETRA      5924       4    1684    1687    1685    6266    5259    5258+
+           5260   15855   16658   15859
CTETRA      5925       4    1754    6106    6107    6112   16762    8121+
+          13013   13033    8117    8120
CTETRA      5926       4    1659    6006    6019    6022   15976    7773+
+          17427   15948    7775    7774
CTETRA      5927       4    1658    1688    1659    6019    5237    5239+
+           5238   17421   17222   17427
CTETRA      5928       4    1687    5975    5976    6022   16655    7777+
+          16663   15951    7776    7778
CTETRA      5929       4    1593    6424    1594    6432   15220   13993+
+           5108   15227    9144   17429
CTETRA      5930       4    1795    1803    1804    6027    5708    5703+
+           5707   16577   12632   12633
CTETRA      5931       4    1647    1648    6404    6431    5190   16866+
+          17399   17372   15621    9147
CTETRA      5932       4    1648    6423    6404    6431   15619    9136+
+          16866   15621    9148    9147
CTETRA      5933       4    1646    6432    6431    6435   17371    9151+
+          15620   16754    9160    9163
CTETRA      5934       4    1594    6423    1646    6432   16348   15618+
+           5193   17429    9150   17371
CTETRA      5935       4     582    6043     583    6066   15921   15934+
+           2297   15917    7964   16636
CTETRA      5936       4    1597    1598    1631    6411    5102    5140+
+           5141   12816   16243   16244
CTETRA      5937       4    1746    1772    1770    6045    5579    5578+
+           5577   13814   13813   16951
CTETRA      5938       4    1723    6339    6338    6344   11929    8871+
+          11866   11902    8881    8880
CTETRA      5939       4    1768    6063    6062    6066   16603    7949+
+          11915   17203    7958    7959
CTETRA      5940       4    1599    6245    6292    6295   17180    8678+
+          16013   16349    8677    8679
CTETRA      5941       4    1616    6292    6293    6294   16012    8684+
+          15173   17386    8683    8669
CTETRA      5942       4    1616    6293    6292    6296   15173    8684+
+          16012   13563    8692    8691
CTETRA      5943       4     603    6094    6103    6104   16612    8078+
+          16217   16219    8093    8092
CTETRA      5944       4    1752    1760    1758    6123    5515    5516+
+           5507   17430   16640   17431
CTETRA      5945       4    1776    6049    1777    6052   17432   14652+
+           5609   13487    7893   17428
CTETRA      5946       4    1666    1670    6053    6055    5297   14543+
+          11832   15941   14544    7907
CTETRA      5947       4    1794    1796    6028    6029    5672   16466+
+          16468   14603   16467    7811
CTETRA      5948       4    1668    6060    6059    6063   12592    7937+
+          12591   12604    7944    7943
CTETRA      5949       4    1598    1635    1631    6245    5142    5137+
+           5140   15842   17181   16242
CTETRA      5950       4    1606    1608    1609    6257    5013    5003+
+           5008   12703   13861   13860
CTETRA      5951       4    1599    6292    1616    6294   16013   16012+
+           5048   17385    8683   17386
CTETRA      5952       4    1703    6275    1704    6284   17419   17189+
+           5352   17417    8621   16856
CTETRA      5953       4    1615    6297    6299    6300   14676    8708+
+          14677   14679    8707    8709
CTETRA      5954       4    1605    6251    1612    6401   13858   14474+
+           5023   17433    9119   16422
CTETRA      5955       4    1775    5988    6050    6052   17407    7884+
+          17403   17404    7889    7886
CTETRA      5956       4    1602    1614    6249    6250    5042   15954+
+          14435   16427   14614    8655
CTETRA      5957       4    1700    1701    1704    6274    5336    5349+
+           5351   12895   12569   16854
CTETRA      5958       4    1588    1607    6259    6287    5005   15085+
+          11852   12085   14618    8642
CTETRA      5959       4    1749    1777    1776    6049    5608    5609+
+           5607   16241   14652   17432
CTETRA      5960       4    1610    6318    6317    6319   15206    8778+
+          13864   13865    8786    8787
CTETRA      5961       4    1775    1777    5989    6052    5610   16805+
+          17408   17404   17428    7890
CTETRA      5962       4    1773    1776    1775    6052    5599    5600+
+           5597   15704   13487   17404
CTETRA      5963       4    1775    1776    1777    6052    5600    5609+
+           5610   17404   13487   17428
CTETRA      5964       4    1664    1775    1779    5988    5598    5611+
+           5613   17434   17407   17406
CTETRA      5965       4    1659    1686    1660    6007    5245    5247+
+           5246   15947   15946   16760
CTETRA      5966       4     413    1570     415    6348    4941    4946+
+            414   16362   16269   13852
CTETRA      5967       4     411    6433     218    6437   14670    9156+
+          16357   15735    9171    9173
CTETRA      5968       4    1777    1778    1779    5989    5603    5619+
+           5612   16805   14562   14561
CTETRA      5969       4    1660    1791    1783    6016    5654    5662+
+           5637   17405   16592   16317
CTETRA      5970       4    1562    6256    6445    6450   16364    9198+
+          16366   16015    9216    9215
CTETRA      5971       4    1564    6256    6255    6445   16365    8730+
+          17367   16367    9198    9197
CTETRA      5972       4    1713    5983    1714    5984   14143   12676+
+           5393   12667    7908   12668
CTETRA      5973       4    1664    1696    1695    6040    5303    5315+
+           5293   15868   12166   14097
CTETRA      5974       4    1660    6008    1791    6016   15953   16651+
+           5654   17405    7726   16592
CTETRA      5975       4    1559    1563    1564    6255    4920    4923+
+           4922   17341   17340   17367
CTETRA      5976       4    1584    6268    6267    6293   15175    8637+
+          16660   15187    8670    8667
CTETRA      5977       4    1489    1490    1494    6196    4687    4712+
+           4708   13737   13589   13738
CTETRA      5978       4    1489    1493    1491    6143    4703    4704+
+           4686   15410   15609   13535
CTETRA      5979       4    1659    6006    6007    6009   15976    7713+
+          15947   15978    7712    7714
CTETRA      5980       4    1471    6165    6166    6177   15971    8271+
+          16381   13155    8270    8269
CTETRA      5981       4    1485    6140    1486    6141   14769   14772+
+           4659   13149    8355   14771
CTETRA      5982       4    1477    1478    6142    6375    4668   17389+
+          13743   15416   17358    8937
CTETRA      5983       4    1781    6010    1782    6017   13706   14616+
+           5630   15919    7737   16312
CTETRA      5984       4    1800    1807    1809    6072    5713    5715+
+           5714   17435   13944   16622
CTETRA      5985       4    1482    6139    6138    6368   17391    8345+
+          16373   13723    8899    8898
CTETRA      5986       4    1718    1722    6344    6346    5423   11930+
+          17186   15377   15378    8882
CTETRA      5987       4    1794    1796    1795    6028    5672    5671+
+           5673   16468   16466   16578
CTETRA      5988       4    1409    6365    6370    6371   15213    8911+
+          15208   13716    8913    8912
CTETRA      5989       4    1480    1482    1481    6370    4637    4636+
+           4638   14781   15209   14785
CTETRA      5990       4    1476    1487    1485    6192    4669    4672+
+           4662   14753   11976   13152
CTETRA      5991       4    1477    1494    6187    6196    4707   13157+
+          14760   13736   13738    8375
CTETRA      5992       4    1553    1554    1557    6364    4889    4896+
+           4895   13720   15134   16671
CTETRA      5993       4    1480    6182    6139    6191   17436    8344+
+          14780   14767    8343    8346
CTETRA      5994       4    1479    1484    1480    6182    4645    4648+
+           4650   17437   17395   17436
CTETRA      5995       4    1415    6209    1428    6225   14059   14053+
+           4470   12746    8487   12117
CTETRA      5996       4    1814    6084    6083    6087   17438    8003+
+          16624   11830    8010    8009
CTETRA      5997       4    1744    1820    6090    6091    5756   15687+
+          15686   15692   14090    8032
CTETRA      5998       4    1416    6222    6225    6226   12747    8493+
+          12116   12607    8495    8492
CTETRA      5999       4    1178    1299    1179    6235    4026    4025+
+           4027   15237   15239   16728
CTETRA      6000       4    1177    1466    6221    6227    4579   12594+
+          12601   12575   12577    8514
CTETRA      6001       4    1800    1804    1802    5993    5699    5702+
+           5693   15107   12630   15108
CTETRA      6002       4    1748    6048    6047    6105   14634    7896+
+          14646   14649    8097    8098
CTETRA      6003       4    1415    1417    1428    6209    4456    4471+
+           4470   14059   17281   14053
CTETRA      6004       4    1464    1468    1467    6232    4590    4593+
+           4594   14708   17193   17201
CTETRA      6005       4     427    1416    6224    6226    4466   12105+
+          12104   13634   12607    8491
CTETRA      6006       4    1414    1417    1415    6210    4454    4456+
+           4455   16724   17334   14058
CTETRA      6007       4    1469    6154    6166    6184   13754    8267+
+          13569   13909    8316    8362
CTETRA      6008       4    1490    1495    1494    6193    4711    4713+
+           4712   13588   13908   15404
CTETRA      6009       4    1807    6072    6071    6075   13944    7979+
+          17439   11823    8005    8104
CTETRA      6010       4    1782    1786    1783    6009    5641    5640+
+           5642   16310   15972   16313
CTETRA      6011       4    1786    6006    6009    6013   15977    7712+
+          15972   15974    7715    7706
CTETRA      6012       4    1794    6031    6029    6033   14605    7835+
+          14603   14636    7836    7830
CTETRA      6013       4     726    5939    5938    6084   14541    7635+
+          12871   13746    7998    7997
CTETRA      6014       4    1645    6408    6409    6417   14457    9071+
+          17388   14459    9070    9067
CTETRA      6015       4    1413    1459    6153    6211    4588   17440+
+          16735   17441   17322    8437
CTETRA      6016       4    1374    1389    1388    6622    4376    4375+
+           4366   15155   15154   17442
CTETRA      6017       4    1272    1273    1370    6717    4095    4290+
+           4291   15270   14861   14855
CTETRA      6018       4     373     180    6074    6085   15287    7975+
+          15289   15936    7993    7994
CTETRA      6019       4    1375    1381    6669    6670    4341   13184+
+          16386   16166   13190    9891
CTETRA      6020       4     605     606     610    6129    1848    1878+
+           1870   14178   14417   14416
CTETRA      6021       4    1378    1382    6633    6666    4348   16519+
+          15445   14368   13201    9876
CTETRA      6022       4    1814    1815    1818    6087    5750    5762+
+           5764   11830   11829   16288
CTETRA      6023       4     455    6652     262    6656   15466    9804+
+          13271   15471    9819    9821
CTETRA      6024       4     726    5938    5939    5942   12871    7635+
+          14541   12961    7630    7632
CTETRA      6025       4     600    5817    5818    5949   12957    7648+
+          17443   12948    7668    7674
CTETRA      6026       4     451     258     256    6678   13288     257+
+          13277   13280    9922    9923
CTETRA      6027       4    1201    1240    6652    6655    3852   15473+
+          15470   12637   15477    9818
CTETRA      6028       4    1811    1813    1812    6086    5735    5734+
+           5736   11826   11827   13017
CTETRA      6029       4    1805    6083    1817    6085   15939   17444+
+           5752   15937    8002   16940
CTETRA      6030       4     369     174     176    5942   12197     175+
+          12196   12200    7654    7631
CTETRA      6031       4     637    5947    5838    5951   17445    7685+
+          12609   17446    7683    7687
CTETRA      6032       4     726    1817    1818    6084    5755    5766+
+           5769   13746   13747   15366
CTETRA      6033       4    1814    1818    1817    6084    5764    5766+
+           5765   17438   15366   13747
CTETRA      6034       4     455    1201    1240    6652    3850    3852+
+           3846   15466   15470   15473
CTETRA      6035       4    1377    6630    1395    6672   15773   16108+
+           4402   17146    9901   15245
CTETRA      6036       4     371     373    1817    6085     372    5751+
+           5753   14191   15936   16940
CTETRA      6037       4    1395    6630    1397    6679   16108   15787+
+           4412   13897    9919   13895
CTETRA      6038       4    1814    1818    6084    6087    5764   15366+
+          17438   11830   16288    8010
CTETRA      6039       4    1377    6631    6630    6672   15775    9824+
+          15773   17146    9899    9901
CTETRA      6040       4    1395    6672    6630    6679   15245    9901+
+          16108   13897    9920    9919
CTETRA      6041       4    1240    6653    6652    6655   15474    9806+
+          15473   15477    9817    9818
CTETRA      6042       4    1200    6654    6653    6655   14249    9812+
+          15479   15476    9814    9817
CTETRA      6043       4     698    5926    5891    5927   11944    7569+
+          11943   11956    7578    7585
CTETRA      6044       4      63     711     115    5927    2207   12966+
+           5809   12917   11960    7574
CTETRA      6045       4    1201    6655    6652    6656   12637    9818+
+          15470   12621    9820    9819
CTETRA      6046       4    1200    1239    1240    6653    3855    3849+
+           3853   15479   16649   15474
CTETRA      6047       4    1200    1377    1380    6631    4322    4326+
+           4324   15781   15775   13035
CTETRA      6048       4      62     707     709    5924    2184    2196+
+           2194   14377   13533   13534
CTETRA      6049       4    1380    6631    6632    6654   13035    9816+
+          13034   14250    9813    9809
CTETRA      6050       4    1371    1372    6658    6665    4312   17156+
+          12776   12784   12783    9860
CTETRA      6051       4    1356    1357    6660    6662    4260   12773+
+          15256   15258   12774    9850
CTETRA      6052       4    1355    1359    1356    6657    4262    4261+
+           4263   14565   15006   16721
CTETRA      6053       4    1355    1361    1359    6657    4273    4274+
+           4262   14565   15015   15006
CTETRA      6054       4    1336    6591    1339    6616   13296   13295+
+           4196   13291    9726   13292
CTETRA      6055       4    1343    6612    6609    6613   16889    9710+
+          15789   16891    9709    9711
CTETRA      6056       4    1190    1220    1191    6608    3719    3721+
+           3720   15794   16906   15038
CTETRA      6057       4    1191    1220    6602    6608    3721   13305+
+          12502   15038   16906    9704
CTETRA      6058       4     605    5825    5824    6129   14187    7258+
+          15048   14178    8164    8165
CTETRA      6059       4     369     371     176    5825     370   14184+
+          12196   15044   14186    7252
CTETRA      6060       4    1329    6159    6160    6174   16829    8238+
+          16831   15875    8237    8236
CTETRA      6061       4    1283    5959    1294    6746   13531   14626+
+           3998   15260   10163   14627
CTETRA      6062       4    1307    6715    1318    6728   15266   14821+
+           4103   13542   10085   16395
CTETRA      6063       4    1331    5961    6160    6219   15876    8240+
+          15878   15882    8464    8465
CTETRA      6064       4     613    5828    5827    5832   11838    7264+
+          15684   11840    7289    7288
CTETRA      6065       4     618     652     619    5851    1987    1989+
+           1988   16778   13194   13193
CTETRA      6066       4    1308    1309    1328    6731    4122    4154+
+           4153   13008   12612   12613
CTETRA      6067       4    1273    1322    1274    6738    4123    4126+
+           4125   14850   12087   12077
CTETRA      6068       4    1201    1397    1377    6630    4411    4413+
+           4323   12636   15787   15773
CTETRA      6069       4     449     256     254    6676   13278     255+
+          17318   15143    9905    9904
CTETRA      6070       4    1574    1577    1579    6389    4982    4984+
+           4987   15540   16431   12832
CTETRA      6071       4     449     254     256    6748   17318     255+
+          13278   17447   10171   10172
CTETRA      6072       4     449    1291    6748    6751    3986   16845+
+          17447   17350   17352   10182
CTETRA      6073       4     445     254     252    6677   16999     253+
+          17004   16997    9906    9907
CTETRA      6074       4     615    5827    5831    5832   14125    7286+
+          12232   12239    7288    7285
CTETRA      6075       4     447    1293    5957    6748    3995   17276+
+          17001   17244   16844   10173
CTETRA      6076       4     689    5894     695    5895   17448   16476+
+           2158   16607    7467   16608
CTETRA      6077       4     447     449    1291    6748     448    3986+
+           3994   17244   17447   16845
CTETRA      6078       4     606     607     612    6133    1840    1886+
+           1885   14418   14501   14419
CTETRA      6079       4    1385    6621    1387    6682   13925   13934+
+           4362   15153    9939   16403
CTETRA      6080       4    1262    1263    1265    6511    3947    3956+
+           3957   15993   15456   12712
CTETRA      6081       4     582     591     583    6043    2294    2296+
+           2297   15921   15851   15934
CTETRA      6082       4     419    1579    1577    6357    4983    4984+
+           4974   11952   11951   11961
CTETRA      6083       4    1193    6546    1194    6547   14903   14807+
+           3745   12060    9410   12061
CTETRA      6084       4    1252    6644    6640    6645   14882    9761+
+          17051   14376    9763    9762
CTETRA      6085       4    1248    6638    6646    6649   15922    9778+
+          16550   15923    9780    9779
CTETRA      6086       4    1202    1248    1249    6649    3881    3883+
+           3882   15031   15923   16552
CTETRA      6087       4    1196    1197    6635    6650    3786   12766+
+          12765   13052   13565    9788
CTETRA      6088       4    1195    1196    1360    6519    3780    4256+
+           4257   15809   15810   16700
CTETRA      6089       4     619     652     667    5860    1989    2054+
+           2053   13195   13196   12219
CTETRA      6090       4    1571    1573    1572    6390    4960    4953+
+           4961   12284   12285   13624
CTETRA      6091       4     661     667    5856    5857    2062   17072+
+          16807   17300   12220    7339
CTETRA      6092       4    1196    6519    6518    6635   15810    9433+
+          13050   12765    9790    9789
CTETRA      6093       4     667    5856    5857    5860   17072    7339+
+          12220   12219    7337    7338
CTETRA      6094       4    1574    1576    6386    6390    4967   13627+
+          16185   15541   13625    9019
CTETRA      6095       4     694    5895     700    5922   16609   17449+
+           2167   17450    7559   16800
CTETRA      6096       4    1204    6515    1255    6639   14888   14814+
+           3905   12095    9750   12096
CTETRA      6097       4     996    6598    6597    6604   12678    9674+
+          12670   14545    9691    9690
CTETRA      6098       4    1000    6584    6585    6587   12698    9615+
+          12279   12700    9614    9616
CTETRA      6099       4     477     284    6575    6577   17176    9560+
+          17178   17175    9558    9562
CTETRA      6100       4     730    6603    6604    6607   16919    9688+
+          15804   15802    9686    9689
CTETRA      6101       4     628     666    5857    5859    2058   12222+
+          15676   15326   12223    7335
CTETRA      6102       4     661    5856    5847    5857   16807    7344+
+          15424   17300    7339    7345
CTETRA      6103       4    1001    1011    6586    6600    3153   14063+
+          12294   12296   16065    9658
CTETRA      6104       4    1157    1158    1165    7051    3652    3661+
+           3660   16329   17247   17248
CTETRA      6105       4    1162    6873    6874    6921   15481   10667+
+          15495   15482   10658   10666
CTETRA      6106       4    1158    1167    1165    6875    3673    3675+
+           3661   12971   12970   17246
CTETRA      6107       4     879    6989     930    7023   16929   13520+
+           2880   14433   10986   12341
CTETRA      6108       4     637     641     642    5951    1967    1970+
+           1969   17446   13733   16081
CTETRA      6109       4    1135    1136    1137    7074    3561    3573+
+           3571   12006   16960   12007
CTETRA      6110       4    1133    1135    1137    7077    3559    3571+
+           3569   12012   12008   12009
CTETRA      6111       4     513     320    7073    7078   14071   11202+
+          14073   14094   11198   11204
CTETRA      6112       4    1025    1026    1101    6913    3288    3474+
+           3473   16404   12201   12184
CTETRA      6113       4    1104    1115    1114    6889    3464    3463+
+           3462   14278   16405   17208
CTETRA      6114       4    1103    1104    6888    6947    3417   16685+
+          13666   17235   17236   10771
CTETRA      6115       4    1114    6888    6889    6907   17205   10579+
+          17208   17209   10578   10577
CTETRA      6116       4    1035    6894    1036    6953   15330   15334+
+           3279   13523   10793   12573
CTETRA      6117       4     656     659    5853    5854    2016   16163+
+          16155   15682   16159    7307
CTETRA      6118       4     491     298    6971    6973   16150   10857+
+          15489   15490   10866   10868
CTETRA      6119       4    1075    1076    1078    6938    3365    3376+
+           3378   12565   16535   14002
CTETRA      6120       4    1568    1571    1579    6391    4958    4988+
+           4986   13085   13090   13087
CTETRA      6121       4    1083    1084    6766    6860    3397   13647+
+          17451   16876   17145   10507
CTETRA      6122       4    1081    1083    1084    6766    3393    3397+
+           3396   14817   17451   13647
CTETRA      6123       4    1077    6954    6953    6955   14958   10811+
+          13525   14956   10812   10805
CTETRA      6124       4     653    5845    5846    5850   17076    7343+
+          17036   17077    7293    7341
CTETRA      6125       4     499     501     306    6961     500   17324+
+          17330   17187   17188   10825
CTETRA      6126       4     499    7052     306    7054   17452   11104+
+          17330   17453   11111   11113
CTETRA      6127       4    1144    1150    1160    7055    3617    3657+
+           3647   15803   17454   15806
CTETRA      6128       4     653    5850    5846    5856   17077    7341+
+          17036   16806    7327    7342
CTETRA      6129       4     499    1159    1156    7054    3637    3641+
+           3639   17453   15797   16008
CTETRA      6130       4     501    1021    1109    6959    3307    3427+
+           3426   12230   12242   12236
CTETRA      6131       4    1022    6957    6958    6960   17258   10829+
+          17267   16736   10828   10820
CTETRA      6132       4    1025    6902    6891    6912   13979   10570+
+          13365   13362   10622   10614
CTETRA      6133       4    1027    6898    6897    6929   12208   10626+
+          17335   17213   10702   10704
CTETRA      6134       4     652    5850     653    5856   17414   17077+
+           1994   13209    7327   16806
CTETRA      6135       4    1043    6897    6928    6929   13371   10708+
+          14524   17455   10704   10709
CTETRA      6136       4    1043    6928    1053    6929   14524   17085+
+           3251   17455   10709   17214
CTETRA      6137       4    1058    6892    6896    6912   13337   10616+
+          13347   13363   10613   10619
CTETRA      6138       4    1027    6897    1043    6929   17335   13371+
+           3248   17213   10704   17455
CTETRA      6139       4     477     479     286    6794     478   15926+
+          17177   16307   17148   10294
CTETRA      6140       4     481     288     286    6857   16564     287+
+          17268   17269   10497   10498
CTETRA      6141       4     617     656     657    5852    1996    1999+
+           1991   16318   16596   17034
CTETRA      6142       4     739     973    6792    6861    2943   13316+
+          13315   13322   12343   10525
CTETRA      6143       4    1006    1015    6816    6823    3182   17277+
+          15361   15356   13393   10359
CTETRA      6144       4     691    5878    5892    5893   13432    7457+
+          17456   17074    7456    7458
CTETRA      6145       4    1003    6773    1005    6826   17457   16345+
+           3134   17273   10384   17458
CTETRA      6146       4     353    5862     160    5876   16611    7357+
+          15348   15664    7407    7406
CTETRA      6147       4     912    7127    7125    7128   17144   11316+
+          15860   16811   11322   11326
CTETRA      6148       4     882     912     910    7129    2812    2813+
+           2802   16097   15861   16647
CTETRA      6149       4     906    7103    6987    7128   17137   11252+
+          16064   16426   11319   11318
CTETRA      6150       4     880    6988    7103    7115   17231   11251+
+          16984   16653   11250   11253
CTETRA      6151       4    1721    6338    6339    6343   14026    8871+
+          13044   14028    8870    8867
CTETRA      6152       4     717    5915    5912    5916   13515    7523+
+          14641   16148    7526    7521
CTETRA      6153       4    1727    6332    6326    6341   15370    8844+
+          16247   17411    8852    8851
CTETRA      6154       4     624    5836     640    5837   13748   15314+
+           1959   11810    7400   15313
CTETRA      6155       4     887    6986     905    7014   16424   16814+
+           2771   12025   10919   16813
CTETRA      6156       4     673    5904     712    5905   17047   17062+
+           2215   17048    7515   17043
CTETRA      6157       4     885     886     903    7008    2730    2762+
+           2761   15395   15392   15570
CTETRA      6158       4     868     869    1087    7010    2720    3480+
+           3481   16570   17459   15076
CTETRA      6159       4     896    7008    7009    7015   15393   10940+
+          15383   12372   10929   10938
CTETRA      6160       4    1711    6323    6324    6325   15387    8796+
+          12674   12664    8808    8807
CTETRA      6161       4     885    7008    7017    7021   15395   10946+
+          15578   15884   10979   10974
CTETRA      6162       4     589     597     598    6102    2275    1939+
+           2273   13832   12409   15897
CTETRA      6163       4     869     870    1119    7019    2723    3479+
+           3478   14438   14437   17460
CTETRA      6164       4     870     901    7003    7021    2749   14944+
+          15886   14440   15885   10973
CTETRA      6165       4     353     651     355    5862    2006    2005+
+            354   16611   17122   17123
CTETRA      6166       4     871    7003    7032    7035   14943   11027+
+          16756   15297   11043   11044
CTETRA      6167       4    1712    5984    6308    6312   12666    8759+
+          15397   12873    8761    8753
CTETRA      6168       4     885    7009    7008    7021   15384   10940+
+          15395   15884   10980   10979
CTETRA      6169       4     694    5896    5895    5922   16818    7470+
+          16609   17450    7558    7559
CTETRA      6170       4     902    7002    7017    7018   15093   10953+
+          15576   15094   10950   10945
CTETRA      6171       4    1120    7005    7004    7024   14237   10969+
+          15812   14238   10998   11040
CTETRA      6172       4     704    5935    5932    5936   15649    7616+
+          15019   15021    7617    7613
CTETRA      6173       4    1710    1712    6308    6312    5382   15397+
+          12880   15391   12873    8753
CTETRA      6174       4     713     716    5912    5934    2226   16142+
+          15645   16141   16135    7604
CTETRA      6175       4     870    7004    1119    7019   15811   15813+
+           3479   14437   10968   17460
CTETRA      6176       4     868    7009     869    7010   15565   14441+
+           2720   16570   10942   17459
CTETRA      6177       4     901    7017    7003    7021   15579   10972+
+          14944   15885   10974   10973
CTETRA      6178       4     856    7220    7221    7222   15592   11653+
+          12425   15051   11652   11651
CTETRA      6179       4     716    5913    5912    5934   16133    7522+
+          16142   16135    7605    7604
CTETRA      6180       4     668     669     723    5921    2068    2257+
+           2258   15157   15144   13182
CTETRA      6181       4     132     133     143    5952     137   11785+
+          11784   14584   16457    7677
CTETRA      6182       4      37    7223      84    7231   16616   11698+
+            562   16069   11699   11696
CTETRA      6183       4     840     855     853    7216    2641    2645+
+           2644   12431   12407   12427
CTETRA      6184       4     624     641     625    5837    1964    1966+
+           1968   11810   13734   11811
CTETRA      6185       4     719    5917    5907    5918   11924    7531+
+          14871   14873    7535    7537
CTETRA      6186       4     860     862    7225    7233    2676   11908+
+          14304   11903   11883   11708
CTETRA      6187       4     829    7215    7214    7236   12398   11641+
+          17128   12399   11715   11714
CTETRA      6188       4     533     800     809    7094    2466    2503+
+           2502   16492   16509   14899
CTETRA      6189       4     533    7161     340    7179   16499   11528+
+          16493   17102   11537   11535
CTETRA      6190       4     800     801    7093    7135    2487   17461+
+          16507   17118   16438   11365
CTETRA      6191       4     533     340     338    7136   16493     339+
+          16495   16494   11361   11360
CTETRA      6192       4     800    7135    7093    7136   17118   11365+
+          16507   17105   11364   11366
CTETRA      6193       4    1706    6311    5985    6312   12150    8763+
+          12149   17462    8749    8762
CTETRA      6194       4     674     675     694    5896    2122    2155+
+           2157   16817   16788   16818
CTETRA      6195       4     801    7092     810    7093   16587   16962+
+           2506   17461   11368   17463
CTETRA      6196       4     694     700     714    5922    2167    2214+
+           2213   17450   16800   16473
CTETRA      6197       4     712    5904     714    5923   17062   17464+
+           2216   15642    7561   16475
CTETRA      6198       4     714    5904    5896    5922   17464    7507+
+          16819   16473    7560    7558
CTETRA      6199       4     673     714     712    5904    2212    2216+
+           2215   17047   17464   17062
CTETRA      6200       4     695     700    5895    5930    2166   17449+
+          16608   15965   16801    7587
CTETRA      6201       4     705    5929     706    5931   15654   16154+
+           2180   15024    7602   15646
CTETRA      6202       4     672     683     673    5905    2102    2104+
+           2103   15633   15312   17048
CTETRA      6203       4     353     160    5889    5903   15348    7432+
+          15035   15036    7475    7477
CTETRA      6204       4     357     658     659    5854    2008    2013+
+           2012   15669   16162   16159
CTETRA      6205       4     712     714     713    5923    2216    2218+
+           2219   15642   16475   15643
CTETRA      6206       4     145     724    5941    5945   11789   11796+
+           7637    7641   11791    7642
CTETRA      6207       4     622     638     623    5872    1956    1960+
+           1961   14662   13792   12206
CTETRA      6208       4    1706    1709    6311    6312    5376   14430+
+          12150   17462   14466    8749
CTETRA      6209       4     613     616     615    5827    1900    1903+
+           1890   15684   15690   14125
CTETRA      6210       4     359     361     634    5948     360    1923+
+           1934   13290   15679   13259
CTETRA      6211       4      21      10     613     619     547   11839+
+           1899    2263   16799    2264
CTETRA      6212       4     669    5909    5908    5920   15026    7501+
+          11925   11931    7548    7547
CTETRA      6213       4     639    5818    5819    5950   16942    7644+
+          11801   14168    7672    7673
CTETRA      6214       4     355     164     162    5843   16322     163+
+          14588   16323    7302    7305
CTETRA      6215       4     361     363     170    5820     362   13809+
+          17295   16595   14115    7274
CTETRA      6216       4    1788    6025    1795    6028   16464   16576+
+           5669   16465    7805   16578
CTETRA      6217       4     361     168    5817    5948   17016    7658+
+          12956   15679    7665    7666
CTETRA      6218       4    1707    5984    1712    5985   13693   12666+
+           5379   12588    7928   12872
CTETRA      6219       4    1817    6083    6084    6085   17444    8003+
+          13747   16940    8002    7999
CTETRA      6220       4     613    5821     618    5822   14118   16777+
+           2265   16783    7282   16776
CTETRA      6221       4    1806    1809    1807    6072    5723    5715+
+           5724   11891   16622   13944
CTETRA      6222       4     613     615     614    5832    1890    1889+
+           1891   11840   12239   12238
CTETRA      6223       4     580    5824    5826    5827   15047    7257+
+          16451   16449    7267    7268
CTETRA      6224       4    1658    6005    6006    6013   17339    7717+
+          15975   16816    7716    7715
CTETRA      6225       4     367     615    5826    5831    1895   14126+
+          16167   12195   12232    7280
CTETRA      6226       4     580    5824    5825    5826   15047    7258+
+          15045   16451    7257    7256
CTETRA      6227       4     614    5820    5821    5830   14116    7270+
+          14117   13764    7269    7271
CTETRA      6228       4     361     170     600    5817   17295   17026+
+           1832   12956    7656   12957
CTETRA      6229       4     399     208     401    6412   16867   13582+
+            400   16878    9046   13581
CTETRA      6230       4    1628    5973    5974    6020   15673    7767+
+          13774   13775    7766    7756
CTETRA      6231       4     592    6128    6127    6137   14414    8185+
+          14397   14398    8214    8217
CTETRA      6232       4    1805    1814    1817    6083    5748    5765+
+           5752   15939   16624   17444
CTETRA      6233       4     578     601     600    5943    1830    1834+
+           1833   13807   14658   17027
CTETRA      6234       4     397    6326     204    6341   17425    8827+
+          15980   16442    8851    8853
CTETRA      6235       4     363     617     614    5820    2267    2268+
+           1893   14115   16319   14116
CTETRA      6236       4     389    6012    1785    6014   15908   14617+
+           5632   14283    7701   13164
CTETRA      6237       4     600    5818    5817    5943   17443    7648+
+          12957   17027    7646    7649
CTETRA      6238       4     395     200     202    6021   15984     201+
+          15983   11911    7764    7765
CTETRA      6239       4     585     593     594    6136    2287    1883+
+           2285   12130   13917   12131
CTETRA      6240       4     385    1781    1797    6018    5628    5676+
+           5674   16332   15920   15130
CTETRA      6241       4     387    1784    1781    6011    5625    5629+
+           5627   13703   13702   13707
CTETRA      6242       4     652    5856     667    5860   13209   17072+
+           2054   13196    7337   12219
CTETRA      6243       4      11    5822     619    5860    7248   16779+
+          17412    7329    7328   13195
CTETRA      6244       4    1461    1462    6156    6229    4575   17465+
+          15759   14710   14714    8502
CTETRA      6245       4     725    5943    5944    5945   13806    7651+
+          14387   14388    7647    7650
CTETRA      6246       4     600     634    5817    5949    1922   12958+
+          12957   12948   12950    7668
CTETRA      6247       4     600     601    5818    5943    1834   14657+
+          17443   17027   14658    7646
CTETRA      6248       4     395    5972    1629    6021   15981   16248+
+           5115   11911    7771   15776
CTETRA      6249       4    1328    5962    5961    6732   12611    8241+
+          14553   13003   10107   10108
CTETRA      6250       4     858     860    7224    7233    2669   14852+
+          15581   14848   11903   11706
CTETRA      6251       4      39      87      40     863     557     555+
+             43    2682   17125    2683
CTETRA      6252       4     836     862     864    7226    2679    2684+
+           2686   11899   11887   11889
CTETRA      6253       4    1583    6291    1636    6295   16354   16353+
+           5145   16355    8681   16350
CTETRA      6254       4    1736    1790    1791    5999    5649    5656+
+           5655   16304   16303   16590
CTETRA      6255       4    1583    1599    6294    6295    5049   17385+
+          17220   16355   16349    8682
CTETRA      6256       4     809    7094    7093    7192   14899   11372+
+          16508   12210   11554   11562
CTETRA      6257       4     858    7231     861    7233   15583   16071+
+           2672   14848   11705   11882
CTETRA      6258       4     838    7205    7204    7221   14198   11614+
+          14200   12424   11648   11647
CTETRA      6259       4    1296    5959    6203    6207   14628    8424+
+          14477   14478    8427    8417
CTETRA      6260       4    1753    1758    1759    6115    5506    5501+
+           5509   16993   13502   13485
CTETRA      6261       4     820    7187    7201    7202   13459   11601+
+          14208   13460   11607   11608
CTETRA      6262       4     820     821     828    7201    2517    2563+
+           2564   14208   17466   14209
CTETRA      6263       4     854    7217     855    7236   15438   12429+
+           2649   15436   11719   12406
CTETRA      6264       4    1299    1300    6234    6237    4032   12933+
+          17467   15240   15241    8535
CTETRA      6265       4     821    7200     822    7201   17468   16963+
+           2536   17466   11602   17469
CTETRA      6266       4     821    7186    7200    7201   14127   11590+
+          17468   17466   11600   11602
CTETRA      6267       4     828     855     840    7237    2640    2641+
+           2591   12403   12408   12404
CTETRA      6268       4    1799    1809    1808    5995    5717    5718+
+           5710   15634   17423   15628
CTETRA      6269       4     385     190     192    6018   16331     191+
+          14326   16332    7744    7743
CTETRA      6270       4     760    7182     824    7198   13476   13478+
+           2539   17290   11597   13484
CTETRA      6271       4    1283    1296    1294    5959    4006    4009+
+           3998   13531   14628   14626
CTETRA      6272       4    1812    1816    6089    6101    5743   13784+
+          15160   13773   13785    8067
CTETRA      6273       4     533     800    7094    7136    2466   16509+
+          16492   16494   17105   11371
CTETRA      6274       4    1800    6071    1807    6072   15109   17439+
+           5713   17435    7979   13944
CTETRA      6275       4    1788    1792    1790    6000    5659    5657+
+           5651   16581   16588   16582
CTETRA      6276       4     762     790    7162    7181    2416   12908+
+          12907   12356   12355   11533
CTETRA      6277       4     761     762     825    7181    2415    2552+
+           2551   12354   12356   14991
CTETRA      6278       4     789    7162     791    7178   12909   17291+
+           2422   12914   11526   16949
CTETRA      6279       4     533     535     763    7179     534    2410+
+           2409   17102   17096   16770
CTETRA      6280       4     780    7084    7083    7167   14360   11357+
+          14915   17470   11473   11474
CTETRA      6281       4     767     780    7083    7167    2359   14915+
+          12446   12457   17470   11474
CTETRA      6282       4    1790    1792    1791    6000    5657    5658+
+           5656   16582   16588   16591
CTETRA      6283       4    1803    6026    5992    6027   14135    7797+
+          15696   12632    7801    7800
CTETRA      6284       4    1681    1704    1701    6274    5350    5349+
+           5348   16549   16854   12569
CTETRA      6285       4     787    6980    7037    7041   17263   11068+
+          17264   15715   11071   11061
CTETRA      6286       4     787     793    6980    7041    2432   16620+
+          17263   15715   15716   11071
CTETRA      6287       4     595     608    6081    6125    1850   16256+
+          14086   12125   16221    8188
CTETRA      6288       4     766     783     782    7168    2372    2375+
+           2367   16447   15703   17315
CTETRA      6289       4    1753    6106    1761    6114   16761   17333+
+           5532   15284    8126   15285
CTETRA      6290       4     772    7084    7085    7131   14916   11351+
+          16360   14362   11350   11352
CTETRA      6291       4     760     784    7182    7183    2380   13475+
+          13476   17289   15057   11552
CTETRA      6292       4     766     799     796    7171    2457    2458+
+           2440   12564   12439   13930
CTETRA      6293       4    1663    6039    6038    6041   14558    7865+
+          14099   12168    7883    7882
CTETRA      6294       4     381     383     188    5986     382   14300+
+          12159   12158   12445    7942
CTETRA      6295       4     750    7098    7149    7151   17471   11429+
+          17472   17473   11431   11424
CTETRA      6296       4    1753    6107    6106    6115   17402    8121+
+          16761   16993    8129    8128
CTETRA      6297       4     395     202     204    5972   15983     203+
+          15979   15981    7769    7770
CTETRA      6298       4     750     884     911    7098    2804    2806+
+           2796   17471   16481   15869
CTETRA      6299       4    1669    1768    1766    6063    5567    5563+
+           5565   12605   16603   17380
CTETRA      6300       4    1766    6065    6063    6066   16336    7953+
+          17380   17202    7955    7958
CTETRA      6301       4     582    1768    6062    6066    5558   11915+
+          11914   15917   17203    7959
CTETRA      6302       4    1766    6063    1768    6066   17380   16603+
+           5563   17202    7958   17203
CTETRA      6303       4     749     750    7149    7152    2311   17472+
+          17474   15058   17475   11442
CTETRA      6304       4    1664    1665    1775    5988    5294    5596+
+           5598   17434   17476   17407
CTETRA      6305       4    1667    1713    5984    6053    5383   12667+
+          13692   11833   14144    7909
CTETRA      6306       4     385     192     190    6311   14326     191+
+          16331   14429    8746    8747
CTETRA      6307       4     375    5996    1810    6074   14518   15638+
+           5722   14519    7971   16621
CTETRA      6308       4     882    7126     912    7129   15065   15073+
+           2812   16097   11338   15861
CTETRA      6309       4     884    7143    7099    7151   15050   11406+
+          16480   16482   11427   11428
CTETRA      6310       4     373     375    1805    6074     374    5726+
+           5727   15289   14519   15935
CTETRA      6311       4     809    7093     810    7192   16508   17463+
+           2507   12210   11562   12181
CTETRA      6312       4     835     836     864    7228    2584    2686+
+           2687   14602   11900   11901
CTETRA      6313       4     892     899     898    6984    2740    2741+
+           2733   16359   14966   16363
CTETRA      6314       4     888     898    6984    6985    2742   16363+
+          17218   16489   17131   10912
CTETRA      6315       4     888    6985    6984    7095   16489   10912+
+          17218   16414   11310   11313
CTETRA      6316       4     375     377     182    6067     376   15295+
+          14517   15856   15296    7963
CTETRA      6317       4     383    1797    1798    6003    5675    5686+
+           5685   13708   15129   14655
CTETRA      6318       4     515     742    7073    7080    2393   14075+
+          14074   14067   14085   11208
CTETRA      6319       4     517     324    7039    7080   14088   11056+
+          13423   13424   11212   11214
CTETRA      6320       4     870    7003     871    7004   15886   14943+
+           2751   15811   10978   15814
CTETRA      6321       4     383     385     190    6311     384   16331+
+          13709   16971   14429    8747
CTETRA      6322       4    1716    1717    6309    6322    5404   12879+
+          14498   13662   15396    8799
CTETRA      6323       4     878     879     930    7023    2774    2880+
+           2883   12340   14433   12341
CTETRA      6324       4     383     190    5986    6311   13709    8764+
+          12445   16971    8747    8765
CTETRA      6325       4     885    7008     903    7017   15395   15570+
+           2761   15578   10946   15575
CTETRA      6326       4     377    5996     184    6032   12616    7825+
+          15294   12617    7827    7817
CTETRA      6327       4    1808    6031    5995    6032   15636    7821+
+          15628   12618    7820    7822
CTETRA      6328       4     383    5986    1706    6311   12445   12148+
+           5361   16971    8765   12150
CTETRA      6329       4    1411    1412    1453    6145    4421    4605+
+           4606   14011   15606   13119
CTETRA      6330       4    1113    6881    6882    6887   14284   10593+
+          15291   14286   10592   10594
CTETRA      6331       4    1112    6881    6887    6910   13508   10592+
+          13664   13509   10599   10587
CTETRA      6332       4     379    1768    1669    6062    5568    5567+
+           5369   15302   11915   16602
CTETRA      6333       4     873     874    1102    6948    2861    3420+
+           3421   17477   16825   17211
CTETRA      6334       4    1454    6194    1490    6195   13651   15970+
+           4690   13555    8372   13587
CTETRA      6335       4     873    6882    6883    6948   17134   10782+
+          17478   17477   10778   10780
CTETRA      6336       4    1103    6947    6887    6948   17235   10772+
+          13665   17212   10792   10779
CTETRA      6337       4     131    6097    1820    6098   15622   14089+
+           5767   15125    8053   14091
CTETRA      6338       4    1482    6139    6368    6370   17391    8899+
+          13723   15209    8909    8910
CTETRA      6339       4     641    5838    5837    5951   12608    7405+
+          13734   13733    7687    7693
CTETRA      6340       4    1129    6898    6899    6916   12209   10644+
+          14803   12190   10642   10645
CTETRA      6341       4    1101    1128    6903    6916    3535   13978+
+          12183   12185   12189   10650
CTETRA      6342       4    1027    1028    6917    6929    3247   14799+
+          14797   17213   17215   10703
CTETRA      6343       4    1028    6917    6929    6930   14799   10703+
+          17215   16796   10713   10714
CTETRA      6344       4    1481    6365    6366    6370   15276    8914+
+          15279   14785    8911    8907
CTETRA      6345       4    1100    1116    1101    6903    3476    3475+
+           3477   13327   13326   12183
CTETRA      6346       4    1025    6892    1058    6912   13366   13337+
+           3282   13362   10613   13363
CTETRA      6347       4     590     598     599    6092    2272    1973+
+           2270   12397   12396   15390
CTETRA      6348       4    1022    1060    1023    6967    3308    3310+
+           3309   16028   16510   15309
CTETRA      6349       4    1455    6193    1490    6194   15413   13588+
+           4691   13571    8366   15970
CTETRA      6350       4    1024    1025    1116    6891    3285    3469+
+           3468   13358   13365   16409
CTETRA      6351       4     637    5839    5947    5954   12635    7686+
+          17445   17479   11776   11777
CTETRA      6352       4     493    6970     300    6973   12114   10873+
+          17200   16157   10875   10867
CTETRA      6353       4    1131    6899    6898    6917   14804   10644+
+          14796   14798   10674   10675
CTETRA      6354       4    1026    1058    6897    6912    3286   13372+
+          13376   13364   13363   10621
CTETRA      6355       4    1483    6368    6138    6369   13641    8898+
+          16374   13642    8900    8894
CTETRA      6356       4    1241    1243    1242    6802    3863    3862+
+           3864   14204   15779   14205
CTETRA      6357       4    1758    6116    6115    6124   13503    8135+
+          13502   17002    8159    8163
CTETRA      6358       4     475     282    6800    6803   16895   10272+
+          16893   17160   10284   10286
CTETRA      6359       4     471     280     278    6801   17087     279+
+          12645   14775   10269   10270
CTETRA      6360       4    1681    6274    6273    6282   16549    8600+
+          14693   16749    8622    8630
CTETRA      6361       4    1454    6184    1469    6194   13650   13909+
+           4604   13651    8364   13572
CTETRA      6362       4    1275    1321    1286    6743    4130    4129+
+           4127   13211   12081   12080
CTETRA      6363       4    1737    1789    1790    6034    5646    5650+
+           5648   16309   16939   16306
CTETRA      6364       4    1275    6736    6735    6743   16707   10123+
+          15267   13211   10141   10140
CTETRA      6365       4    1779    5989    6037    6039   14561    7849+
+          14564   14559    7857    7860
CTETRA      6366       4    1288    6742    6741    6750   16714   10153+
+          12310   15135   10175   10176
CTETRA      6367       4    1800    1801    1807    6071    5694    5716+
+           5713   15109   15113   17439
CTETRA      6368       4    1287    6526    6742    6751   13314   10156+
+          13208   17351   10179   10180
CTETRA      6369       4    1688    6019    5975    6022   17222    7758+
+          16665   15950    7774    7776
CTETRA      6370       4    1659    1783    1786    6009    5636    5640+
+           5638   15978   16313   15972
CTETRA      6371       4    1285    1288    6741    6752    3974   12310+
+          13221   17271   15136   10189
CTETRA      6372       4    1287    6742    6750    6751   13208   10175+
+          17480   17351   10180   10181
CTETRA      6373       4    1287    1290    1288    6742    3980    3973+
+           3982   13208   12322   16714
CTETRA      6374       4    1270    1388    1387    6622    4364    4374+
+           4357   16887   17442   16402
CTETRA      6375       4    1440    1445    1441    6700    4512    4508+
+           4515   14734   14729   15916
CTETRA      6376       4    1500    6168    6172    6176   12459    8232+
+          12720   12716    8251    8254
CTETRA      6377       4     417    6388     224    6392   16432    9012+
+          16261   16270    9027    9029
CTETRA      6378       4    1186    6694    1443    6708   13180   13173+
+           4499   13168   10029   12004
CTETRA      6379       4    1577    6358    6357    6389   11962    8962+
+          11961   16431    9008    9010
CTETRA      6380       4    1749    1762    6068    6109    5534   14622+
+          16245   14623   14625    8095
CTETRA      6381       4    1686    6022    5976    6023   15949    7778+
+          16664   13841    7780    7782
CTETRA      6382       4    1435    1447    1438    5969    4522    4529+
+           4526   16546   13175   16541
CTETRA      6383       4    1790    6000    5999    6034   16582    7735+
+          16303   16306    7844    7852
CTETRA      6384       4    1684    5977    5976    6285   13112    7783+
+          13839   13113    8624    8626
CTETRA      6385       4    1765    6117    6118    6122   12264    8146+
+          14586   12258    8141    8145
CTETRA      6386       4    1438    5969    1447    6693   16541   13175+
+           4529   16277    9973   13176
CTETRA      6387       4    1753    1759    1754    6107    5509    5505+
+           5510   17402   12939   13013
CTETRA      6388       4    1204    6515    6516    6541   14888    9457+
+          12090   14890    9456    9453
CTETRA      6389       4    1204    1205    1254    6515    3808    3907+
+           3904   14888   12101   14813
CTETRA      6390       4    1247    1252    6637    6644    3896   14374+
+          16548   14879   14882    9766
CTETRA      6391       4    1601    1612    1602    6428    5032    5044+
+           5045   13874   16428   14443
CTETRA      6392       4    1229    6650    6517    6651   13048    9797+
+          15769   13049    9798    9793
CTETRA      6393       4    1375    6670    6669    6673   16166    9891+
+          16386   13037    9898    9897
CTETRA      6394       4    1752    6114    6121    6123   15283    8143+
+          13803   17430    8148    8150
CTETRA      6395       4    1752    1758    6115    6123    5507   13502+
+          16992   17430   17431    8149
CTETRA      6396       4    1752    1753    6114    6115    5508   15284+
+          15283   16992   16993    8130
CTETRA      6397       4    1349    6579    6580    6582   17009    9607+
+          16299   17010    9605    9586
CTETRA      6398       4    1612    6401    6250    6428   16422    9118+
+          14473   16428    9117    9120
CTETRA      6399       4    1526    1547    6354    6355    4849   17354+
+          15835   15825   15943    8987
CTETRA      6400       4    1525    6491    1546    6494   12301   15944+
+           4846   13281    9370   15202
CTETRA      6401       4    1398    1653    6393    6458    5209   15544+
+          16252   16251   16259    9249
CTETRA      6402       4    1627    6429    6425    6430   13997    9142+
+          16004   13996    9138    9141
CTETRA      6403       4     588    6080     597    6102   12390   12410+
+           2276   12391    8080   12409
CTETRA      6404       4     409     216     411    6433   16976   16674+
+            410   14674    9155   14670
CTETRA      6405       4     415    1398    1653    6393    4462    5209+
+           5208   16253   16252   15544
CTETRA      6406       4    1622    6426    1627    6429   14005   16001+
+           5112   13999    9132   13997
CTETRA      6407       4    1758    6123    1760    6124   17431   16640+
+           5516   17002    8162   13130
CTETRA      6408       4    1758    6115    6123    6124   13502    8149+
+          17431   17002    8163    8162
CTETRA      6409       4     586     595     587    6134    2280    2278+
+           2281   14083   12126   13133
CTETRA      6410       4     407     214     216    6402   16973     215+
+          16974   15402    9103    9104
CTETRA      6411       4    1644    6403    6421    6422   17378    9100+
+          16835   17171    9102    9097
CTETRA      6412       4     409    6402     216    6433   14673    9104+
+          16976   14674    9157    9155
CTETRA      6413       4     606     612     610    6133    1885    1882+
+           1878   14418   14419   14404
CTETRA      6414       4    1623    6425    6426    6427   16003    9122+
+          13872   14442    9112    9121
CTETRA      6415       4    1568    6349    1571    6391   12844   14736+
+           4958   13085    9031   13090
CTETRA      6416       4    1407    1478    1486    6375    4664    4667+
+           4655   15421   17358   15422
CTETRA      6417       4     610    6127    6129    6133   14403    8184+
+          14416   14404    8186    8177
CTETRA      6418       4     583    6043     592    6137   15934   15858+
+           2291   15853    8212   14398
CTETRA      6419       4    1455    1471    6165    6166    4612   15971+
+          15412   13570   16381    8271
CTETRA      6420       4    1480    6139    1482    6370   14780   17391+
+           4637   14781    8909   15209
CTETRA      6421       4     373    6042     180    6130   15292    7968+
+          15287   16085    8167    8166
CTETRA      6422       4    1489    6195    1490    6196   15411   13587+
+           4687   13737    8378   13589
CTETRA      6423       4    1478    1493    6143    6362    4701   15609+
+          17390   17349   12066    8939
CTETRA      6424       4    1549    6381    6380    6384   17481    8980+
+          16915   16838    8988    8998
CTETRA      6425       4    1407    6361    1478    6375   17482   17483+
+           4664   15421    8942   17358
CTETRA      6426       4    1406    1478    1407    6361    4665    4664+
+           4666   16911   17483   17482
CTETRA      6427       4    1405    6380    6381    6383   17484    8980+
+          14019   15611    8976    8979
CTETRA      6428       4    1412    6145    6146    6186   15606    8331+
+          16379   13918    8327    8330
CTETRA      6429       4    1181    6159    1330    6171   17485   17032+
+           4164   16567    8220   16281
CTETRA      6430       4    1671    5982    6265    6325   15863    8564+
+          15865   12663    8803    8804
CTETRA      6431       4    1706    5985    1712    6312   12149   12872+
+           5378   17462    8762   12873
CTETRA      6432       4    1672    6264    6320    6323   16275    8790+
+          16265   16267    8788    8792
CTETRA      6433       4    1722    6339    6344    6346   11928    8881+
+          11930   15378    8883    8882
CTETRA      6434       4    1411    1412    6145    6146    4421   15606+
+          14011   16712   16379    8331
CTETRA      6435       4    1671    1714    5983    6325    5389   12676+
+          14291   12663   12665    8805
CTETRA      6436       4    1403    1423    1411    6356    4417    4420+
+           4414   17305   17303   14010
CTETRA      6437       4    1718    6344    6321    6346   17186    8873+
+          15379   15377    8882    8884
CTETRA      6438       4    1426    6212    6213    6214   12031    8456+
+          17486   12032    8452    8455
CTETRA      6439       4    1719    6346    6320    6347   13871    8885+
+          13870   14681    8891    8892
CTETRA      6440       4    1727    1729    1728    6332    5452    5448+
+           5453   15370   12661   12659
CTETRA      6441       4    1727    1731    6326    6327    5460   17426+
+          16247   16246   16958    8829
CTETRA      6442       4    1457    1472    6170    6178    4623   13880+
+          15760   14452   14451    8277
CTETRA      6443       4    1469    1470    6154    6184    4597   13755+
+          13754   13909   13902    8316
CTETRA      6444       4    1279    6241    6215    6242   14830    8555+
+          16726   14831    8561    8562
CTETRA      6445       4    1517    6441    6442    6452   16695    9223+
+          14389   14411    9222    9224
CTETRA      6446       4    1511    6253    6304    6319   13239    8721+
+          17343   13241    8783    8784
CTETRA      6447       4    1510    6253    6252    6438   13238    8785+
+          13242   13237    9182    9183
CTETRA      6448       4    1566    6451    6443    6452   14726    9221+
+          14730   14412    9226    9225
CTETRA      6449       4    1414    1468    6211    6223    4587   17321+
+          17320   17487   17192    8486
CTETRA      6450       4    1635    6245    6244    6415   17181    8680+
+          17182   17377    9050    9053
CTETRA      6451       4    1631    1635    1632    6415    5137    5139+
+           5138   13608   17377   17376
CTETRA      6452       4    1597    6246    1598    6411   14694   14157+
+           5102   12816    9052   16243
CTETRA      6453       4    1596    1640    6405    6419    5171   17185+
+          13011   11936   13612    9076
CTETRA      6454       4    1637    1641    1642    6410    5164    5168+
+           5166   13591   13590   13603
CTETRA      6455       4    1634    6243    6244    6290   13771    8676+
+          17364   15697    8660    8673
CTETRA      6456       4    1631    6245    1635    6415   16242   17181+
+           5137   13608    9050   17377
CTETRA      6457       4    1582    5974    6290    6291   17223    8665+
+          17224   16352    8664    8666
CTETRA      6458       4    1494    1495    1496    6188    4713    4720+
+           4716   11981   11987   11982
CTETRA      6459       4     393     200     395    6021   16554   15984+
+            394   11910    7764   11911
CTETRA      6460       4    1475    1487    1476    6192    4670    4669+
+           4671   16276   11976   14753
CTETRA      6461       4    1586    6270    6269    6300   14043    8619+
+          15169   14044    8706    8705
CTETRA      6462       4    1499    6167    6180    6181   14173    8285+
+          14169   12468    8295    8296
CTETRA      6463       4    1180    6158    6157    6242   17029    8223+
+          14832   15763    8558    8557
CTETRA      6464       4    1419    1425    1424    6199    4442    4441+
+           4440   16925   12021   17301
CTETRA      6465       4    1333    6215    6158    6242   16851    8460+
+          17028   16727    8562    8558
CTETRA      6466       4    1424    6149    6148    6467   15087    8387+
+          15440   12758    9278    9277
CTETRA      6467       4    1181    6158    6159    6171   16566    8219+
+          17485   16567    8218    8220
CTETRA      6468       4    1424    6148    6149    6199   15440    8387+
+          15087   17301    8386    8383
CTETRA      6469       4    1474    6161    1488    6189   16027   16272+
+           4676   16273    8332   14701
CTETRA      6470       4    1474    1488    1475    6189    4676    4679+
+           4681   16273   14701   14700
CTETRA      6471       4    1468    6211    6223    6231   17321    8486+
+          17192   17191    8509    8510
CTETRA      6472       4    1415    6223    6210    6225   14055    8483+
+          14058   12746    8485    8484
CTETRA      6473       4    1413    1414    1459    6211    4447    4585+
+           4588   17441   17320   17322
CTETRA      6474       4    1414    6210    6211    6212   16724    8441+
+          17320   16723    8440    8439
CTETRA      6475       4    1470    6184    6185    6186   13902    8321+
+          13107   13110    8320    8322
CTETRA      6476       4    1421    1423    6147    6152    4427   12772+
+          17488   17489   17490    8325
CTETRA      6477       4    1430    1431    6198    6202    4490   17491+
+          17492   16885   17242    8403
CTETRA      6478       4    1412    1421    1413    6152    4429    4431+
+           4430   13104   17489   13105
CTETRA      6479       4    1413    6211    6153    6212   17441    8437+
+          16735   12038    8439    8435
CTETRA      6480       4    1532    6460    6459    6466   17368    9257+
+          16782   17493    9268    9267
CTETRA      6481       4    1571    6389    1579    6391   14413   12832+
+           4988   13090    9025   13087
CTETRA      6482       4    1563    6444    1565    6445   16980   14723+
+           4935   17204    9201   16369
CTETRA      6483       4    1429    6150    6151    6200   14740    8395+
+          14742   17280    8389    8394
CTETRA      6484       4    1419    6150    1429    6201   16847   14740+
+           4477   16927    8388   17313
CTETRA      6485       4    1427    6151    6150    6464   14737    8395+
+          14741   14738    9266    9270
CTETRA      6486       4    1537    6471    6481    6495   13550    9345+
+          13552   15212    9378    9379
CTETRA      6487       4    1400    1531    1532    6460    4749    4751+
+           4748   15828   16900   17368
CTETRA      6488       4    1430    6201    6200    6202   17314    8390+
+          16882   16885    8405    8408
CTETRA      6489       4    1413    1459    1470    6153    4588    4596+
+           4599   16735   17440   14778
CTETRA      6490       4    1490    6194    6193    6195   15970    8366+
+          13588   13587    8372    8382
CTETRA      6491       4    1539    1540    1541    6474    4822    4823+
+           4815   17229   14392   14393
CTETRA      6492       4    1503    6459    1532    6462   14977   16782+
+           4746   15018    9251   17370
CTETRA      6493       4    1420    6149    1424    6466   15827   15087+
+           4434   16996    9279   15086
CTETRA      6494       4    1414    6211    6210    6223   17320    8441+
+          16724   17487    8486    8483
CTETRA      6495       4    1459    6211    1468    6231   17322   17321+
+           4586   17494    8509   17191
CTETRA      6496       4     429    1483     431    6369    4639    4642+
+            430   12863   13642   12854
CTETRA      6497       4    1467    6222    6223    6225   12748    8494+
+          14054   14056    8493    8485
CTETRA      6498       4     439    6205    1303    6240   13098   16730+
+           4042   13099    8546   13952
CTETRA      6499       4    1425    1426    6213    6214    4450   17486+
+          12020   12022   12032    8455
CTETRA      6500       4    1431    6197    6198    6202   17308    8402+
+          17491   17242    8401    8403
CTETRA      6501       4    1416    1466    6222    6226    4577   12595+
+          12747   12607   12596    8495
CTETRA      6502       4    1467    6223    6222    6232   14054    8494+
+          12748   17201    8518    8513
CTETRA      6503       4    1538    1541    1540    6470    4824    4823+
+           4812   15077   14391   12528
CTETRA      6504       4     425    1428    6197    6224    4483   17495+
+          17195   13638   12106    8479
CTETRA      6505       4    1418    1425    1419    6199    4451    4442+
+           4452   12028   12021   16925
CTETRA      6506       4    1414    1426    1417    6210    4448    4457+
+           4454   16724   12030   17334
CTETRA      6507       4    1449    6688    1451    6689   15428   15427+
+           4551   16542    9954   15431
CTETRA      6508       4    1463    6222    6227    6232   17194    8511+
+          12576   14707    8513    8512
CTETRA      6509       4    1436    5970    1484    6182   17323   16201+
+           4646   17496    8306   17395
CTETRA      6510       4    1465    6228    6229    6230   16989    8506+
+          14709   14712    8505    8504
CTETRA      6511       4    1436    1484    1479    6182    4646    4645+
+           4644   17496   17395   17437
CTETRA      6512       4    1460    1469    6154    6155    4598   13754+
+          17497   17498   16382    8268
CTETRA      6513       4    1479    6183    6182    6191   16279    8313+
+          17437   14766    8341    8343
CTETRA      6514       4    1462    1472    6156    6157    4614   15770+
+          17465   15761   13878    8229
CTETRA      6515       4     605    5825    6129    6130   14187    8164+
+          14178   14180    8169    8170
CTETRA      6516       4    1180    1181    6157    6158    4178   14833+
+          14832   17029   16566    8223
CTETRA      6517       4     371     373     180    6130     372   15287+
+          14189   14188   16085    8166
CTETRA      6518       4    1464    6231    1468    6232   16988   17191+
+           4590   14708    8519   17193
CTETRA      6519       4    1800    5994    6071    6072   17499    7978+
+          15109   17435    7976    7979
CTETRA      6520       4    1800    5994    5993    6071   17499    7838+
+          15107   15109    7978    7988
CTETRA      6521       4    1801    1807    6071    6075    5716   17439+
+          15113   13786   11823    8104
CTETRA      6522       4    1800    1809    5994    6072    5714   17424+
+          17499   17435   16622    7976
CTETRA      6523       4    1809    5995    5994    6072   17423    7824+
+          17424   16622    7977    7976
CTETRA      6524       4    1814    6087    6083    6088   11830    8009+
+          16624   13781    8011    8008
CTETRA      6525       4    1766    6060    6063    6065   13816    7944+
+          17380   16336    7952    7953
CTETRA      6526       4    1709    1710    6309    6312    5381   12878+
+          12877   14466   15391    8751
CTETRA      6527       4    1303    6239    6233    6240   13690    8550+
+          13689   13952    8548    8549
CTETRA      6528       4     435    1449    6689    6690    4548   16542+
+          17325   16204   12059    9952
CTETRA      6529       4    1178    6228    6227    6237   15238    8517+
+          12920   12922    8526    8529
CTETRA      6530       4    1328    1329    1331    6160    4160    4167+
+           4166   15877   16831   15878
CTETRA      6531       4     437     244     246    6240   15095     245+
+          17356   17284    8545    8544
CTETRA      6532       4     443     248     250    6208   17232     249+
+          14867   13955    8409    8410
CTETRA      6533       4    1284    6746    1292    6752   13511   17245+
+           3989   15137   10187   17275
CTETRA      6534       4    1537    6441    6440    6471   15211    9204+
+          16979   13550    9290    9289
CTETRA      6535       4    1281    1282    1331    6219    4017    4170+
+           4174   17024   15264   15882
CTETRA      6536       4    1308    1318    1320    6714    4119    4113+
+           4121   16394   16393   17317
CTETRA      6537       4    1799    1804    1800    5994    5700    5699+
+           5701   12623   12622   17499
CTETRA      6538       4    1799    5994    5995    6031   12623    7824+
+          15634   15635    7823    7821
CTETRA      6539       4    1305    6217    6216    6239   12936    8471+
+          12942   17021    8542    8543
CTETRA      6540       4    1813    6075    6076    6086   11824    8013+
+          12959   11827    8012    8014
CTETRA      6541       4    1285    6740    6747    6752   13220   10184+
+          14846   17271   10186   10185
CTETRA      6542       4    1790    1791    5999    6000    5656   16590+
+          16303   16582   16591    7735
CTETRA      6543       4    1738    5991    6026    6035   13821    7798+
+          13825   13829    7839    7842
CTETRA      6544       4    1332    6160    6218    6219   16832    8458+
+          13987   17025    8465    8476
CTETRA      6545       4    1739    1802    5992    6070    5691   15695+
+          14132   14619   15115    7991
CTETRA      6546       4    1573    6350    6451    6452   12265    9227+
+          12268   12275    9228    9226
CTETRA      6547       4    1603    1617    6248    6298    5064   14475+
+          14425   14454   14471    8695
CTETRA      6548       4    1537    6481    1543    6495   13552   13122+
+           4833   15212    9379   15116
CTETRA      6549       4    1603    6249    6288    6298   14427    8654+
+          16450   14454    8694    8697
CTETRA      6550       4    1587    1588    6271    6301    5022   11854+
+          17396   12082   12084    8711
CTETRA      6551       4    1802    1803    5992    5993    5698   15696+
+          15695   15108   12631    7833
CTETRA      6552       4    1675    1703    1676    6261    5337    5339+
+           5342   13069   13070   11860
CTETRA      6553       4    1787    1792    1788    6001    5660    5659+
+           5661   13724   16589   16463
CTETRA      6554       4     131    5956     142    6098   14160    8052+
+          11786   15125    8047    8051
CTETRA      6555       4    1679    1694    5979    6276    5319   16594+
+          14573   14664   15248    8575
CTETRA      6556       4    1588    6259    1677    6260   11852   12781+
+           5343   11853    8608   13089
CTETRA      6557       4    1676    1734    6335    6336    5472   13056+
+          11861   13082   13084    8850
CTETRA      6558       4     680    5888    5887    5901   12994    7438+
+          11803   13727    7481    7483
CTETRA      6559       4     634    5834    5948    5949   12945    7671+
+          13259   12950    7669    7667
CTETRA      6560       4    1309    1329    5962    5963    4158   17286+
+          12610   12614   14450    8243
CTETRA      6561       4     351     353     678    5903     352    2071+
+           2070   15349   15036   13756
CTETRA      6562       4     635    5834    5833    5948   12944    7390+
+          13233   13260    7671    7664
CTETRA      6563       4     669    5920     723    5921   11931   13186+
+           2257   15144    7553   13182
CTETRA      6564       4    1702    6270    6271    6283   16869    8611+
+          11856   11863    8610    8609
CTETRA      6565       4    1702    6271    6260    6283   11856    8606+
+          11855   11863    8609    8603
CTETRA      6566       4      54     668     723    5921    2262    2258+
+           2260   13171   15157   13182
CTETRA      6567       4    1683    5976    5977    6023   13838    7783+
+          13100   13842    7782    7784
CTETRA      6568       4      60     708     112    5936    2190   16619+
+           5816   17114   16618    7619
CTETRA      6569       4      62     114     113    5924    5808     127+
+           5811   14377    7575    7576
CTETRA      6570       4      60     111    5935    5936    5813    7610+
+          17113   17114    7618    7617
CTETRA      6571       4     114    5924     709    5927    7575   13534+
+          13005    7573    7577   13006
CTETRA      6572       4     687    5882    5896    5897   16604    7469+
+          16790   16598    7473    7474
CTETRA      6573       4     675    5895     694    5896   16787   16609+
+           2155   16788    7470   16818
CTETRA      6574       4     627    5849    5840    5858   13030    7350+
+          16293   13031    7353    7321
CTETRA      6575       4    1680    6273    1701    6280   14691   14696+
+           5330   15844    8589   12568
CTETRA      6576       4     673     685    5897    5898    2111   16601+
+          16605   17046   16615    7485
CTETRA      6577       4     652    5851    5850    5856   13194    7301+
+          17414   13209    7326    7327
CTETRA      6578       4    1328    5962    1329    6160   12611   17286+
+           4160   15877    8239   16831
CTETRA      6579       4     371     178     176    5825   14185     177+
+          14184   14186    7253    7252
CTETRA      6580       4     727    1821    1822    5942    5779    5789+
+           5787   12435   12436   13779
CTETRA      6581       4    1678    1690    5979    5997    5274   14574+
+          16000   15640   14567    7793
CTETRA      6582       4     405     407     214    6307     406   16973+
+          16677   16679   16690    8732
CTETRA      6583       4    1550    6255    6305    6306   17344    8724+
+          16559   16558    8723    8725
CTETRA      6584       4    1817    6084    5938    6085   13747    7997+
+          13745   16940    7999    7996
CTETRA      6585       4    1567    6443    6444    6446   14733    9207+
+          16981   14720    9206    9202
CTETRA      6586       4     174    5942     725    5944    7654   13780+
+          12188    7655    7653   14387
CTETRA      6587       4    1737    6035    6036    6037   13827    7855+
+          12742   12744    7851    7856
CTETRA      6588       4    1737    1738    6026    6035    5606   13825+
+          13824   13827   13829    7842
CTETRA      6589       4    1736    1737    1790    6034    5617    5648+
+           5649   16305   16309   16306
CTETRA      6590       4    1328    5961    5962    6160   14553    8241+
+          12611   15877    8240    8239
CTETRA      6591       4    1778    1780    1779    6037    5618    5620+
+           5619   14563   12745   14564
CTETRA      6592       4    1736    1737    6034    6036    5617   16309+
+          16305   14554   12742    7854
CTETRA      6593       4    1683    1686    1684    5976    5253    5255+
+           5254   13838   16664   13839
CTETRA      6594       4    1646    6431    1649    6435   15620   13847+
+           5206   16754    9163   13845
CTETRA      6595       4    1680    1689    6272    6279    5269   14688+
+          14687   14690   14689    8583
CTETRA      6596       4    1510    6438    1514    6448   13237   13236+
+           4804   12544    9184   12545
CTETRA      6597       4    1660    1661    1791    6008    5251    5653+
+           5654   15953   16630   16651
CTETRA      6598       4    1750    1778    1777    5990    5601    5603+
+           5602   13820   14643   14650
CTETRA      6599       4    1683    6008    6023    6024   15952    7789+
+          13842   15999    7788    7790
CTETRA      6600       4     409     411    1650    6433     410    5200+
+           5199   14674   14670   14668
CTETRA      6601       4     373    1805    1817    6085    5727    5752+
+           5751   15936   15937   16940
CTETRA      6602       4    1760    6123    6120    6124   16640    8160+
+          13127   13130    8162    8155
CTETRA      6603       4    1755    6120    6079    6124   13128    8156+
+          12389   13129    8155    8154
CTETRA      6604       4    1752    6121    1760    6123   13803   14077+
+           5515   17430    8150   16640
CTETRA      6605       4    1513    6303    6302    6314   16689    8743+
+          14032   13901    8773    8776
CTETRA      6606       4    1761    1763    6105    6106    5533   16237+
+          15717   17333   14632    8116
CTETRA      6607       4     585    6118    6117    6136   16456    8146+
+          12263   12130    8209    8215
CTETRA      6608       4     583    6044    6043    6137   16638    7965+
+          15934   15853    8210    8212
CTETRA      6609       4     586    1751    6118    6119    5511   14587+
+          15233   14084   16289    8152
CTETRA      6610       4    1608    6257    6252    6319   13861    8651+
+          13856   13855    8782    8781
CTETRA      6611       4    1751    6119    1760    6121   16289   14644+
+           5512   13802    8151   14077
CTETRA      6612       4     587    6080    1755    6120   13131   16278+
+           5493   13132    8198   13128
CTETRA      6613       4     595    6081     596    6134   14086   16257+
+           1851   12126    8195   14637
CTETRA      6614       4    1666    1667    1771    6056    5387    5580+
+           5582   11834   11835   11843
CTETRA      6615       4     603     631    6094    6104    1908   12978+
+          16612   16219   16213    8093
CTETRA      6616       4     628    5841    5842    5859   15675    7324+
+          15324   15326    7323    7317
CTETRA      6617       4    1760    6121    6119    6123   14077    8151+
+          14644   16640    8150    8153
CTETRA      6618       4    1590    1591    1732    6315    4995    5461+
+           5462   15204   12555   16255
CTETRA      6619       4    1591    1732    6315    6330    5461   16255+
+          12555   12557   12560    8814
CTETRA      6620       4    1727    1729    6332    6341    5452   12661+
+          15370   17411   14024    8852
CTETRA      6621       4    1667    1769    1771    6056    5574    5581+
+           5580   11835   15942   11843
CTETRA      6622       4    1727    1733    6327    6332    5466   15371+
+          16246   15370   15369    8841
CTETRA      6623       4    1733    6328    6327    6337   13071    8824+
+          15371   15368    8848    8843
CTETRA      6624       4    1729    6332    6341    6342   12661    8852+
+          14024   12662    8859    8860
CTETRA      6625       4    1667    6060    6056    6061   14551    7934+
+          11835   13694    7936    7926
CTETRA      6626       4     399     206    6326    6331   17172    8826+
+          17422   16868    8822    8828
CTETRA      6627       4    1638    1645    6409    6417    5182   17388+
+          17393   13580   14459    9067
CTETRA      6628       4    1731    6327    1732    6330   16958   12558+
+           5465   16264    8823   12560
CTETRA      6629       4     399    1727    1731    6326    5451    5460+
+           5459   17422   16247   17426
CTETRA      6630       4     399    6326    1731    6331   17422   17426+
+           5459   16868    8828   16957
CTETRA      6631       4     397    1633    1629    5972    5131    5130+
+           5116   15982   17500   16248
CTETRA      6632       4     401    1638    6412    6417    5152   13579+
+          13581   13583   13580    9061
CTETRA      6633       4    1715    6344    1723    6345   17501   11902+
+           5421   14965    8878   11894
CTETRA      6634       4    1667    1668    6060    6061    5375   12592+
+          14551   13694   12593    7936
CTETRA      6635       4    1667    1769    6056    6060    5574   15942+
+          11835   14551   13817    7934
CTETRA      6636       4    1666    6053    6054    6055   11832    7911+
+          11842   15941    7907    7910
CTETRA      6637       4     389     196    6310    6345   14401    8756+
+          14358   15569    8874    8876
CTETRA      6638       4    1711    6321    1716    6324   15386   13661+
+           5408   12674    8795   13663
CTETRA      6639       4    1665    1773    1775    6050    5590    5597+
+           5596   15304   15306   17403
CTETRA      6640       4    1771    6054    6056    6058   11841    7921+
+          11843   11844    7924    7916
CTETRA      6641       4    1695    5981    5982    5987   14096    7869+
+          15866   16298    7866    7870
CTETRA      6642       4    1667    6053    5984    6061   11833    7909+
+          13692   13694    7925    7927
CTETRA      6643       4    1665    1670    1666    6055    5295    5297+
+           5296   15305   14544   15941
CTETRA      6644       4    1710    1716    1717    6309    5406    5404+
+           5407   12878   14498   12879
CTETRA      6645       4    1715    6322    6344    6345   14964    8872+
+          17501   14965    8877    8878
CTETRA      6646       4    1715    6322    1718    6344   14964   17420+
+           5417   17501    8872   17186
CTETRA      6647       4    1700    6262    6263    6281   12578    8592+
+          12581   12897    8591    8590
CTETRA      6648       4    1581    1630    1628    6020    5125    5120+
+           5127   13762   12261   13775
CTETRA      6649       4    1771    6057    1772    6058   13801   11847+
+           5584   11844    7915   11845
CTETRA      6650       4     389     391    1785    6012     390    5634+
+           5632   15908   15374   14617
CTETRA      6651       4    1580    6004    6005    6012   11874    7722+
+          17346   15375    7721    7718
CTETRA      6652       4     395     397     204    6341     396   15980+
+          15979   15986   16442    8853
CTETRA      6653       4     393     200     198    6338   16554     199+
+          11897   11867    8868    8869
CTETRA      6654       4    1580    1581    6005    6020    5126   17384+
+          17346   15772   13762    7759
CTETRA      6655       4    1581    1688    1658    6019    5240    5237+
+           5235   13761   17222   17421
CTETRA      6656       4    1715    1718    1723    6344    5417    5425+
+           5421   17501   17186   11902
CTETRA      6657       4     391     198     393    6004   11895   11897+
+            392   11872    7719   11873
CTETRA      6658       4     393    1630    6004    6021    5118   15655+
+          11873   11910   11912    7762
CTETRA      6659       4    1580    1581    1658    6005    5126    5235+
+           5236   17346   17384   17339
CTETRA      6660       4     395     202    5972    6021   15983    7769+
+          15981   11911    7765    7771
CTETRA      6661       4    1659    6019    1688    6022   17427   17222+
+           5239   15948    7774   15950
CTETRA      6662       4    1555    6364    6371    6372   13719    8921+
+          13718   12855    8923    8918
CTETRA      6663       4    1648    6404    6405    6418   16866    9093+
+          16865   17502    9090    9079
CTETRA      6664       4    1642    6410    6418    6419   13603    9072+
+          13610   13613    9074    9073
CTETRA      6665       4    1519    1520    1576    6387    4856    4962+
+           4964   15235   15232   13623
CTETRA      6666       4    1646    1648    1647    6431    5191    5190+
+           5192   15620   15621   17372
CTETRA      6667       4    1594    1595    1648    6423    5111    5196+
+           5195   16348   16005   15619
CTETRA      6668       4    1796    1798    6002    6029    5683   16327+
+          13712   16467   14595    7809
CTETRA      6669       4    1633    1639    6413    6414    5163   13585+
+          17366   16744   17304    9044
CTETRA      6670       4    1608    1610    1609    6317    4997    5002+
+           5003   13862   13864   13863
CTETRA      6671       4    1781    6017    1797    6018   15919   16461+
+           5676   15920    7746   15130
CTETRA      6672       4     431    1483    5971    6369    4642   16862+
+          13657   12854   13642    8893
CTETRA      6673       4    1632    1635    1634    6244    5139    5144+
+           5135   17363   17182   17364
CTETRA      6674       4    1632    6244    6413    6415   17363    9043+
+          13584   17376    9053    9054
CTETRA      6675       4    1797    6017    6002    6018   16461    7747+
+          13713   15130    7746    7748
CTETRA      6676       4    1583    1599    1584    6294    5049    5046+
+           5050   17220   17385   16661
CTETRA      6677       4    1634    6244    1636    6290   17364   17503+
+           5151   15697    8673   17225
CTETRA      6678       4    1598    1599    1635    6245    5061    5143+
+           5142   15842   17180   17181
CTETRA      6679       4    1582    5975    5974    6291   16656    7757+
+          17223   16352    8662    8664
CTETRA      6680       4    1636    6290    6244    6295   17225    8673+
+          17503   16350    8675    8674
CTETRA      6681       4    1407    1558    1521    6360    4905    4904+
+           4864   13261   13256   13255
CTETRA      6682       4    1548    6379    6384    6385   15225    8982+
+          16839   17504    8993    8994
CTETRA      6683       4    1553    6365    6364    6373   13250    8922+
+          13720   13252    8928    8931
CTETRA      6684       4    1620    1622    1621    6399    5082    5084+
+           5083   15214   14004   14446
CTETRA      6685       4    1404    1547    6355    6381    4847   15943+
+          15605   14020   17332    8965
CTETRA      6686       4    1539    6439    6472    6474   14606    9282+
+          15075   17229    9284    9286
CTETRA      6687       4    1619    1620    6398    6468    5075   16969+
+          16372   16232   15215    9304
CTETRA      6688       4    1515    6440    6443    6446   14607    9203+
+          14731   12553    9194    9206
CTETRA      6689       4    1514    6439    1515    6448   16763   12552+
+           4806   12545    9186   12546
CTETRA      6690       4    1522    6486    1534    6487   13140   16174+
+           4781   12536    9348   13143
CTETRA      6691       4    1505    1506    1619    6485    4769    5074+
+           5070   12821   12820   16233
CTETRA      6692       4    1621    1627    6424    6429    5107   13994+
+          14444   13998   13997    9126
CTETRA      6693       4    1453    1491    6144    6185    4689   13536+
+          13117   13108   13553    8328
CTETRA      6694       4    1406    6362    6361    6380   12067    8944+
+          16911   12070    8974    8975
CTETRA      6695       4    1547    6381    1549    6384   17332   17481+
+           4860   16837    8988   16838
CTETRA      6696       4    1547    1548    6354    6384    4861   17355+
+          17354   16837   16839    8985
CTETRA      6697       4    1403    6355    1526    6488   15845   15825+
+           4794   15798    9358   15799
CTETRA      6698       4    1600    1613    6400    6477    5030   17505+
+          17360   17506   17507    9312
CTETRA      6699       4    1508    1613    1600    6477    5028    5030+
+           5033   17508   17507   17506
CTETRA      6700       4    1547    6354    6355    6381   17354    8987+
+          15943   17332    8986    8965
CTETRA      6701       4     681     684     683    5899    2100    2106+
+           2105   13546   16222   15311
CTETRA      6702       4    1613    6475    6401    6477   17509    9300+
+          17510   17507    9309    9311
CTETRA      6703       4    1601    6400    1613    6401   16968   17505+
+           5029   17511    9116   17510
CTETRA      6704       4    1629    1633    1634    6243    5130    5134+
+           5132   13770   17383   13771
CTETRA      6705       4     397    5972     204    6414   15982    7770+
+          15980   16742    9038    9040
CTETRA      6706       4    1639    6412    6413    6414   16879    9048+
+          13585   17304    9047    9044
CTETRA      6707       4    1638    6409    6416    6417   17393    9065+
+          13578   13580    9067    9062
CTETRA      6708       4     393     200    6338    6343   16554    8868+
+          11867   14027    8864    8870
CTETRA      6709       4    1629    5972    5973    6021   16248    7772+
+          13769   15776    7771    7768
CTETRA      6710       4    1636    6291    6290    6295   16353    8666+
+          17225   16350    8681    8675
CTETRA      6711       4    1628    1629    1634    5973    5121    5132+
+           5133   15673   13769   13768
CTETRA      6712       4    1605    1612    1613    6401    5023    5025+
+           5024   17433   16422   17510
CTETRA      6713       4    1605    6401    1613    6475   17433   17510+
+           5024   13248    9300   17509
CTETRA      6714       4    1631    1632    1637    6415    5138    5160+
+           5161   13608   17376   13604
CTETRA      6715       4    1605    6251    6401    6475   13858    9119+
+          17433   13248    9299    9300
CTETRA      6716       4     638     640    5836    5950    1962   15314+
+          13791   14175   14162    7688
CTETRA      6717       4    1601    6401    1612    6428   17511   16422+
+           5032   13874    9117   16428
CTETRA      6718       4     423     230     232    6197   16668     231+
+          16672   17307    8399    8400
CTETRA      6719       4     623     638     640    5836    1960    1962+
+           1957   12204   13791   15314
CTETRA      6720       4    1629    5973    5972    6243   13769    7772+
+          16248   13770    8658    8659
CTETRA      6721       4    1633    6243    5972    6414   17383    8659+
+          17500   16744    9039    9038
CTETRA      6722       4    1581    1582    1688    5974    5128    5241+
+           5240   13760   17223   17221
CTETRA      6723       4    1554    1557    6364    6376    4896   16671+
+          15134   16673   12833    8950
CTETRA      6724       4     622    5835    5872    5873   15662    7392+
+          14662   12382    7391    7393
CTETRA      6725       4    1556    1557    6359    6373    4901   15247+
+          17512   17513   16670    8946
CTETRA      6726       4    1574    1576    1575    6386    4967    4971+
+           4972   16185   13627   17309
CTETRA      6727       4    1592    1593    1656    6396    5077    5226+
+           5227   15837   15228   15833
CTETRA      6728       4    1592    1656    1657    6396    5227    5232+
+           5231   15837   15833   15841
CTETRA      6729       4    1595    1596    1640    6405    5100    5171+
+           5172   13012   13011   17185
CTETRA      6730       4    1592    1619    1593    6397    5069    5076+
+           5077   17230   15219   15218
CTETRA      6731       4    1594    6424    6423    6432   13993    9139+
+          16348   17429    9144    9150
CTETRA      6732       4     419     421     228    6357     420   16991+
+          11973   11952   17514    8959
CTETRA      6733       4    1593    1621    1594    6424    5078    5105+
+           5108   15220   14444   13993
CTETRA      6734       4     421    6357    1577    6377   17514   11961+
+           4973   12836    8961   11963
CTETRA      6735       4    1628    5974    5973    6290   13774    7767+
+          15673   17375    8665    8661
CTETRA      6736       4     421     228    6357    6377   16991    8959+
+          17514   12836    8955    8961
CTETRA      6737       4    1578    6358    6376    6377   12851    8956+
+          12834   12830    8958    8953
CTETRA      6738       4    1520    1556    1576    6378    4903    4963+
+           4962   15231   17515   13626
CTETRA      6739       4    1640    1642    1641    6418    5169    5168+
+           5170   13611   13610   13621
CTETRA      6740       4    1643    1647    6404    6421    5186   17399+
+          17398   16833   17401    9092
CTETRA      6741       4    1556    6360    6359    6378   13257    8949+
+          17512   17515    8989    8992
CTETRA      6742       4    1556    1558    1557    6373    4900    4899+
+           4901   17513   16511   16670
CTETRA      6743       4     409    1564     411    6256    4919    4924+
+            410   17516   16365   16368
CTETRA      6744       4    1650    1651    6402    6434    5201   15398+
+          14672   13854   13851    9154
CTETRA      6745       4    1640    1648    6405    6418    5189   16865+
+          17185   13611   17502    9079
CTETRA      6746       4    1643    6404    6418    6421   17398    9090+
+          17342   16833    9092    9091
CTETRA      6747       4     409    1550    1564    6305    4869    4918+
+           4919   17517   16559   17400
CTETRA      6748       4    1550    1559    1564    6255    4914    4922+
+           4918   17344   17341   17367
CTETRA      6749       4     407     409     216    6305     408   16976+
+          16974   16975   17517    8731
CTETRA      6750       4    1550    1551    1559    6306    4873    4913+
+           4914   16558   13886   17345
CTETRA      6751       4    1646    1656    6432    6435    5224   15834+
+          17371   16754   13846    9160
CTETRA      6752       4    1643    6418    6409    6421   17342    9075+
+          17387   16833    9091    9094
CTETRA      6753       4     409     411     216    6256     410   16674+
+          16976   17516   16368    8727
CTETRA      6754       4    1654    6394    6395    6436   15548    9176+
+          12805   15739    9175    9167
CTETRA      6755       4     409    6256     216    6305   17516    8727+
+          16976   17517    8729    8731
CTETRA      6756       4    1593    1594    1646    6432    5108    5193+
+           5194   15227   17429   17371
CTETRA      6757       4    1503    1532    1530    6462    4746    4755+
+           4752   15018   17370   16239
CTETRA      6758       4    1540    6469    6470    6473   12525    9294+
+          12528   17228    9293    9291
CTETRA      6759       4    1538    6481    6470    6487   13123    9344+
+          15077   13556    9343    9346
CTETRA      6760       4    1592    1593    6396    6397    5077   15228+
+          15837   17230   15218    9162
CTETRA      6761       4    1544    6493    1545    6494   14409   14405+
+           4843   15230    9375   13124
CTETRA      6762       4    1507    6469    1540    6473   16231   12525+
+           4808   17361    9293   17228
CTETRA      6763       4    1514    6438    1539    6439   13236   15074+
+           4805   16763    9185   14606
CTETRA      6764       4    1434    1488    6161    6183    4677   16272+
+          16547   15749   14703    8308
CTETRA      6765       4    1434    1488    1474    6161    4677    4676+
+           4675   16547   16272   16027
CTETRA      6766       4    1439    6685    6691    6693   12740    9967+
+          11988   12741    9981    9980
CTETRA      6767       4    1569    6349    6449    6451   14718    9217+
+          15740   12267    9219    9218
CTETRA      6768       4    1435    5969    6182    6183   16546    8311+
+          17518   15750    8310    8313
CTETRA      6769       4    1184    1313    1185    6711    4085    4084+
+           4086   15434   16924   14348
CTETRA      6770       4    1435    5968    5969    6183   12726    8309+
+          16546   15750    8307    8310
CTETRA      6771       4    1514    1560    1561    6448    4906    4908+
+           4907   12545   12547   12543
CTETRA      6772       4    1438    6691    6688    6693   15425    9979+
+          15426   16277    9980    9974
CTETRA      6773       4    1515    6439    6440    6446   12552    9193+
+          14607   12553    9192    9194
CTETRA      6774       4    1591    6314    6315    6318   12556    8779+
+          12555   13889    8774    8777
CTETRA      6775       4    1510    1608    1605    6252    4998    5011+
+           5010   13242   13856   13247
CTETRA      6776       4    1421    1425    1426    6213    4445    4450+
+           4449   17283   12020   17486
CTETRA      6777       4    1417    1418    1431    6198    4458    4487+
+           4486   16842   16841   17491
CTETRA      6778       4    1563    6445    6255    6447   17204    9197+
+          17340   14735    9199    9190
CTETRA      6779       4    1418    1419    1430    6201    4452    4481+
+           4482   16926   16927   17314
CTETRA      6780       4    1407    6360    6361    6374   13261    8933+
+          17482   13262    8932    8934
CTETRA      6781       4    1541    6471    6440    6474   15124    9289+
+          14609   14393    9295    9285
CTETRA      6782       4    1516    1566    1567    6443    4929    4931+
+           4930   14732   14730   14733
CTETRA      6783       4    1567    6446    6444    6447   14720    9202+
+          16981   14722    9196    9200
CTETRA      6784       4    1519    1544    1548    6352    4841    4853+
+           4855   15222   14408   15223
CTETRA      6785       4    1459    6154    6211    6231   13753    8438+
+          17322   17494    8507    8509
CTETRA      6786       4    1417    1426    1418    6214    4457    4453+
+           4458   16843   12032   12029
CTETRA      6787       4    1398    1399    6458    6464    4465   17519+
+          16251   16249   16994    9258
CTETRA      6788       4    1417    6198    1431    6209   16842   17491+
+           4486   17281    8447   17282
CTETRA      6789       4    1418    6198    6199    6201   16841    8406+
+          12028   16926    8404    8385
CTETRA      6790       4    1417    6198    6209    6214   16842    8447+
+          17281   16843    8449    8448
CTETRA      6791       4    1417    6209    6210    6214   17281    8453+
+          17334   16843    8448    8451
CTETRA      6792       4    1412    1423    1421    6152    4422    4427+
+           4429   13104   17490   17489
CTETRA      6793       4    1403    6356    6488    6490   17305    9357+
+          15798   17373    9359    9355
CTETRA      6794       4    1528    6478    6479    6484   13559    9330+
+          14153   15823    9329    9326
CTETRA      6795       4    1402    6453    6147    6490   12769    9273+
+          12770   16908    9352    9353
CTETRA      6796       4    1421    1423    1422    6147    4427    4426+
+           4428   17488   12772   12771
CTETRA      6797       4    1530    1532    1531    6462    4755    4751+
+           4756   16239   17370   17369
CTETRA      6798       4    1654    1657    1655    6395    5234    5233+
+           5223   12805   12804   12790
CTETRA      6799       4    1423    6146    6147    6152   16713    8324+
+          12772   17490    8323    8325
CTETRA      6800       4     461     268    6610    6615   15189    9714+
+          17058   15148    9719    9721
CTETRA      6801       4     463     272     465    6613   17151   17150+
+            464   17168    9706   16928
CTETRA      6802       4    1400    6460    1532    6466   15828   17368+
+           4748   15829    9268   17493
CTETRA      6803       4    1518    1519    1572    6351    4840    4954+
+           4951   12272   15242   12276
CTETRA      6804       4     463    1343    1342    6610    4217    4218+
+           4213   17059   15792   15791
CTETRA      6805       4     459     461     266    6645     460   15188+
+          17060   17063   17053    9765
CTETRA      6806       4    1546    1548    6353    6354    4854   15226+
+          15201   15200   17355    8984
CTETRA      6807       4    1331    6160    1332    6219   15878   16832+
+           4173   15882    8465   17025
CTETRA      6808       4    1587    6300    1604    6301   14045   14455+
+           5015   12082    8714   14041
CTETRA      6809       4    1280    6215    6216    6218   13986    8462+
+          13685   13688    8461    8463
CTETRA      6810       4    1327    5961    5960    6733   15881    8468+
+          13919   12802   10116   10111
CTETRA      6811       4    1369    6626    6625    6739   16033    9863+
+          14856   14857   10139   10135
CTETRA      6812       4    1323    6734    6725    6747   14851   10130+
+          12794   12796   10162   10161
CTETRA      6813       4    1764    6121    6113    6122   13804    8142+
+          13795   12257    8144    8137
CTETRA      6814       4    1509    1539    1514    6438    4799    4805+
+           4802   13235   15074   13236
CTETRA      6815       4    1572    1573    6351    6390    4953   12273+
+          12276   13624   12285    9017
CTETRA      6816       4    1509    1539    6438    6472    4799   15074+
+          13235   16859   15075    9283
CTETRA      6817       4    1560    6447    1561    6448   14721   16747+
+           4908   12547    9191   12543
CTETRA      6818       4    1605    6251    6252    6257   13858    8650+
+          13247   13859    8649    8651
CTETRA      6819       4    1601    6426    6400    6428   13873    9115+
+          16968   13874    9114    9113
CTETRA      6820       4    1508    1540    1539    6473    4810    4822+
+           4800   17337   17228   17227
CTETRA      6821       4    1586    1705    6269    6270    5353   17520+
+          15169   14043   16870    8619
CTETRA      6822       4    1274    1322    1321    6734    4126    4132+
+           4131   12075   12086   14844
CTETRA      6823       4    1586    1604    1587    6300    5018    5015+
+           5019   14044   14455   14045
CTETRA      6824       4    1679    5978    1689    6279   14571   13103+
+           5267   14665    8580   14689
CTETRA      6825       4    1324    6725    6729    6733   13518   10096+
+          13545   13519   10113   10114
CTETRA      6826       4    1282    1296    5959    6203    4007   14628+
+          15590   14483   14477    8424
CTETRA      6827       4    1586    1587    1705    6270    5019    5354+
+           5353   14043   14042   16870
CTETRA      6828       4    1402    1403    1536    6488    4419    4790+
+           4789   17169   15798   12302
CTETRA      6829       4    1753    1763    1761    6106    5531    5533+
+           5532   16761   14632   17333
CTETRA      6830       4    1272    6716    1306    6727   15271   15273+
+           4094   14849   10092   14839
CTETRA      6831       4    1308    6731    1328    6732   13008   12613+
+           4153   13002   10105   13003
CTETRA      6832       4    1619    6468    6398    6485   16232    9304+
+          16372   16233    9334    9333
CTETRA      6833       4    1422    6147    6148    6213   12771    8446+
+          15439   16755    8442    8444
CTETRA      6834       4    1401    1529    1531    6454    4763    4765+
+           4750   12752   14745   14752
CTETRA      6835       4    1312    1320    1318    6714    4112    4113+
+           4099   17521   17317   16393
CTETRA      6836       4    1312    6705    1320    6714   16534   17522+
+           4112   17521   10073   17317
CTETRA      6837       4    1530    1531    6455    6462    4756   16693+
+          15955   16239   17369    9240
CTETRA      6838       4    1312    6706    6705    6722   16533   10026+
+          16534   15278   10076   10075
CTETRA      6839       4    1402    1423    1403    6490    4418    4417+
+           4419   16908   17374   17373
CTETRA      6840       4    1475    6190    6189    6192   16274    8340+
+          14700   16276    8348    8351
CTETRA      6841       4    1752    6114    6113    6121   15283    8127+
+          13808   13803    8143    8142
CTETRA      6842       4    1493    6144    6143    6383   15610    8369+
+          15609   12069    8972    8971
CTETRA      6843       4    1312    1313    1320    6705    4089    4114+
+           4112   16534   16923   17522
CTETRA      6844       4     445    1293    1295    5957    4003    4005+
+           4004   16453   17276   16454
CTETRA      6845       4    1320    6705    6704    6714   17522   10038+
+          14555   17317   10073   10074
CTETRA      6846       4    1641    6409    6410    6416   17394    9066+
+          13590   13593    9065    9057
CTETRA      6847       4    1313    1319    1320    6704    4110    4115+
+           4114   16922   14350   14555
CTETRA      6848       4    1344    6628    6736    6744   16719   10120+
+          17298   15888   10147   10148
CTETRA      6849       4     730    1220    1190    6603    3722    3719+
+           3717   16919   15046   16905
CTETRA      6850       4    1637    6415    6413    6416   13604    9054+
+          13586   13592    9056    9059
CTETRA      6851       4    1309    1320    1319    6704    4118    4115+
+           4116   14556   14555   14350
CTETRA      6852       4    1299    1304    1305    6234    4051    4059+
+           4056   17467   12932   17035
CTETRA      6853       4    1346    6593    6527    6594   14758    9633+
+          17014   15913    9653    9640
CTETRA      6854       4    1346    1347    6527    6593    4246   17012+
+          17014   14758   14759    9633
CTETRA      6855       4    1299    6234    1305    6241   17467   17035+
+           4056   16729    8553   17030
CTETRA      6856       4    1277    6524    1350    6745   17020   14548+
+           4222   12314   10160   14550
CTETRA      6857       4     734    1214    1224    6564    3770    3772+
+           3764   13081   15933   14599
CTETRA      6858       4    1299    6234    6235    6237   17467    8536+
+          15239   15240    8535    8527
CTETRA      6859       4    1637    6413    1639    6416   13586   13585+
+           5157   13592    9059   17294
CTETRA      6860       4    1462    6157    6229    6242   15761    8503+
+          14714   15764    8557    8559
CTETRA      6861       4    1194    6549    6546    6551   12063    9437+
+          14807   12072    9432    9435
CTETRA      6862       4    1251    1255    1253    6643    3912    3913+
+           3910   12099   12100   17161
CTETRA      6863       4    1638    6409    1641    6416   17393   17394+
+           5165   13578    9065   13593
CTETRA      6864       4    1211    1228    6544    6556    3775   12733+
+          12732   17523   14901    9469
CTETRA      6865       4    1230    6516    6517    6554   12089    9460+
+          13619   14892    9454    9458
CTETRA      6866       4    1196    1229    1197    6650    3784    3787+
+           3786   13052   13048   13565
CTETRA      6867       4    1637    6410    6415    6416   13591    9055+
+          13604   13592    9057    9056
CTETRA      6868       4    1210    6544    1228    6545   12731   12733+
+           3782   15807    9436   14894
CTETRA      6869       4    1220    6603    6602    6608   15046    9680+
+          13305   16906    9703    9704
CTETRA      6870       4    1338    6608    1340    6616   15179   15037+
+           4194   13301    9731   13293
CTETRA      6871       4    1193    6547    6529    6548   12060    9402+
+          12497   12516    9409    9397
CTETRA      6872       4    1191    6608    6602    6617   15038    9704+
+          12502   15039    9735    9734
CTETRA      6873       4     968     971     969    6866    2958    2961+
+           2963   14488   15106   14486
CTETRA      6874       4     969    6870    6865    6872   16080   10555+
+          14485   16522   10561   10560
CTETRA      6875       4    1211    6544    6555    6556   12732    9470+
+          14907   17523    9469    9471
CTETRA      6876       4    1226    6539    6540    6556   17154    9476+
+          17524   14902    9475    9474
CTETRA      6877       4    1208    1236    1209    6807    3826    3831+
+           3832   16138   14514   14339
CTETRA      6878       4     461    1250     463    6640    3897    3898+
+            462   17050   17052   17525
CTETRA      6879       4    1190    6603    6608    6612   16905    9703+
+          15794   16920    9702    9705
CTETRA      6880       4    1205    6560    6541    6568   12103    9503+
+          12102   16901    9535    9534
CTETRA      6881       4     959    6501    6820    6822   12706   10349+
+          15243   14576   10345   10350
CTETRA      6882       4    1247    1248    6638    6646    3892   15922+
+          14878   16553   16550    9778
CTETRA      6883       4    1208    6508    1236    6807   14525   14527+
+           3826   16138   10323   14514
CTETRA      6884       4    1150    7050    7055    7059   14240   11129+
+          17454   14241   11131   11130
CTETRA      6885       4     945     946    1032    6832    2959    3265+
+           3266   13975   13977   15101
CTETRA      6886       4    1158    7051    7059    7060   17247   11136+
+          17326   17327   11141   11140
CTETRA      6887       4    1092    6876    6877    6914   14303   10635+
+          16504   14295   10629   10633
CTETRA      6888       4     737    6790    6789    6868   14495   10322+
+          14507   16874   10548   10547
CTETRA      6889       4    1151    1152    1158    7060    3625    3649+
+           3648   12964   12965   17327
CTETRA      6890       4    1207    1208    1261    6509    3828    3936+
+           3935   15122   15123   16137
CTETRA      6891       4    1151    7056    1153    7058   14247   14246+
+           3622   12962   11127   17256
CTETRA      6892       4    1093    6901    6876    6914   14288   10628+
+          14287   17066   10630   10629
CTETRA      6893       4    1573    6350    6351    6390   12265    9024+
+          12273   12285    9021    9017
CTETRA      6894       4    1518    1519    6351    6352    4840   15242+
+          12272   15199   15222    9018
CTETRA      6895       4    1091    1092    6876    6877    3516   14303+
+          17196   16502   16504   10635
CTETRA      6896       4    1198    1202    1249    6647    3790    3882+
+           3885   15029   15028   16720
CTETRA      6897       4    1167    6875    6876    6901   12970   10632+
+          12974   14289   10631   10628
CTETRA      6898       4    1253    6514    6641    6643   12091    9744+
+          16002   17161    9754    9755
CTETRA      6899       4    1248    1255    6638    6639    3909   12098+
+          15922   14881   12096    9759
CTETRA      6900       4    1271    1317    1272    6716    4090    4093+
+           4092   15275   15272   15271
CTETRA      6901       4    1206    6560    6568    6569   17270    9535+
+          15194   15193    9541    9542
CTETRA      6902       4    1153    7057    7056    7063   15081   11128+
+          14246   17526   11150   11147
CTETRA      6903       4    1291    6749    6748    6750   16846   10174+
+          16845   17353   10191   10183
CTETRA      6904       4    1277    1278    1349    6582    3984    4221+
+           4220   17018   17017   17010
CTETRA      6905       4    1158    7051    1161    7059   17247   16328+
+           3650   17326   11136   14242
CTETRA      6906       4    1151    1158    1161    7059    3648    3650+
+           3653   15469   17326   14242
CTETRA      6907       4    1518    6352    6351    6442   15199    9018+
+          12272   14390    9230    9229
CTETRA      6908       4    1542    6352    6442    6493   15198    9230+
+          13114   14400    9372    9373
CTETRA      6909       4     499    1156    7052    7054    3639   16010+
+          17452   17453   16008   11111
CTETRA      6910       4    1165    6875    6874    7051   17246   10661+
+          15496   17248   11108   11105
CTETRA      6911       4    1383    6660    6634    6668   12775    9853+
+          12763   15261    9870    9879
CTETRA      6912       4    1292    6746    6749    6752   17245   10169+
+          17038   17275   10187   10188
CTETRA      6913       4    1150    1151    1161    7059    3621    3653+
+           3654   14241   15469   14242
CTETRA      6914       4    1150    7055    7056    7059   17454   11135+
+          14245   14241   11130   11133
CTETRA      6915       4    1090    1122    1091    7029    3502    3505+
+           3504   16021   16022   16020
CTETRA      6916       4    1151    1153    1154    7058    3622    3624+
+           3623   12962   17256   16396
CTETRA      6917       4    1353    6593    6594    6595   14754    9653+
+          16391   14750    9649    9652
CTETRA      6918       4    1152    6875    1158    7060   12969   12971+
+           3649   12965   11142   17327
CTETRA      6919       4    1157    1159    1161    7053    3643    3655+
+           3651   15492   16007   16330
CTETRA      6920       4    1100    1128    1127    6904    3531    3530+
+           3529   16520   12193   13331
CTETRA      6921       4    1373    6736    6627    6737   16705   10119+
+          16704   17527   10121   10124
CTETRA      6922       4    1238    6636    1240    6653   17064   15472+
+           3847   16648    9802   15474
CTETRA      6923       4     459    1238    1252    6645    3844    3895+
+           3893   17063   14375   14376
CTETRA      6924       4    1126    1127    6904    6905    3528   13331+
+          13330   14294   16401   10611
CTETRA      6925       4    1091    6877    6876    6992   16502   10635+
+          17196   16018   11008   11009
CTETRA      6926       4     479    6794     741    6857   17148   15816+
+           3383   15830   10506   15817
CTETRA      6927       4     943    1083    6856    6858    3389   14812+
+          13355   13357   15727   10512
CTETRA      6928       4     944     945    1086    6859    2950    3403+
+           3404   15701   16206   17155
CTETRA      6929       4     944     973     971    6862    2947    2949+
+           2948   12334   12333   15104
CTETRA      6930       4    1363    6528    6547    6550   14805    9403+
+          12062   14810    9411    9414
CTETRA      6931       4    1336    6592    1347    6593   15042   14820+
+           4248   15043    9636   14759
CTETRA      6932       4    1344    1354    1373    6628    4272    4319+
+           4318   16719   17359   16703
CTETRA      6933       4    1336    1353    6591    6593    4250   14748+
+          13296   15043   14754    9637
CTETRA      6934       4     738    6790     970    6871   17147   16094+
+           2964   17254   10558   16096
CTETRA      6935       4     738     972     739    6791    2953    2952+
+           2954   11876   16877   11869
CTETRA      6936       4     463    1343    6610    6613    4217   15792+
+          17059   17168   16891    9715
CTETRA      6937       4     481    6767     288    6857   14815   10501+
+          16564   17269   10499   10497
CTETRA      6938       4     461     463    1342    6610     462    4213+
+           4210   17058   17059   15791
CTETRA      6939       4     479    1082     481    6857    3381    3384+
+            480   15830   15831   17269
CTETRA      6940       4    1015    1017    1016    6500    3179    3178+
+           3180   13392   13384   14328
CTETRA      6941       4    1190    1338    1343    6609    4195    4219+
+           4215   15795   15178   15789
CTETRA      6942       4     479     286     481    6498   15926   17268+
+            480   15927    9580   16563
CTETRA      6943       4    1527    1533    1534    6482    4773    4772+
+           4771   16371   13138   13141
CTETRA      6944       4    1004    6817    1006    6826   17528   15354+
+           3145   17529   10380   15362
CTETRA      6945       4    1016    1018    6499    6576    3191   15528+
+          15159   15055   15529    9577
CTETRA      6946       4     475    1010    6574    6577    3155   14061+
+          16573   14050   14052    9571
CTETRA      6947       4     949    6837    1050    6838   16059   16056+
+           3225   15906   10428   15507
CTETRA      6948       4     956    1008     998    6818    3143    3144+
+           3107   15742   17530   17348
CTETRA      6949       4     955     956     998    6818    3069    3107+
+           3104   12339   15742   17348
CTETRA      6950       4    1527    1533    6482    6484    4773   13138+
+          16371   15822   15824    9321
CTETRA      6951       4     998    6818    6817    6828   17348   10373+
+          17531   16858   10389   10388
CTETRA      6952       4     998    6818    6828    6829   17348   10389+
+          16858   12304   10393   10395
CTETRA      6953       4    1253    6513    1267    6641   12727   12711+
+           3963   16002    9743   15996
CTETRA      6954       4     998    6771     999    6829   16857   12307+
+           3106   12304   10397   12305
CTETRA      6955       4    1523    1533    6480    6482    4774   13137+
+          13134   13142   13138    9325
CTETRA      6956       4    1528    6479    1533    6484   14153   13136+
+           4783   15823    9326   15824
CTETRA      6957       4    1264    6514    6560    6561   17162    9501+
+          16691   17252    9504    9506
CTETRA      6958       4     463    6640    1250    6642   17525   17052+
+           3898   15998    9748   15997
CTETRA      6959       4     465    6611     729    6613   17532   16903+
+           3097   16928    9708   16890
CTETRA      6960       4    1266    6511    6808    6809   15457   10335+
+          15447   15449   10336   10332
CTETRA      6961       4    1238    6636    6637    6645   17064    9772+
+          14373   14375    9771    9768
CTETRA      6962       4    1239    1249    1247    6646    3890    3891+
+           3888   16898   16551   16553
CTETRA      6963       4    1049    6769    6787    6788   12278   10252+
+          12478   14917   10262   10263
CTETRA      6964       4     952     953    1031    6775    3088    3200+
+           3199   14925   15522   13338
CTETRA      6965       4    1172    6781    6755    6782   12146   10217+
+          13323   12481   10216   10215
CTETRA      6966       4     461    6640     268    6645   17050    9747+
+          15189   17053    9762    9764
CTETRA      6967       4     990    6812    6811    6844   13399   10376+
+          13407   13402   10426   10425
CTETRA      6968       4     991     993     992    6785    3078    3080+
+           3079   16342   16343   16860
CTETRA      6969       4     461     268     270    6610   15189     269+
+          17054   17058    9714    9713
CTETRA      6970       4     997    6772    6771    6828   16881   10246+
+          16539   17239   10392   10396
CTETRA      6971       4     992    6784    6771    6785   12319   10236+
+          12318   16860   10235   10239
CTETRA      6972       4    1461    6156    6155    6230   15759    8264+
+          15767   14711    8500    8501
CTETRA      6973       4     963     974     964    6842    2976    2980+
+           2981   16752   16083   16082
CTETRA      6974       4     963     988    6841    6842    3054   14937+
+          16751   16752   14939   10413
CTETRA      6975       4     958     959    6820    6822    3031   15243+
+          15862   16863   14576   10350
CTETRA      6976       4     958    6821     986    6822   15753   15744+
+           3041   16863   10352   15745
CTETRA      6977       4    1238    6637    6636    6653   14373    9772+
+          17064   16648    9800    9802
CTETRA      6978       4    1455    1469    1471    6166    4610    4609+
+           4612   13570   13569   16381
CTETRA      6979       4     984     986    6814    6822    3044   14928+
+          14927   16864   15745   10342
CTETRA      6980       4     959    6502    6501    6822   12707    9629+
+          12706   14576   10344   10345
CTETRA      6981       4    1202    6647    6648    6649   15028    9774+
+          13047   15031    9782    9783
CTETRA      6982       4    1460    1471    1469    6155    4607    4609+
+           4598   17498   13153   16382
CTETRA      6983       4    1257    6795    6796    6801   15460   10283+
+          14768   14776   10282   10279
CTETRA      6984       4    1254    6514    6515    6560   12093    9502+
+          14813   16692    9501    9500
CTETRA      6985       4     984    6815    6814    6836   16871   10343+
+          14927   16068   10416   10415
CTETRA      6986       4    1255    6639    6515    6643   12096    9750+
+          14814   12100    9752    9751
CTETRA      6987       4    1455    1471    1456    6165    4612    4616+
+           4617   15412   15971   13658
CTETRA      6988       4     730    6604    6603    6612   15804    9688+
+          16919   16909    9700    9702
CTETRA      6989       4     979     984    6815    6822    3032   16871+
+          14863   14577   16864   10341
CTETRA      6990       4     959     979     960    6502    3020    3017+
+           3021   12707   14575   12705
CTETRA      6991       4    1269    1387    6621    6721    4356   13934+
+          13921   13246   13920   10066
CTETRA      6992       4    1374    1375    1389    6670    4343    4373+
+           4376   13191   16166   15156
CTETRA      6993       4    1461    1472    1471    6156    4613    4615+
+           4608   15759   15770   13154
CTETRA      6994       4     874    6883     924    6934   17533   17165+
+           2862   16820   10726   17167
CTETRA      6995       4    1107    1110    6945    6960    3432   15318+
+          16629   16635   12248   10819
CTETRA      6996       4     505    1147    7064    7066    3595   14216+
+          13400   13389   13391   11153
CTETRA      6997       4    1106    1108    6945    6947    3414   16737+
+          15317   16740   16738   10776
CTETRA      6998       4     873     924     874    6883    2860    2862+
+           2861   17478   17165   17533
CTETRA      6999       4     445     252     254    5957   17004     253+
+          16999   16453    8431    8432
CTETRA      7000       4     871     872    1096    7035    2760    3452+
+           3453   15297   15300   15298
CTETRA      7001       4    1469    6155    1471    6166   16382   13153+
+           4609   13569    8266   16381
CTETRA      7002       4     873    1102    6882    6948    3421   17135+
+          17134   17477   17211   10778
CTETRA      7003       4    1249    6646    6647    6649   16551    9784+
+          16720   16552    9779    9782
CTETRA      7004       4    1387    1388    1389    6622    4374    4375+
+           4368   16402   17442   15154
CTETRA      7005       4     877     924    6883    7034    2857   17165+
+          16580   13629   13631   11033
CTETRA      7006       4    1228    6545    6544    6556   14894    9436+
+          12733   14901    9467    9469
CTETRA      7007       4    1194    6546    1210    6551   14807   12738+
+           3747   12072    9435   12074
CTETRA      7008       4    1359    6520    1360    6662   15007   17249+
+           4264   15008    9848   16702
CTETRA      7009       4     537     344    7193    7208   13449   11557+
+          14699   12438   11618   11615
CTETRA      7010       4     537     834    7194    7209    2554   17094+
+          13451   13452   13557   11627
CTETRA      7011       4      41     835     864    7229    2691    2687+
+           2689   17124   11970   17534
CTETRA      7012       4     539     835      41    7229    2578    2691+
+           2690   11968   11970   17124
CTETRA      7013       4     537     539     834    7209     538    2555+
+           2554   13452   14895   13557
CTETRA      7014       4    1358    1359    1362    6520    4268    4277+
+           4281   17013   15007   17006
CTETRA      7015       4     823    7214     829    7215   17103   17128+
+           2568   17130   11641   12398
CTETRA      7016       4     759    7183     760    7198   15053   17289+
+           2388   16477   11598   17290
CTETRA      7017       4     443    6618     250    6702   17234    9916+
+          14867   17233   10005   10001
CTETRA      7018       4     531     338    7134    7136   16496   11358+
+          17099   16497   11360   11362
CTETRA      7019       4     531     338     336    7134   16496     337+
+          17098   17099   11358   11359
CTETRA      7020       4     766     782     767    7167    2367    2366+
+           2368   16448   17311   12457
CTETRA      7021       4     796     799     798    7170    2458    2459+
+           2453   15401   15400   14256
CTETRA      7022       4    1484    5970    6138    6182   16201    8302+
+          16203   17395    8306    8305
CTETRA      7023       4     792     796    7174    7176    2441   13935+
+          16119   13928   13927   11513
CTETRA      7024       4     457    6578    1351    6583   16388   17019+
+           4237   15462    9602   15463
CTETRA      7025       4     770     771     783    7165    2336    2377+
+           2389   15694   16129   15700
CTETRA      7026       4     774     776     775    7153    2316    2322+
+           2323   12379   15062   14918
CTETRA      7027       4    1632    6244    6243    6413   17363    8676+
+          17362   13584    9043    9042
CTETRA      7028       4    1188    1393    6619    6703    4387   15443+
+          13461   14795   13933   10013
CTETRA      7029       4     771    7086    7085    7166   12375   11449+
+          12386   16183   11481   11480
CTETRA      7030       4     747    7158    7156    7160   14924   11465+
+          14366   17110   11467   11466
CTETRA      7031       4     771     782     783    7169    2376    2375+
+           2377   16130   16983   16131
CTETRA      7032       4     759     760     823    7198    2388    2537+
+           2540   16477   17290   16478
CTETRA      7033       4     804    7089     813    7090   11904   11885+
+           2495   11905   11412   11884
CTETRA      7034       4    1334    6590    6578    6615   16291    9647+
+          16390   16295    9724    9725
CTETRA      7035       4     756     776     774    7154    2314    2316+
+           2315   16182   15063   17292
CTETRA      7036       4     774    7086    7087    7153   12378   11439+
+          15630   12379   11438   11437
CTETRA      7037       4     431    1483    1437    5971    4642    4643+
+           4541   13657   16862   16200
CTETRA      7038       4    1437    5971    1483    6138   16200   16862+
+           4643   16202    8304   16374
CTETRA      7039       4    1460    6230    6155    6231   16986    8501+
+          17498   16987    8520    8508
CTETRA      7040       4     755     756    7147    7154    2313   15603+
+          15602   15988   16182   11432
CTETRA      7041       4     459    1334    6578    6615    4201   16390+
+          16389   15147   16295    9725
CTETRA      7042       4     351     158    5903    5910   15658    7476+
+          15349   15666    7494    7496
CTETRA      7043       4     349     668      54    5921    2066    2262+
+           2261   13170   15157   13171
CTETRA      7044       4    1334    6579    6578    6590   16301    9603+
+          16390   16291    9644    9647
CTETRA      7045       4     431    1437     433    5971    4541    4540+
+            432   13657   16200   17197
CTETRA      7046       4    1432    1444    1433    5966    4495    4497+
+           4496   14786   12014   12016
CTETRA      7047       4     353     677     678    5889    2072    2074+
+           2071   15035   12420   14593
CTETRA      7048       4     669     676     670    5908    2075    2077+
+           2076   11925   12988   11926
CTETRA      7049       4     690    5893     696    5894   17055   16945+
+           2164   17056    7464   17535
CTETRA      7050       4     671    5900     681    5906   13548   12371+
+           2089   13728    7508   13547
CTETRA      7051       4     648     690     689    5880    2145    2146+
+           2143   15406   17536   16785
CTETRA      7052       4     690    5879     691    5893   13434   17071+
+           2141   17055    7459   17074
CTETRA      7053       4     690    5880    5879    5894   17536    7420+
+          13434   17056    7463    7462
CTETRA      7054       4     625    5839     626    5869   12634   16824+
+           1944   11815    7376   11819
CTETRA      7055       4    1445    6685    1446    6694   14727   12729+
+           4513   14728    9983   13174
CTETRA      7056       4    1461    1462    1472    6156    4575    4614+
+           4613   15759   17465   15770
CTETRA      7057       4     647    5866    5880    5881   15351    7419+
+          16784   15353    7421    7423
CTETRA      7058       4     625    5838    5839    5869   11817    7378+
+          12634   11815    7377    7376
CTETRA      7059       4     673    5898    5897    5904   17046    7485+
+          16605   17047    7514    7506
CTETRA      7060       4     645    5868    5882    5883   13759    7425+
+          17119   17003    7429    7430
CTETRA      7061       4     654    5846    5845    5865   17037    7343+
+          13435   15423    7364    7361
CTETRA      7062       4     653     655     654    5845    2002    2004+
+           2003   17076   13436   13435
CTETRA      7063       4     618     657    5851    5852    1990   17415+
+          16778   16780   17034    7298
CTETRA      7064       4     655    5850     657    5853   17078   17413+
+           2000   17537    7294   17210
CTETRA      7065       4    1189    1393    1392    6619    4392    4391+
+           4378   13462   15443   15442
CTETRA      7066       4    1268    6696    6697    6703   13228   10008+
+          13230   14788   10007   10009
CTETRA      7067       4     629     631     630    6094    1916    1915+
+           1917   16613   12978   12977
CTETRA      7068       4    1180    1473    1462    6157    4619    4621+
+           4573   14832   13879   15761
CTETRA      7069       4     626     630     627    5840    1913    1912+
+           1914   16383   12976   16293
CTETRA      7070       4    1200    6631    1380    6654   15781   13035+
+           4324   14249    9813   14250
CTETRA      7071       4    1384    6621    6620    6697   13924    9947+
+          13923   14787   10015   10014
CTETRA      7072       4     630    5839     637    5954   17409   12635+
+           1945   12979   11776   17479
CTETRA      7073       4    1366    6664    1368    6665   15768   13206+
+           4297   12785    9862   12782
CTETRA      7074       4     588     596     597    6080    2282    1853+
+           2276   12390   14639   12410
CTETRA      7075       4    1318    6714    6715    6722   16393   10071+
+          14821   14824   10070   10072
CTETRA      7076       4      23    5842      12    5859   15325    7318+
+            543   12226    7317    7319
CTETRA      7077       4      24      13    5842    6082     541    7625+
+          16286   16214    8084    8083
CTETRA      7078       4    1375    1386    1389    6682    4371    4370+
+           4373   15229   15197   15217
CTETRA      7079       4    1270    6719    6718    6723   14834   10065+
+          15269   13227   10083   10082
CTETRA      7080       4    1179    1279    1180    6242    4028    4183+
+           4184   15762   14831   15763
CTETRA      7081       4      24    6082     611    6131   16214   16216+
+           1877   16287    8175   15889
CTETRA      7082       4      23     628     604    5842    1906    1905+
+           1888   15325   15324   16283
CTETRA      7083       4    1271    1317    6716    6719    4090   15272+
+          15275   12055   15274   10058
CTETRA      7084       4    1361    1362    6521    6527    4276   17007+
+          15013   17015   16710    9417
CTETRA      7085       4    1354    6627    1373    6628   17538   16704+
+           4319   17359    9844   16703
CTETRA      7086       4     601     639    5818    5819    1948   16942+
+          14657   11799   11801    7644
CTETRA      7087       4     600    5818     633    5949   17443   16808+
+           1920   12948    7674   12949
CTETRA      7088       4     170     600    5817    5943   17026   12957+
+           7656    7657   17027    7649
CTETRA      7089       4     601     602    5819    5945    1828   11800+
+          11799   14659   11814    7643
CTETRA      7090       4    1337    1363    6528    6529    4282   14805+
+          14818   12508   12496    9404
CTETRA      7091       4    1276    6743    1286    6745   13212   12080+
+           3979   14547   10152   13210
CTETRA      7092       4    1744    6092    6091    6099   12412    8050+
+          15692   12414    8060    8059
CTETRA      7093       4    1275    1276    1344    6744    4128    4231+
+           4232   17297   15887   15888
CTETRA      7094       4    1197    6648    6634    6650   13045    9777+
+          12762   13565    9786    9785
CTETRA      7095       4    1442    5967    1444    6712   12018   12013+
+           4501   13178   10041   12015
CTETRA      7096       4     847     848    7241    7243    2628   16544+
+          14990   14195   14196   11751
CTETRA      7097       4    1442    1444    1443    6712    4501    4504+
+           4505   13178   12015   15433
CTETRA      7098       4     437    6233     244    6240   16921    8539+
+          15095   17284    8549    8545
CTETRA      7099       4     749     776     750    7152    2310    2309+
+           2311   15058   15060   17475
CTETRA      7100       4    1299    1300    1304    6234    4032    4050+
+           4051   17467   12933   12932
CTETRA      7101       4    1293    1295    5957    5958    4005   16454+
+          17276   14629   13958    8434
CTETRA      7102       4     776    7150    7152    7154   17539   11441+
+          15060   15063   11433   11443
CTETRA      7103       4     750     755     751    7151    2306    2308+
+           2307   17473   17540   17133
CTETRA      7104       4     755    7150    7146    7151   15987   11421+
+          15608   17540   11423   11426
CTETRA      7105       4     453    6526     260    6581   13283    9593+
+          13285   13272    9595    9597
CTETRA      7106       4    1287    6750    1291    6751   17480   17353+
+           3987   17351   10181   17352
CTETRA      7107       4     750     776     755    7150    2309    2312+
+           2306   17541   17539   15987
CTETRA      7108       4     750    7149    7150    7151   17472   11425+
+          17541   17473   11424   11423
CTETRA      7109       4     883     911     884    7098    2801    2806+
+           2807   17217   15869   16481
CTETRA      7110       4    1392    6675    6676    6677   14792    9910+
+          15138   15141    9909    9908
CTETRA      7111       4     537     344     342    7193   13449     343+
+          17093   14699   11557   11556
CTETRA      7112       4     800    7093    7094    7136   16507   11372+
+          16509   17105   11366   11371
CTETRA      7113       4     810    7093    7092    7191   17463   11368+
+          16962   12179   11559   11558
CTETRA      7114       4     806     808    7140    7142    2491   16444+
+          16187   15872   16441   11395
CTETRA      7115       4     889     908    7095    7096    2789   16415+
+          17542   15560   15562   11317
CTETRA      7116       4     447     254     449    6748   17000   17318+
+            448   17244   10171   17447
CTETRA      7117       4     449     256     451    6751   13278   13277+
+            450   17350   10178   15244
CTETRA      7118       4     907     908     912    7127    2790    2816+
+           2815   16413   16412   17144
CTETRA      7119       4     896    7015    7009    7016   12372   10938+
+          15383   15381   10934   10939
CTETRA      7120       4    1082    6856    6767    6857   13361   10494+
+          14816   15831   10500   10499
CTETRA      7121       4     513     320    7111    7113   14071   11228+
+          14098   14072   11237   11239
CTETRA      7122       4     866    7075    1137    7081   12484   12010+
+           3566   15708   11220   15706
CTETRA      7123       4     493     495    1168    6783     494    3686+
+           3687   12112   12113   14528
CTETRA      7124       4    1179    1465    6228    6229    4564   16989+
+          17543   14713   14709    8506
CTETRA      7125       4     937     939     938    7114    2917    2921+
+           2922   16090   17316   16091
CTETRA      7126       4    1004    6817    6826    6828   17528   10380+
+          17529   17240   10388   10390
CTETRA      7127       4     997    1004    1005    6772    3137    3135+
+           3131   16881   17544   16344
CTETRA      7128       4     491     493     298    6973     492   16158+
+          16150   15490   16157   10866
CTETRA      7129       4     929     939    7114    7115    2915   17316+
+          17190   16654   17143   11256
CTETRA      7130       4     934    7105    7104    7130   16087   11264+
+          16101   16192   11336   11335
CTETRA      7131       4     483    6773    1003    6827   13992   17457+
+           3132   17173   10383   17357
CTETRA      7132       4     991     997    6772    6785    3112   16881+
+          16347   16342   16861   10244
CTETRA      7133       4    1145    1149    1146    7063    3609    3608+
+           3610   16944   15517   15516
CTETRA      7134       4    1244    6797    6805    6806   11978   10309+
+          14335   11979   10311   10310
CTETRA      7135       4    1193    1363    1337    6529    4283    4282+
+           4187   12497   12496   12508
CTETRA      7136       4     519     788     786    7039    2403    2402+
+           2401   14092   16490   13420
CTETRA      7137       4     767    7167    7083    7172   12457   11474+
+          12446   12441   11490   11491
CTETRA      7138       4     785    7038    7037    7047   16472   11062+
+          12405   16470   11092   11093
CTETRA      7139       4     743    7045    7044    7079   13425   11088+
+          16764   16675   11206   11207
CTETRA      7140       4     515     517     324    7110     516   14088+
+          14064   14066   13375   11245
CTETRA      7141       4     788    7038    7039    7042   15714   11059+
+          16490   14147   11058   11057
CTETRA      7142       4    1308    1320    1309    6731    4121    4118+
+           4122   13008   14557   12612
CTETRA      7143       4    1276    6744    6743    6745   15887   10158+
+          13212   14547   10159   10152
CTETRA      7144       4    1207    1261    1259    6509    3935    3931+
+           3933   15122   16137   15127
CTETRA      7145       4    1256    1260    1261    6805    3926    3930+
+           3928   12329   15120   14336
CTETRA      7146       4     507     314     316    7061   13395     315+
+          16102   14225   11160   11161
CTETRA      7147       4     473    1242     475    6800    3861    3860+
+            474   16892   15111   16893
CTETRA      7148       4    1245    6799    6797    6804   14211   10278+
+          14774   14207   10298   10297
CTETRA      7149       4     467     274    6598    6611   12638    9672+
+          12640   17278    9696    9698
CTETRA      7150       4     503     876    6932    6959    2826   13404+
+          12213   12215   12235   10816
CTETRA      7151       4     913     915    6936    6937    2822   13415+
+          13412   13414   13416   10745
CTETRA      7152       4     509    1132    1148    7061    3556    3605+
+           3604   16104   12500   14217
CTETRA      7153       4     729     996    6604    6611    3098   14545+
+          16904   16903   14546    9699
CTETRA      7154       4    1179    1462    6229    6242    4572   14714+
+          14713   15762   15764    8559
CTETRA      7155       4     913    6885     927    6935   16840   14110+
+           2870   13413   10729   16107
CTETRA      7156       4     475    1242    1243    6803    3860    3862+
+           3858   17160   15112   15820
CTETRA      7157       4     741    6794    6793    6855   15816   10296+
+          15780   13906   10502   10503
CTETRA      7158       4     914     924    6884    6934    2865   17166+
+          17287   17260   17167   10723
CTETRA      7159       4     505    1147    1144    7064    3595    3599+
+           3597   13400   14216   14254
CTETRA      7160       4     497     499     306    6956     498   17330+
+          17184   17545   17331   10831
CTETRA      7161       4     497     306     304    6956   17184     305+
+          17183   17545   10831   10832
CTETRA      7162       4     497     306     499    7052   17184   17330+
+            498   16009   11104   17452
CTETRA      7163       4     467     274    6512    6809   12638   10337+
+          17045   12654   10334   10338
CTETRA      7164       4    1244    1256    1261    6805    3925    3928+
+           3929   14335   12329   14336
CTETRA      7165       4     465     272     467    6611   17150   17288+
+            466   17532    9697   17278
CTETRA      7166       4    1276    1350    6744    6745    4223   14549+
+          15887   14547   14550   10159
CTETRA      7167       4     865    1137    7074    7081    3567   12007+
+          16680   16681   15706   11217
CTETRA      7168       4    1262    6514    1264    6561   17163   17162+
+           3942   16561    9504   17252
CTETRA      7169       4     485     290     292    6773   12451     291+
+          12450   13988   10248   10247
CTETRA      7170       4     483    1005    1003    6773    3129    3134+
+           3132   13992   16345   17457
CTETRA      7171       4    1091    6992    1154    6993   16018   17255+
+           3629   16019   11004   15520
CTETRA      7172       4     469    6795     276    6809   15450   10281+
+          12648   15451   10331   10333
CTETRA      7173       4     483    1079     485    6941    3375    3374+
+            484   12455   13643   12452
CTETRA      7174       4    1119    7004    7005    7019   15813   10969+
+          14236   17460   10968   10966
CTETRA      7175       4    1096    7025    7024    7035   14227   11022+
+          15282   15298   11052   11042
CTETRA      7176       4     905    6986    7007    7014   16814   10920+
+          15567   16813   10919   10923
CTETRA      7177       4     481     483    1003    6827     482    3132+
+           3133   16565   17173   17357
CTETRA      7178       4    1072    1074    1073    6952    3355    3357+
+           3358   12985   12984   14447
CTETRA      7179       4     473    1258    6800    6801    3915   16041+
+          16892   16910   14777   10273
CTETRA      7180       4    1068    6970    6974    6975   16339   10882+
+          16045   16644   10881   10883
CTETRA      7181       4    1260    1263    6510    6808    3945   17044+
+          15118   15452   15453   10328
CTETRA      7182       4    1092    6877    1124    6905   16504   16503+
+           3517   14293   10604   16400
CTETRA      7183       4     495    6970    1068    6975   12115   16339+
+           3327   16643   10881   16644
CTETRA      7184       4    1021    6957    6960    6961   17257   10828+
+          12241   12243   10830   10827
CTETRA      7185       4    1022    1062    1060    6957    3311    3304+
+           3308   17258   16932   17265
CTETRA      7186       4     499    6956    1062    6961   17331   16931+
+           3302   17187   10833   16933
CTETRA      7187       4     952     992     953    6784    3087    3086+
+           3088   15523   12319   15524
CTETRA      7188       4    1175    6756    6757    6774   14909   10210+
+          14926   14910   10207   10211
CTETRA      7189       4    1176    6920    6755    6921   16512   10654+
+          13324   15488   10653   10652
CTETRA      7190       4    1029    6758    6757    6918   14535   10267+
+          14530   14912   10710   10679
CTETRA      7191       4    1046    6759    6930    6931   14538   10718+
+          17347   17179   10717   10719
CTETRA      7192       4    1171    1174    6775    6782    3704   12053+
+          13339   12480   12045   10212
CTETRA      7193       4     493     298     300    6778   16158     299+
+          17200   12119   10194   10195
CTETRA      7194       4    1029    6757    1175    6924   14530   14926+
+           3706   16792   10677   16515
CTETRA      7195       4     485     294     487    6786   13990   14009+
+            486   13989   10240   14029
CTETRA      7196       4     998    1008    1004    6817    3144    3147+
+           3138   17531   15355   17528
CTETRA      7197       4    1092    1124    1126    6905    3517    3524+
+           3523   14293   16400   14294
CTETRA      7198       4    1027    1043    1053    6929    3248    3251+
+           3246   17213   17455   17214
CTETRA      7199       4    1164    1175    1176    6756    3709    3715+
+           3716   16513   14909   14911
CTETRA      7200       4    1094    1095    6919    6923    3552   16852+
+          14306   14806   14801   10672
CTETRA      7201       4    1314    6706    6722    6723   13266   10076+
+          15277   15281   10080   10081
CTETRA      7202       4    1095    1164    6919    6924    3670   16853+
+          16852   16793   16514   10686
CTETRA      7203       4     982    6535    6503    6559   14261    9490+
+          17142   14263    9482    9493
CTETRA      7204       4     955    6819    6829    6830   12338   10394+
+          12303   12330   10407   10406
CTETRA      7205       4    1314    1315    6706    6710    4077   16532+
+          13266   13267   16530   10022
CTETRA      7206       4    1131    6899    6917    6923   14804   10674+
+          14798   14802   10673   10676
CTETRA      7207       4     734     980    6557    6558    3004   16897+
+          13077   16697   12860    9485
CTETRA      7208       4    1028    1046    1029    6930    3223    3222+
+           3224   16796   17347   14913
CTETRA      7209       4    1046    1052    6759    6931    3238   15335+
+          14538   17179   17164   10717
CTETRA      7210       4    1053    6930    6929    6931   17546   10714+
+          17214   17086   10719   10722
CTETRA      7211       4    1015    1016    6499    6500    3180   15159+
+          16168   13392   14328    9578
CTETRA      7212       4    1028    6929    1053    6930   17215   17214+
+           3245   16796   10714   17546
CTETRA      7213       4     951    6770    6769    6830   12316   10253+
+          12277   16540   10404   10403
CTETRA      7214       4    1208    6806    6508    6807   14331   10314+
+          14525   16138   10324   10323
CTETRA      7215       4     945     968    6832    6866    2957   13976+
+          13975   16207   14488   10532
CTETRA      7216       4     975    6835    6834    6870   14950   10420+
+          14949   16074   10552   10554
CTETRA      7217       4     975    6834    6865    6870   14949   10535+
+          16079   16074   10554   10555
CTETRA      7218       4     479    1020    1018    6498    3193    3194+
+           3184   15927   12051   17174
CTETRA      7219       4     734     981     735    6557    3012    3011+
+           3013   13077   14828   13078
CTETRA      7220       4     738    1246    1209    6798    3880    3879+
+           3830   11877   11878   14338
CTETRA      7221       4     741    6855    1082    6857   13906   13360+
+           3382   15817   10504   15831
CTETRA      7222       4     477     286     479    6575   17177   15926+
+            478   17178    9561   15928
CTETRA      7223       4    1083    6858    1086    6860   15727   15726+
+           3408   16876   10517   17082
CTETRA      7224       4     963    6842    6841    6846   16752   10413+
+          16751   16836   10447   10446
CTETRA      7225       4     475    1243     477    6803    3858    3859+
+            476   17160   15820   16308
CTETRA      7226       4     956    1008    6818    6824    3143   17530+
+          15742   16123   16125   10371
CTETRA      7227       4    1271    1311    1317    6719    4080    4091+
+           4090   12055   14835   15274
CTETRA      7228       4    1032    1055    1033    6848    3267    3264+
+           3268   15732   14311   14310
CTETRA      7229       4     475     282     284    6577   16895     283+
+          17547   14050    9559    9558
CTETRA      7230       4     979    6503     982    6535   14875   17142+
+           3019   15346    9490   14261
CTETRA      7231       4    1040    1050    1051    6850    3234    3233+
+           3236   16049   16058   16050
CTETRA      7232       4     968    6834    6833    6865   13973   10437+
+          13972   14487   10535   10534
CTETRA      7233       4    1156    1159    1157    7053    3641    3643+
+           3642   15491   16007   15492
CTETRA      7234       4     489    6777     296    6780   16147   10203+
+          14961   16145   10205   10193
CTETRA      7235       4    1015    6499    6816    6823   16168   10357+
+          17277   13393   10356   10359
CTETRA      7236       4    1070    1074    1072    6972    3351    3355+
+           3354   12124   12981   12986
CTETRA      7237       4     946     968     974    6833    2960    2970+
+           2969   15728   13972   13971
CTETRA      7238       4     974    6833    6834    6845   13971   10437+
+          13974   16538   10431   10435
CTETRA      7239       4    1085    6764    6765    6831   15724   10456+
+          15725   17080   10453   10457
CTETRA      7240       4     477    1018    1019    6575    3183    3190+
+           3189   17178   15527   15930
CTETRA      7241       4    1083    6766    6856    6860   17451   10495+
+          14812   16876   10507   10508
CTETRA      7242       4     948    6844    6838    6846   12323   10429+
+          15905   16061   10439   10438
CTETRA      7243       4    1005    6773    6772    6826   16345   10250+
+          16344   17458   10384   10391
CTETRA      7244       4    1084    1086    1085    6860    3407    3406+
+           3402   17145   17082   17081
CTETRA      7245       4     479     481    1020    6498     480    3195+
+           3193   15927   16563   12051
CTETRA      7246       4    1004    1005    6772    6826    3135   16344+
+          17544   17529   17458   10391
CTETRA      7247       4    1159    1160    1161    7050    3645    3656+
+           3655   15801   15800   14239
CTETRA      7248       4    1004    6826    6772    6828   17529   10391+
+          17544   17240   10390   10392
CTETRA      7249       4    1232    1233    1237    6563    3815    3841+
+           3840   16047   13982   16731
CTETRA      7250       4    1235    1237    6562    6571    3838   16896+
+          15165   15184   15183    9549
CTETRA      7251       4    1225    1226    6540    6556    3795   17524+
+          14896   14897   14902    9474
CTETRA      7252       4     970     977    6867    6868    2992   16686+
+          16525   16095   16687   10551
CTETRA      7253       4     970    6868    6867    6872   16095   10551+
+          16525   16523   10567   10566
CTETRA      7254       4     737     970     738    6790    2965    2964+
+           2966   14495   16094   17147
CTETRA      7255       4     738    1209    6790    6798    3830   14496+
+          17147   11877   14338   10302
CTETRA      7256       4    1003    6773    6826    6827   17457   10384+
+          17273   17357   10383   10385
CTETRA      7257       4     972    6864    6861    6871   16208   10538+
+          13904   16210   10563   10557
CTETRA      7258       4    1231    6539    1232    6570   17251   17250+
+           3812   17548    9545   16732
CTETRA      7259       4     736     737    6789    6869    2991   14507+
+          14506   16734   16875   10544
CTETRA      7260       4    1044    6837    6847    6850   16055   10467+
+          15339   16057   10469   10468
CTETRA      7261       4     463     465    1343    6613     464    4216+
+           4217   17168   16928   16891
CTETRA      7262       4     463     272     270    6642   17151     271+
+          17057   15998    9740    9741
CTETRA      7263       4    1159    7050    1161    7053   15801   14239+
+           3655   16007   11115   16330
CTETRA      7264       4    1234    6507    1235    6567   14504   15168+
+           3823   15164    9531   15167
CTETRA      7265       4     966     977     967    6853    2995    3000+
+           3001   16225   17279   12035
CTETRA      7266       4     501    7049    1160    7054   12216   12218+
+           3644   14251   11120   15796
CTETRA      7267       4    1088    1119    1121    7005    3484    3491+
+           3490   14243   14236   12176
CTETRA      7268       4     465     272    6611    6613   17150    9697+
+          17532   16928    9706    9708
CTETRA      7269       4    1098    1125    1123    6879    3513    3512+
+           3511   15719   15720   15723
CTETRA      7270       4    1253    1262    6513    6514    3943   12709+
+          12727   12091   17163    9505
CTETRA      7271       4    1124    6878    1125    6911   16199   16198+
+           3519   17243   10602   17070
CTETRA      7272       4     465    6512     272    6642   16537    9742+
+          17150   17152    9738    9740
CTETRA      7273       4     732    1002     962    6606    3126    3125+
+           3006   13066   13065   15543
CTETRA      7274       4    1087    7019    1119    7020   15788   17460+
+           3482   13970   10962   17216
CTETRA      7275       4     471    6599     995    6601   12688   12690+
+           3092   12650    9666   16067
CTETRA      7276       4     475     284     477    6577   17547   17176+
+            476   14050    9558   17175
CTETRA      7277       4     869    1119    1087    7019    3478    3482+
+           3480   14438   17460   15788
CTETRA      7278       4    1123    6879    7028    7030   15723   11012+
+          16196   13348   11018   11019
CTETRA      7279       4    1099    1114    6907    6909    3461   17209+
+          17549   17550   13671   10590
CTETRA      7280       4     475     477     284    6803     476   17176+
+          17547   17160   16308   10285
CTETRA      7281       4    1097    1098    1123    6880    3449    3511+
+           3508   13506   13669   15722
CTETRA      7282       4     948    6838    6839    6846   15905   10440+
+          15907   16061   10438   10441
CTETRA      7283       4    1245    6802    6799    6804   14206   10305+
+          14211   14207   10306   10298
CTETRA      7284       4     475     284     282    6803   17547     283+
+          16895   17160   10285   10284
CTETRA      7285       4     473    6800     280    6801   16892   10271+
+          16571   16910   10273   10269
CTETRA      7286       4    1088    1119    7005    7020    3484   14236+
+          14243   13962   17216   10967
CTETRA      7287       4    1040    1051    1041    6761    3236    3240+
+           3241   14316   16048   14317
CTETRA      7288       4    1320    6714    6704    6731   17317   10074+
+          14555   14557   10101   10100
CTETRA      7289       4    1050    6838    6837    6850   15507   10428+
+          16056   16058   10476   10469
CTETRA      7290       4    1313    6704    1320    6705   16922   14555+
+           4114   16923   10038   17522
CTETRA      7291       4    1095    1175    1164    6924    3708    3709+
+           3670   16793   16515   16514
CTETRA      7292       4    1163    1164    6920    6922    3667   16850+
+          13217   13219   16935   10669
CTETRA      7293       4    1432    5965    6167    6176   14069    8257+
+          12718   12717    8260    8252
CTETRA      7294       4    1175    6757    6756    6924   14926   10210+
+          14909   16515   10677   10680
CTETRA      7295       4    1089    7006    7026    7027   12161   10997+
+          13344   13354   11000   11001
CTETRA      7296       4    1270    6707    1314    6723   13226   13253+
+           4071   13227   10078   15281
CTETRA      7297       4     971    6862    6861    6864   15104   10528+
+          17149   15105   10537   10538
CTETRA      7298       4     866    7081    7043    7082   15708   11219+
+          12488   12486   11224   11223
CTETRA      7299       4    1439    6685    1440    6686   12740   13183+
+           4524   11999    9968   12000
CTETRA      7300       4    1451    6691    1452    6692   11990   11989+
+           4560   15430    9964   11998
CTETRA      7301       4    1041    1051    1052    6760    3240    3239+
+           3242   16062   15341   15337
CTETRA      7302       4     945    6862     971    6866   16529   15104+
+           2951   16207   10531   15106
CTETRA      7303       4     443    1448    6618    6702    4533   13681+
+          17234   17233   13022   10005
CTETRA      7304       4     971     973     972    6861    2949    2955+
+           2956   17149   12343   13904
CTETRA      7305       4    1058    6896    6897    6912   13347   10620+
+          13372   13363   10619   10621
CTETRA      7306       4     445    6618    1189    6677   17005   13680+
+           4379   16997    9917   16998
CTETRA      7307       4    1448    6699    6701    6702   13021    9998+
+          13682   13022   10003   10004
CTETRA      7308       4    1124    1125    1127    6911    3519    3521+
+           3527   17243   17070   17069
CTETRA      7309       4    1042    6926    6925    6928   14480   10695+
+          15333   14481   10706   10720
CTETRA      7310       4    1041    1052    1042    6925    3242    3252+
+           3253   14319   16941   15333
CTETRA      7311       4    1188    1393    1189    6619    4387    4392+
+           4393   13461   15443   13462
CTETRA      7312       4    1039    1054    6849    6851    3258   14321+
+          12603   12582   12584   10474
CTETRA      7313       4    1293    1294    1295    5958    4002    4010+
+           4005   14629   13956   13958
CTETRA      7314       4     947    6845     963    6846   14324   16753+
+           2973   16060   10444   16836
CTETRA      7315       4     971    6861     972    6864   17149   13904+
+           2956   15105   10538   16208
CTETRA      7316       4     445    1392     447    6677    4377    4380+
+            446   16997   15141   15140
CTETRA      7317       4    1369    1373    6626    6737    4321   17551+
+          16033   17552   17527   10125
CTETRA      7318       4    1104    1114    6888    6889    3462   17205+
+          16685   14278   17208   10579
CTETRA      7319       4    1369    6737    6626    6739   17552   10125+
+          16033   14857   10138   10139
CTETRA      7320       4    1103    1104    1114    6888    3417    3462+
+           3458   13666   16685   17205
CTETRA      7321       4    1274    6737    1369    6739   15754   17552+
+           4289   15755   10138   14857
CTETRA      7322       4     453     260     262    6581   13285     261+
+          13270   13272    9597    9608
CTETRA      7323       4    1104    6946    6888    6947   14279   10773+
+          16685   17236   10775   10771
CTETRA      7324       4     455    6581     262    6583   13273    9608+
+          13271   15461    9609    9599
CTETRA      7325       4     497    1061    6956    6975    3299   17553+
+          17545   17198   16645   10885
CTETRA      7326       4    1093    6914    1126    6915   17066   14296+
+           3526   16333   10637   14298
CTETRA      7327       4     461    6610    1341    6615   17058   16290+
+           4208   15148    9721   15149
CTETRA      7328       4     505     312     314    7066   13401     313+
+          13394   13389   11155   11156
CTETRA      7329       4     499    1062    1021    6961    3302    3312+
+           3306   17187   16933   12243
CTETRA      7330       4    1200    1377    6631    6655    4322   15775+
+          15781   15476   15774    9815
CTETRA      7331       4     729    6611    6612    6613   16903    9701+
+          16888   16890    9708    9709
CTETRA      7332       4     730    1220    6603    6607    3722   15046+
+          16919   15802   15158    9686
CTETRA      7333       4    1348    6523    6580    6594   16715    9587+
+          14756   14755    9641    9642
CTETRA      7334       4    1277    6525    6524    6745   12313    9592+
+          17020   12314   10157   10160
CTETRA      7335       4    1335    6590    6591    6595   13297    9650+
+          13294   14749    9645    9648
CTETRA      7336       4    1099    1125    6909    6911    3520   15721+
+          17550   17068   17070   10607
CTETRA      7337       4    1345    6523    1348    6594   15914   16715+
+           4227   15912    9641   14755
CTETRA      7338       4    1060    6962    6963    6967   16946   10852+
+          16038   16510   10847   10850
CTETRA      7339       4    1063    6964    1065    6976   13335   13350+
+           3319   14908   10887   15539
CTETRA      7340       4    1275    1344    6736    6744    4232   17298+
+          16707   17297   15888   10148
CTETRA      7341       4    1346    1348    1353    6594    4229    4245+
+           4244   15913   14755   16391
CTETRA      7342       4    1277    6524    6525    6582   17020    9592+
+          12313   17018    9585    9589
CTETRA      7343       4    1199    1239    1200    6654    3856    3855+
+           3857   14248   16899   14249
CTETRA      7344       4     873    6883    6882    7031   17478   10782+
+          17134   17554   11034   11045
CTETRA      7345       4    1061    6974    6962    6975   16043   10877+
+          16042   16645   10883   10884
CTETRA      7346       4    1032    6831    1086    6859   15102   17079+
+           3405   15103   10514   17155
CTETRA      7347       4     869    7010    7009    7019   17459   10942+
+          14441   14438   10961   10981
CTETRA      7348       4    1234    6566    6506    6567   14826    9521+
+          14502   15164    9527    9532
CTETRA      7349       4    1076    6939    6938    6955   15128   10758+
+          16535   14465   10810   10813
CTETRA      7350       4    1215    1216    1222    6542    3738    3752+
+           3751   13739   13308   13740
CTETRA      7351       4    1107    6945    6944    6960   16629   10789+
+          16634   16635   10819   10822
CTETRA      7352       4    1094    1164    1166    6919    3669    3668+
+           3671   14306   16853   16934
CTETRA      7353       4    1213    1214    1233    6565    3773    3814+
+           3813   15931   13673   13983
CTETRA      7354       4    1214    6566    1234    6567   13674   14826+
+           3818   13675    9527   15164
CTETRA      7355       4     495     497     304    6975     496   17183+
+          17555   16643   17198   10880
CTETRA      7356       4    1354    1355    6658    6659    4275   12777+
+          17299   15016   14566    9834
CTETRA      7357       4    1602    1612    1614    6250    5044    5038+
+           5042   16427   14473   14614
CTETRA      7358       4    1607    1611    1614    6288    5021    5036+
+           5035   14716   14046   14613
CTETRA      7359       4    1600    1613    1601    6400    5030    5029+
+           5031   17360   17505   16968
CTETRA      7360       4    1600    1622    6399    6400    5080   14004+
+          16757   17360   14453    9131
CTETRA      7361       4    1399    1427    1420    6464    4463    4464+
+           4435   16994   14738   14747
CTETRA      7362       4     873     877     924    6883    2755    2857+
+           2860   17478   16580   17165
CTETRA      7363       4    1420    6464    6150    6466   14747    9270+
+          14746   16996    9269    9271
CTETRA      7364       4     493    1068     495    6970    3326    3327+
+            494   12114   16339   12115
CTETRA      7365       4    1041    1057    1056    6927    3277    3276+
+           3275   14320   15329   16397
CTETRA      7366       4     501    6959     308    6961   12230   10815+
+          12229   17188   10826   10824
CTETRA      7367       4    1021    1109    6959    6960    3427   12236+
+          12242   12241   12240   10823
CTETRA      7368       4    1399    1400    1532    6466    4436    4748+
+           4747   16995   15829   17493
CTETRA      7369       4    1056    1057    6895    6927    3276   15331+
+          15503   16397   15329   10692
CTETRA      7370       4    1061    6962    6956    6975   16042   10849+
+          17553   16645   10884   10885
CTETRA      7371       4    1502    6394    6458    6461   16418    9247+
+          16258   14978    9244    9248
CTETRA      7372       4    1502    1503    1654    6461    4745    5216+
+           5215   14978   14979   15549
CTETRA      7373       4    1080    6939    6940    6943   13653   10755+
+          14006   13654   10754   10753
CTETRA      7374       4    1399    6459    6458    6464   16781    9252+
+          17519   16994    9259    9258
CTETRA      7375       4    1119    7019    7005    7020   17460   10966+
+          14236   17216   10962   10967
CTETRA      7376       4    1646    6423    6431    6432   15618    9148+
+          15620   17371    9150    9151
CTETRA      7377       4    1503    6395    1654    6461   12803   12805+
+           5216   14979    9242   15549
CTETRA      7378       4    1079    6941    6942    6943   13643   10763+
+          13648   13645   10762   10759
CTETRA      7379       4    1116    6890    6902    6908   16037   10568+
+          13981   13329   10571   10574
CTETRA      7380       4     869    1087    7010    7019    3480   15076+
+          17459   14438   15788   10961
CTETRA      7381       4    1520    1549    1521    6385    4866    4865+
+           4867   17382   16916   16914
CTETRA      7382       4    1520    1548    1549    6385    4857    4862+
+           4866   17382   17504   16916
CTETRA      7383       4    1065    6963    6964    6965   15536   10841+
+          13350   13353   10840   10839
CTETRA      7384       4    1521    6361    6360    6385   16912    8933+
+          13255   16914    8996    8991
CTETRA      7385       4    1068    6970    6969    6974   16339   10876+
+          16053   16045   10882   10889
CTETRA      7386       4    1060    1061    1064    6962    3305    3315+
+           3314   16946   16042   16039
CTETRA      7387       4     824     825     831    7197    2550    2571+
+           2573   13483   14993   14996
CTETRA      7388       4     772     780     782    7084    2370    2369+
+           2371   14916   14360   17310
CTETRA      7389       4    1520    6379    6378    6387   17381    8995+
+          15231   15232    9000    9006
CTETRA      7390       4    1520    6360    1556    6378   17556   13257+
+           4903   15231    8989   17515
CTETRA      7391       4     897    7011    7014    7015   12026   10917+
+          12024   12364   10924   10926
CTETRA      7392       4    1576    6378    6359    6386   13626    8992+
+          17557   13627    9004    9003
CTETRA      7393       4     898    6984    7011    7013   16363   10910+
+          13450   15896   10906   10911
CTETRA      7394       4     780    7083    7084    7133   14915   11357+
+          14360   12931   11354   11356
CTETRA      7395       4     890    7012    7015    7016   12367   10925+
+          13455   15380   10933   10934
CTETRA      7396       4     887    6985    6986    7014   16423   10918+
+          16424   12025   10916   10919
CTETRA      7397       4    1557    6359    6373    6376   15247    8946+
+          16670   12833    8948    8947
CTETRA      7398       4    1556    6360    1558    6373   13257   13256+
+           4900   17513    8935   16511
CTETRA      7399       4     868    6997    6998    7016   16556   10932+
+          16810   15382   10931   10930
CTETRA      7400       4     869    7009     885    7021   14441   15384+
+           2722   14439   10980   15884
CTETRA      7401       4     867     893    6998    7043    2702   12374+
+          12373   12489   16110   11082
CTETRA      7402       4     869     885     870    7021    2722    2724+
+           2723   14439   15884   14440
CTETRA      7403       4    1703    6261    6275    6283   13070    8596+
+          17419   11864    8605    8623
CTETRA      7404       4    1704    6275    6274    6284   17189    8602+
+          16854   16856    8621    8620
CTETRA      7405       4    1124    6905    6878    6911   16400   10601+
+          16199   17243   10603   10602
CTETRA      7406       4    1675    6262    6261    6334   14685    8597+
+          13069   11857    8833    8832
CTETRA      7407       4    1674    1726    1719    6347    5436    5437+
+           5413   14682   14684   14681
CTETRA      7408       4     873    6883     874    6948   17478   17533+
+           2861   17477   10780   16825
CTETRA      7409       4    1112    6881    1113    6887   13508   14284+
+           3446   13664   10592   14286
CTETRA      7410       4    1719    1726    6340    6347    5437   13055+
+          14680   14681   14684    8890
CTETRA      7411       4    1673    6264    6263    6320   12903    8572+
+          12902   16346    8790    8791
CTETRA      7412       4    1719    1720    6320    6321    5412   16266+
+          13870   13869   15385    8793
CTETRA      7413       4    1078    1079    1084    6942    3380    3394+
+           3395   14003   13648   13649
CTETRA      7414       4    1511    1610    1608    6319    4992    4997+
+           4996   13241   13865   13855
CTETRA      7415       4    1610    6315    6317    6318   15203    8771+
+          13864   15206    8777    8778
CTETRA      7416       4    1727    1733    1731    6327    5466    5468+
+           5460   16246   15371   16958
CTETRA      7417       4     906    6988    6987    7103   16666   10948+
+          16064   17137   11251   11252
CTETRA      7418       4    1605    6252    6251    6475   13247    8650+
+          13858   13248    9297    9299
CTETRA      7419       4    1589    1677    6259    6336    5344   12781+
+          12780   13091   13083    8837
CTETRA      7420       4    1103    1108    1106    6947    3419    3414+
+           3416   17235   16738   16740
CTETRA      7421       4    1509    1510    6252    6438    4803   13242+
+          13243   13235   13237    9183
CTETRA      7422       4     905     907     906    6986    2781    2787+
+           2786   16814   16419   16425
CTETRA      7423       4     879    6988    6989    7001   15574   10955+
+          16929   14432   10954   10956
CTETRA      7424       4     888    6985    7095    7127   16489   11310+
+          16414   16411   11312   11311
CTETRA      7425       4     881     912     882    7126    2809    2812+
+           2814   15071   15073   15065
CTETRA      7426       4    1104    1106    6946    6947    3418   15316+
+          14279   17236   16740   10775
CTETRA      7427       4    1097    1112    1098    6880    3448    3450+
+           3449   13506   13505   13669
CTETRA      7428       4    1590    1610    1591    6315    4994    4993+
+           4995   15204   15203   12555
CTETRA      7429       4    1502    1654    1653    6394    5215    5218+
+           5217   16418   15548   15545
CTETRA      7430       4    1565    6445    6444    6449   16369    9201+
+          14723   15741    9208    9209
CTETRA      7431       4    1076    1080    1078    6939    3373    3377+
+           3376   15128   13653   15748
CTETRA      7432       4     881     934     939    7104    2909    2913+
+           2912   16100   16101   17115
CTETRA      7433       4    1563    1567    6444    6447    4937   16981+
+          16980   14735   14722    9200
CTETRA      7434       4     409    1564    6256    6305    4919   16365+
+          17516   17517   17400    8729
CTETRA      7435       4    1102    1108    1103    6948    3422    3419+
+           3423   17211   17262   17212
CTETRA      7436       4     515     324     517    7080   14064   14088+
+            516   14067   11212   13424
CTETRA      7437       4    1110    6958    6945    6960   15320   10818+
+          15318   12248   10820   10819
CTETRA      7438       4     411     218    6256    6450   16357    8728+
+          16368   16358    9214    9216
CTETRA      7439       4    1644    1651    1647    6403    5204    5207+
+           5187   17378   13850   17397
CTETRA      7440       4    1299    6235    6234    6241   15239    8536+
+          17467   16729    8556    8553
CTETRA      7441       4    1102    6887    6882    6948   14285   10594+
+          17135   17211   10779   10778
CTETRA      7442       4     425    1554    1555    6372    4885    4887+
+           4883   12848   12849   12855
CTETRA      7443       4     932     941    7106    7117    2925   12473+
+          12463   12465   12474   11271
CTETRA      7444       4     872     877     873    7031    2753    2755+
+           2754   15485   14434   17554
CTETRA      7445       4     429     431    1466    6221     430    4578+
+           4576   12749   12600   12594
CTETRA      7446       4    1462    6157    6156    6229   15761    8229+
+          17465   14714    8503    8502
CTETRA      7447       4     745     746     892    6982    2353    2715+
+           2714   12923   12925   16115
CTETRA      7448       4    1179    6229    6235    6242   14713    8528+
+          16728   15762    8559    8560
CTETRA      7449       4     768     780     781    6981    2357    2356+
+           2358   14105   14914   14951
CTETRA      7450       4    1179    6229    6228    6235   14713    8506+
+          17543   16728    8528    8525
CTETRA      7451       4    1471    6156    1472    6177   13154   15770+
+           4615   13155    8265   14715
CTETRA      7452       4    1165    6875    1166    6922   17246   16501+
+           3666   17328   10659   16936
CTETRA      7453       4    1029    1046    1048    6758    3222    3220+
+           3212   14535   14537   14536
CTETRA      7454       4    1459    1468    1460    6231    4586    4589+
+           4591   17494   17191   16987
CTETRA      7455       4     835    7228     864    7229   14602   11901+
+           2687   11970   11687   17534
CTETRA      7456       4    1460    1461    6155    6230    4571   15767+
+          17498   16986   14711    8501
CTETRA      7457       4    1459    6154    6153    6211   13753    8315+
+          17440   17322    8438    8437
CTETRA      7458       4     767     782     780    7167    2366    2369+
+           2359   12457   17311   17470
CTETRA      7459       4    1029    1046    6758    6930    3222   14537+
+          14535   14913   17347   10712
CTETRA      7460       4     785     788     787    7038    2407    2408+
+           2405   16472   15714   15713
CTETRA      7461       4    1418    1430    6198    6201    4482   17492+
+          16841   16926   17314    8404
CTETRA      7462       4    1429    6150    6200    6201   14740    8389+
+          17280   17313    8388    8390
CTETRA      7463       4    1430    6198    6201    6202   17492    8404+
+          17314   16885    8403    8405
CTETRA      7464       4     802    7091    7092    7142   15001   11391+
+          15005   15871   11385   11389
CTETRA      7465       4     782    7167    7168    7169   17311   11476+
+          17315   16983   11475   11477
CTETRA      7466       4     806    7141    7140    7144   15615   11396+
+          16187   15616   11398   11397
CTETRA      7467       4     423    6363     230    6377   12828    8925+
+          16668   12829    8952    8954
CTETRA      7468       4     746     892    6982    6983    2715   16115+
+          12925   14969   16116   10900
CTETRA      7469       4     893     894    6999    7043    2706   14971+
+          15712   16110   14972   11081
CTETRA      7470       4     746     747     899    7158    2348    2739+
+           2738   14970   14924   14968
CTETRA      7471       4    1556    1557    1575    6359    4901    4970+
+           4969   17512   15247   15246
CTETRA      7472       4     419     421    1429    6200     420    4478+
+           4475   15707   16883   17280
CTETRA      7473       4    1132    1133    1138    7067    3558    3574+
+           3575   12499   16398   12513
CTETRA      7474       4    1138    7062    1148    7067   15526   14218+
+           3614   12513   11171   16399
CTETRA      7475       4    1147    7062    1149    7065   17319   15525+
+           3613   14215   11157   14224
CTETRA      7476       4     495     302    6753    6783   12111   10228+
+          12147   12113   10224   10230
CTETRA      7477       4    1022    6958    1110    6960   17267   15320+
+           3429   16736   10820   12248
CTETRA      7478       4     421     423    1430    6202     422    4489+
+           4480   16884   17241   16885
CTETRA      7479       4     431    6221     238    6236   12600    8497+
+          12852   13715    8521    8523
CTETRA      7480       4    1139    1146    7063    7072    3606   15516+
+          15505   15078   15080   11183
CTETRA      7481       4     423     230    6197    6202   16668    8399+
+          17307   17241    8397    8401
CTETRA      7482       4    1431    6198    6197    6209   17491    8402+
+          17308   17282    8447    8450
CTETRA      7483       4     867    7069    1134    7082   16023   15709+
+           3565   12490   11226   12487
CTETRA      7484       4    1435    5969    1436    6182   16546   16741+
+           4527   17518    8311   17496
CTETRA      7485       4    1186    6708    1315    6710   13168   13165+
+           4072   13160   10030   16530
CTETRA      7486       4    1487    6189    1488    6191   14702   14701+
+           4680   11974    8342   14704
CTETRA      7487       4    1312    1314    6706    6722    4083   13266+
+          16533   15278   15277   10076
CTETRA      7488       4    1048    6758    6768    6788   14536   10257+
+          12249   14048   10259   10258
CTETRA      7489       4    1013    1019    1016    6576    3187    3188+
+           3177   15530   15924   15055
CTETRA      7490       4    1497    6163    6164    6179   16031    8280+
+          15967   12518    8279    8278
CTETRA      7491       4    1048    6769    1049    6788   12252   12278+
+           3209   14048   10262   14917
CTETRA      7492       4     811    7091     812    7190   15004   15612+
+           2510   13576   11564   15010
CTETRA      7493       4    1104    1105    6889    6966    3435   16406+
+          14278   14280   16025   10842
CTETRA      7494       4    1145    7056    7055    7065   17558   11135+
+          17559   14223   11148   11151
CTETRA      7495       4    1455    1456    1495    6165    4617    4710+
+           4709   15412   13658   13907
CTETRA      7496       4    1478    6143    6142    6362   17390    8379+
+          17389   17349    8939    8936
CTETRA      7497       4     497    6753     304    7052   17159   10229+
+          17183   16009   11101   11103
CTETRA      7498       4    1498    6163    6179    6181   16030    8279+
+          12520   12466    8297    8294
CTETRA      7499       4     802     812     811    7091    2508    2510+
+           2509   15001   15612   15004
CTETRA      7500       4     373     591     375    6042    1860    1861+
+            374   15292   12046   15293
CTETRA      7501       4    1752    1761    6113    6114    5546   14140+
+          13808   15283   15285    8127
CTETRA      7502       4     586     595    6134    6135    2280   12126+
+          14083   12137   12127    8202
CTETRA      7503       4     585     586    6118    6135    2286   15233+
+          16456   12129   12137    8208
CTETRA      7504       4     819    7189    7188    7203   15613   11569+
+          13454   13468   11606   11603
CTETRA      7505       4     903    7007     904    7018   15568   16066+
+           2777   15577   10944   15573
CTETRA      7506       4     803     804    7090    7148    2474   11905+
+          15012   15623   11906   11410
CTETRA      7507       4     865    7074    1136    7079   16680   16960+
+           3572   16676   11215   17226
CTETRA      7508       4     742     786     743    7045    2391    2398+
+           2399   16491   13421   13425
CTETRA      7509       4     505     507     314    6937     506   13395+
+          13394   13409   13419   10738
CTETRA      7510       4     373     182     180    6042   15288     181+
+          15287   15292    7967    7968
CTETRA      7511       4    1136    7073    7074    7078   14076   11205+
+          16960   14101   11204   11201
CTETRA      7512       4     375    6042     591    6067   15293   12046+
+           1861   15856    7969   15852
CTETRA      7513       4    1761    6105    6113    6114   15717    8123+
+          14140   15285    8125    8127
CTETRA      7514       4    1752    6115    6114    6123   16992    8130+
+          15283   17430    8149    8148
CTETRA      7515       4    1135    1136    7074    7078    3561   16960+
+          12006   13617   14101   11201
CTETRA      7516       4     743     895     865    7044    2697    2694+
+           2692   16764   14234   15705
CTETRA      7517       4    1753    6106    6114    6115   16761    8126+
+          15284   16993    8128    8130
CTETRA      7518       4    1756    6116    1758    6124   13504   13503+
+           5500   14533    8159   17002
CTETRA      7519       4     882     936     934    7130    2910    2906+
+           2908   15066   15070   16192
CTETRA      7520       4    1801    1813    6075    6111    5740   11824+
+          13786   13787   12960    8103
CTETRA      7521       4    1741    1742    1813    6108    5498    5732+
+           5733   12998   12997   13019
CTETRA      7522       4    1740    6110    6069    6112   12999    8118+
+          13026   13027    8119    8113
CTETRA      7523       4     585    1751    1765    6118    5514    5556+
+           5555   16456   14587   14586
CTETRA      7524       4     593    6127    6126    6136   14395    8191+
+          14394   13917    8206    8205
CTETRA      7525       4     880    6988     906    7103   17231   16666+
+           2784   16984   11251   17137
CTETRA      7526       4    1812    6076    6077    6101   13016    8064+
+          13767   13773    8063    8065
CTETRA      7527       4    1125    6879    6909    6911   15720   10597+
+          15721   17070   10606   10607
CTETRA      7528       4     801    7092    7135    7142   16587   11367+
+          16438   16440   11389   11390
CTETRA      7529       4    1816    6100    6090    6101   15685    8070+
+          13783   13785    8069    8068
CTETRA      7530       4    1801    6075    6071    6111   13786    8104+
+          15113   13787    8103    8105
CTETRA      7531       4     806    7140    7141    7142   16187   11396+
+          15615   15872   11395   11386
CTETRA      7532       4    1740    1801    1802    6070    5688    5692+
+           5690   13043   15114   15115
CTETRA      7533       4    1802    5993    5992    6070   15108    7833+
+          15695   15115    7989    7991
CTETRA      7534       4     926     930    6990    7022    2887   13521+
+          12360   13609   14932   10990
CTETRA      7535       4    1774    6048    1776    6051   15711   13486+
+           5594   11850    7894   11851
CTETRA      7536       4    1770    6045    1772    6057   16951   13813+
+           5578   16955    7913   11847
CTETRA      7537       4     596     603     597    6103    1852    1854+
+           1853   16230   16217   12411
CTETRA      7538       4    1747    6105    6047    6113   14648    8098+
+          14647   13796    8123    8122
CTETRA      7539       4    1715    6310    1717    6322   14963   14357+
+           5402   14964    8800   15396
CTETRA      7540       4    1770    6045    6057    6065   16951    7913+
+          16955   16952    7951    7950
CTETRA      7541       4    1766    1767    1770    6065    5564    5570+
+           5575   16336   16954   16952
CTETRA      7542       4     884     921     919    7099    2854    2850+
+           2852   16480   16641   16484
CTETRA      7543       4     802     808     806    7142    2492    2491+
+           2476   15871   16441   15872
CTETRA      7544       4    1767    6044    6065    6066   16639    7954+
+          16954   16637    7956    7955
CTETRA      7545       4     748     749     909    7159    2321    2792+
+           2791   16772   15553   15555
CTETRA      7546       4     883    7119     936    7130   16485   15068+
+           2911   16099   11342   15070
CTETRA      7547       4     807    7141    7144    7148   15614   11398+
+          15617   16445   11408   11409
CTETRA      7548       4     750    7150    7149    7152   17541   11425+
+          17472   17475   11441   11442
CTETRA      7549       4     750     776    7150    7152    2309   17539+
+          17541   17475   15060   11441
CTETRA      7550       4    1690    5978    5997    6024   14572    7791+
+          14567   14570    7794    7786
CTETRA      7551       4     805    7134    7135    7136   16487   11363+
+          16486   17106   11362   11364
CTETRA      7552       4     800     805     801    7135    2467    2486+
+           2487   17118   16486   16438
CTETRA      7553       4    1750    5990    6049    6068   13820    7892+
+          14651   14621    7982    7984
CTETRA      7554       4    1749    6068    6049    6109   16245    7984+
+          16241   14623    8095    8094
CTETRA      7555       4    1776    6048    6049    6052   13486    7898+
+          17432   13487    7897    7893
CTETRA      7556       4     933    7121    7120    7122   12470   11284+
+          12524   12866   11288   11306
CTETRA      7557       4     887     907     905    6986    2779    2781+
+           2771   16424   16419   16814
CTETRA      7558       4     579     602     601    5945    1826    1828+
+           1827   12693   11814   14659
CTETRA      7559       4     357     359     635    5833     358    1930+
+           1929   16076   15672   13233
CTETRA      7560       4     801    7092    7093    7135   16587   11368+
+          17461   16438   11367   11365
CTETRA      7561       4     800     801     810    7093    2487    2506+
+           2505   16507   17461   17463
CTETRA      7562       4     801     811     810    7092    2511    2512+
+           2506   16587   13575   16962
CTETRA      7563       4     916    7100     921    7145   12875   13594+
+           2847   13599   11407   13596
CTETRA      7564       4     697    5892     698    5926   17560   11942+
+           2152   17022    7568   11944
CTETRA      7565       4     693    5877    5876    5891   16376    7411+
+          15663   11965    7454    7453
CTETRA      7566       4     802     806     803    7141    2476    2475+
+           2477   15002   15615   15003
CTETRA      7567       4     810     811     817    7191    2512    2531+
+           2533   12179   13577   13566
CTETRA      7568       4     838    7205    7221    7225   14198   11648+
+          12424   16966   11662   11664
CTETRA      7569       4      36      82      83    7219     573     101+
+            561   15599   11739   11695
CTETRA      7570       4     813    7090    7188    7189   11884   11568+
+          11886   14203   11567   11569
CTETRA      7571       4     774    7153    7087    7154   12379   11437+
+          15630   17292   11440   11435
CTETRA      7572       4     697     710    5925    5926    2201   13529+
+          13541   17022   11955    7570
CTETRA      7573       4     758     759     822    7200    2329    2541+
+           2535   16184   17302   16963
CTETRA      7574       4     692     698     697    5892    2149    2152+
+           2151   11950   11942   17560
CTETRA      7575       4     699     711    5890    5928    2204   11959+
+          12952   13015   12968    7580
CTETRA      7576       4     884     921    7099    7143    2854   16641+
+          16480   15050   13595   11406
CTETRA      7577       4     750    7098     911    7149   17471   15869+
+           2796   17472   11429   17136
CTETRA      7578       4     804    7088    7089    7147   14121   11415+
+          11904   15604   11414   11413
CTETRA      7579       4     669     678     676    5902    2069    2078+
+           2075   15025   13757   12422
CTETRA      7580       4     883    7098    7099    7119   17217   11304+
+          16483   16485   11303   11302
CTETRA      7581       4      57    5914     717    5916   13500   13514+
+           2238   15846    7529   16148
CTETRA      7582       4     905    6986     906    6987   16814   16425+
+           2786   16063   10921   16064
CTETRA      7583       4     774     776    7153    7154    2316   15062+
+          12379   17292   15063   11440
CTETRA      7584       4     883     911    7098    7129    2801   15869+
+          17217   16098   15870   11332
CTETRA      7585       4      58     718     109    5916    2233   17083+
+           5801   15848   15847    7518
CTETRA      7586       4     649    5864     650    5878   13427   13439+
+           2019   13428    7413   13431
CTETRA      7587       4     649    5865    5864    5879   15407    7363+
+          13427   13429    7415    7412
CTETRA      7588       4     658    5843    5862    5863   16160    7356+
+          17121   13445    7358    7360
CTETRA      7589       4     650     692     691    5878    2133    2136+
+           2135   13431   17031   13432
CTETRA      7590       4     812     813     819    7189    2497    2519+
+           2518   14202   14203   15613
CTETRA      7591       4     651    5863    5862    5877   16797    7360+
+          17122   16375    7410    7409
CTETRA      7592       4     661     665     667    5857    2061    2063+
+           2062   17300   15677   12220
CTETRA      7593       4     749     750     911    7149    2311    2796+
+           2795   17474   17472   17136
CTETRA      7594       4     751     755     807    7146    2308    2470+
+           2471   17112   15608   17116
CTETRA      7595       4     821    7187    7186    7201   17107   11577+
+          14127   17466   11601   11600
CTETRA      7596       4     646     675     687    5882    2118    2120+
+           2116   16794   16789   16604
CTETRA      7597       4     910    7096    7097    7125   15563   11331+
+          15564   16417   11315   11328
CTETRA      7598       4     857    7220    7218    7223   15593   11656+
+          17092   15595   11668   11667
CTETRA      7599       4     655     656     659    5853    2001    2016+
+           2025   17537   16155   16163
CTETRA      7600       4     775     778    7153    7157    2333   12380+
+          14918   14920   16089   11448
CTETRA      7601       4     758    7186    7185    7200   17293   11575+
+          15624   16184   11590   11589
CTETRA      7602       4     747    7156     748    7160   14366   14422+
+           2340   17110   11466   16773
CTETRA      7603       4     889    7095    7158    7160   17542   11460+
+          17561   15561   11470   11467
CTETRA      7604       4     614    5831    5830    5832   12231    7277+
+          13764   12238    7285    7284
CTETRA      7605       4     654    5845    5864    5865   13435    7362+
+          17207   15423    7361    7363
CTETRA      7606       4     888     889     908    7095    2748    2789+
+           2788   16414   17542   16415
CTETRA      7607       4     749    7155    7152    7159   16370   11454+
+          15058   15553   11464   11463
CTETRA      7608       4     359     166    5854    5855   15671    7312+
+          15670   15680    7311    7313
CTETRA      7609       4     361     168     166    5855   17016     167+
+          15678   15681    7309    7311
CTETRA      7610       4     746     773     747    7132    2347    2346+
+           2348   12926   12928   14365
CTETRA      7611       4     653     657     655    5850    1995    2000+
+           2002   17077   17413   17078
CTETRA      7612       4     655    5844    5845    5853   13443    7292+
+          13436   17537    7291    7290
CTETRA      7613       4     657    5850    5851    5852   17413    7301+
+          17415   17034    7299    7298
CTETRA      7614       4     854     857    7217    7235    2656   17088+
+          15438   15437   15589   11718
CTETRA      7615       4     529     754     805    7134    2463    2462+
+           2461   16189   16579   16487
CTETRA      7616       4      22      11     619    5860     545   17412+
+           2055   17416    7329   13195
CTETRA      7617       4    1687    5976    5975    6266   16663    7777+
+          16655   16658    8627    8628
CTETRA      7618       4     693    5876    5890    5891   15663    7451+
+          11964   11965    7453    7455
CTETRA      7619       4       4     116      64    5928    5805    5806+
+             70   15332    7582   12967
CTETRA      7620       4    1808    1809    1810    5995    5718    5720+
+           5719   15628   17423   15637
CTETRA      7621       4     890    7012     897    7015   12367   13447+
+           2726   13455   10925   12364
CTETRA      7622       4    1739    5991    6068    6069   13823    7983+
+          14620   13024    7985    7987
CTETRA      7623       4    1799    1800    1809    5994    5701    5714+
+           5717   12623   17499   17424
CTETRA      7624       4     891     894     892    7000    2712    2716+
+           2717   15892   14960   15893
CTETRA      7625       4     523     525     797    6978     524    2445+
+           2444   12529   12537   12530
CTETRA      7626       4     379     186    6030    6032   12511    7813+
+          14653   14612    7816    7818
CTETRA      7627       4    1793    6030    6029    6031   14597    7815+
+          14596   14604    7819    7835
CTETRA      7628       4    1659    6007    1783    6009   15947   17379+
+           5636   15978    7714   16313
CTETRA      7629       4    1788    1796    6001    6028    5667   13725+
+          16463   16465   16466    7802
CTETRA      7630       4    1782    1783    1792    6015    5642    5663+
+           5666   16311   16314   16593
CTETRA      7631       4    1783    1791    1792    6016    5662    5658+
+           5663   16317   16592   16600
CTETRA      7632       4     527     334     332    7102   13495     333+
+          14134   15475   11295   11294
CTETRA      7633       4    1708    6059    5986    6064   12598    7933+
+          12444   13831    7939    7938
CTETRA      7634       4     527     334     336    7173   13495     335+
+          13494   14137   11506   11507
CTETRA      7635       4    1665    1666    1773    6054    5296    5588+
+           5590   15303   11842   13798
CTETRA      7636       4    1669    6063    6059    6064   12605    7943+
+          12599   13830    7945    7939
CTETRA      7637       4     383     385    1797    6018     384    5674+
+           5675   13710   16332   15130
CTETRA      7638       4    1513    1730    1591    6314    5456    5463+
+           4990   13901   14037   12556
CTETRA      7639       4     403    1513     405    6302    4876    4875+
+            404   14469   14032   14470
CTETRA      7640       4     403    1513    6302    6329    4876   14032+
+          14469   14462   14033    8809
CTETRA      7641       4     891     893     894    6999    2711    2706+
+           2712   14975   15712   14971
CTETRA      7642       4     891    7012    6999    7013   12368   10907+
+          14975   15894   10914   10902
CTETRA      7643       4    1512    6303    6314    6318   13891    8773+
+          13887   13888    8775    8774
CTETRA      7644       4     759     823     822    7199    2540    2542+
+           2541   15698   16479   16964
CTETRA      7645       4     822     828    7201    7215    2565   14209+
+          17469   16965   17562   11637
CTETRA      7646       4     385     192    6311    6313   14326    8746+
+          14429   14282    8744    8748
CTETRA      7647       4     810    7093    7191    7192   17463   11559+
+          12179   12181   11562   11563
CTETRA      7648       4     821     822     828    7201    2536    2565+
+           2563   17466   17469   14209
CTETRA      7649       4    1670    1695    1671    5982    5298    5300+
+           5299   16296   15866   15863
CTETRA      7650       4    1710    1716    6309    6324    5406   14498+
+          12878   12672   13663    8801
CTETRA      7651       4    1706    1712    1709    6312    5378    5380+
+           5376   17462   12873   14466
CTETRA      7652       4    1676    6261    6260    6335   11860    8604+
+          13088   11861    8830    8831
CTETRA      7653       4    1587    1702    6270    6271    5358   16869+
+          14042   17396   11856    8611
CTETRA      7654       4    1705    6269    6270    6284   17520    8619+
+          16870   17418    8613    8617
CTETRA      7655       4    1682    1705    1704    6284    5355    5357+
+           5356   17563   17418   16856
CTETRA      7656       4     814    7088    7186    7187   13466   11574+
+          14124   13467   11576   11577
CTETRA      7657       4    1703    1704    1705    6284    5352    5357+
+           5360   17417   16856   17418
CTETRA      7658       4    1682    6269    1705    6284   15181   17520+
+           5355   17563    8613   17418
CTETRA      7659       4     537     346     539    7209   13448   11966+
+            538   13452   11626   14895
CTETRA      7660       4    1702    1703    1705    6283    5341    5360+
+           5359   11863   11864   16961
CTETRA      7661       4     531     338    7161    7178   16496   11527+
+          12915   12916   11523   11529
CTETRA      7662       4    1664    5987    1665    5988   16460   16574+
+           5294   17434    7873   17476
CTETRA      7663       4     822     823     829    7215    2542    2568+
+           2567   16965   17130   12398
CTETRA      7664       4     795    7174     798    7175   15454   15455+
+           2452   14152   11505   13499
CTETRA      7665       4    1749    1776    6048    6049    5607   13486+
+          14635   16241   17432    7898
CTETRA      7666       4    1668    1669    1766    6063    5372    5565+
+           5566   12604   12605   17380
CTETRA      7667       4    1665    1775    5988    6050    5596   17407+
+          17476   15304   17403    7884
CTETRA      7668       4    1665    5988    5987    6050   17476    7873+
+          16574   15304    7884    7885
CTETRA      7669       4    1665    1695    1670    6055    5292    5298+
+           5295   15305   16297   14544
CTETRA      7670       4    1644    6403    1647    6421   17378   17397+
+           5187   16835    9100   17401
CTETRA      7671       4    1512    1551    1552    6303    4880    4874+
+           4878   13891   13884   13892
CTETRA      7672       4     763    7161    7179    7180   16506   11537+
+          16770   12900   11534   11538
CTETRA      7673       4     533     763    7161    7179    2409   16506+
+          16499   17102   16770   11537
CTETRA      7674       4    1644    1645    6408    6421    5179   14457+
+          16848   16835   16834    9095
CTETRA      7675       4     407    1550     409    6305    4868    4869+
+            408   16975   16559   17517
CTETRA      7676       4     795    7174    7173    7177   15454   11509+
+          14139   16120   11518   11519
CTETRA      7677       4    1564    6255    6256    6305   17367    8730+
+          16365   17400    8724    8729
CTETRA      7678       4     825    7197    7196    7212   14993   11584+
+          14997   14994   11642   11632
CTETRA      7679       4     405    1644    6408    6422    5177   16848+
+          14468   16682   17171    9096
CTETRA      7680       4    1596    6419    6406    6420   11936    9078+
+          11934   11937    9087    9086
CTETRA      7681       4    1600    1601    1622    6400    5031    5081+
+           5080   17360   16968   14453
CTETRA      7682       4     842     844     845    7239    2599    2610+
+           2604   16462   16117   14987
CTETRA      7683       4    1509    6475    1613    6477   13244   17509+
+           5027   17564    9309   17507
CTETRA      7684       4    1613    6401    6400    6477   17510    9116+
+          17505   17507    9311    9312
CTETRA      7685       4     531    7134     805    7136   17099   16487+
+           2464   16497   11362   17106
CTETRA      7686       4     800     810     809    7093    2505    2507+
+           2503   16507   17463   16508
CTETRA      7687       4    1643    6404    1648    6418   17398   16866+
+           5188   17342    9090   17502
CTETRA      7688       4    1601    1623    1622    6426    5085    5087+
+           5081   13873   13872   14005
CTETRA      7689       4      37      38     858    7231      47    2666+
+           2665   16069   16070   15583
CTETRA      7690       4      40      87      88    7227     555      91+
+            556   17126   11689   11682
CTETRA      7691       4    1508    1600    6476    6477    5033   16758+
+          17365   17508   17506    9314
CTETRA      7692       4      88     864    7228    7229   17127   11901+
+          11681   11688   17534   11687
CTETRA      7693       4      41     864      88    7229    2689   17127+
+            558   17124   17534   11688
CTETRA      7694       4    1620    1621    6398    6399    5083   14445+
+          16969   15214   14446    9128
CTETRA      7695       4     841     842     854    7235    2598    2648+
+           2647   17091   15588   15437
CTETRA      7696       4     843     859    7218    7219    2663   17565+
+          15584   16809   15600   11669
CTETRA      7697       4     419    1577     421    6357    4974    4973+
+            420   11952   11961   17514
CTETRA      7698       4     539      41       3    7229    2690      42+
+            540   11968   17124   11972
CTETRA      7699       4      37     859      84    7223    2662   15598+
+            562   16616   16617   11698
CTETRA      7700       4     417     224     226    6151   16261     225+
+          11945   11947    8393    8392
CTETRA      7701       4    1408    6373    1558    6374   13251   16511+
+           4898   13254    8929   13263
CTETRA      7702       4    1406    1407    1521    6361    4666    4864+
+           4863   16911   17482   16912
CTETRA      7703       4     780     782    7084    7167    2369   17310+
+          14360   17470   17311   11473
CTETRA      7704       4      37     858    7223    7231    2665   15582+
+          16616   16069   15583   11699
CTETRA      7705       4    1486    6141    6366    6375   14771    8908+
+          14773   15422    8940    8941
CTETRA      7706       4    1520    1521    1556    6360    4867    4902+
+           4903   17556   13255   13257
CTETRA      7707       4      82    7240     843    7242   11740   15587+
+          15596   11747   11746   14980
CTETRA      7708       4    1407    6360    1521    6361   13261   13255+
+           4864   17482    8933   16912
CTETRA      7709       4    1520    1521    6360    6385    4867   13255+
+          17556   17382   16914    8991
CTETRA      7710       4    1558    6373    6360    6374   16511    8935+
+          13256   13263    8929    8932
CTETRA      7711       4     771    7165    7166    7169   16129   11487+
+          16183   16130   11486   11482
CTETRA      7712       4    1508    6476    6473    6477   17365    9306+
+          17337   17508    9314    9313
CTETRA      7713       4    1507    1508    1600    6476    4809    5033+
+           5034   17199   17365   16758
CTETRA      7714       4    1508    6472    1509    6477   17336   16859+
+           4801   17508    9310   17564
CTETRA      7715       4     853    7217     857    7220   12428   17088+
+           2657   16170   11654   15593
CTETRA      7716       4    1539    6472    6473    6474   15075    9287+
+          17227   17229    9286    9288
CTETRA      7717       4     843     859     857    7218    2663    2664+
+           2654   15584   17565   17092
CTETRA      7718       4    1508    6473    6472    6477   17337    9287+
+          17336   17508    9313    9310
CTETRA      7719       4     841    7234    7235    7236   17089   11712+
+          17091   15435   11711   11713
CTETRA      7720       4     828     829     855    7237    2566    2642+
+           2640   12403   12400   12408
CTETRA      7721       4    1508    1509    1613    6477    4801    5027+
+           5028   17508   17564   17507
CTETRA      7722       4     826    7196    7195    7211   14998   11588+
+          16434   16112   11630   11633
CTETRA      7723       4    1600    6400    6476    6477   17360    9315+
+          16758   17506    9312    9314
CTETRA      7724       4    1601    6400    6401    6428   16968    9116+
+          17511   13874    9113    9117
CTETRA      7725       4    1548    6352    6353    6379   15223    9002+
+          15226   15225    8999    8983
CTETRA      7726       4     859    7218    7219    7223   17565   11669+
+          15600   16617   11667   11670
CTETRA      7727       4    1522    1538    1540    6470    4813    4812+
+           4811   12527   15077   12528
CTETRA      7728       4    1517    6441    1542    6442   16695   13115+
+           4829   14389    9223   13114
CTETRA      7729       4    1537    6440    1541    6471   16979   14609+
+           4821   13550    9289   15124
CTETRA      7730       4    1459    1460    1469    6154    4591    4598+
+           4595   13753   17497   13754
CTETRA      7731       4    1469    6184    6166    6194   13909    8362+
+          13569   13572    8364    8363
CTETRA      7732       4     833    7210     852    7245   16114   12723+
+           2632   13490   11759   12722
CTETRA      7733       4    1456    6164    6165    6178   15966    8274+
+          13658   13660    8273    8272
CTETRA      7734       4    1456    1497    1495    6164    4717    4719+
+           4710   15966   15967   11985
CTETRA      7735       4    1553    1555    1554    6364    4888    4887+
+           4889   13720   13719   15134
CTETRA      7736       4     598     629     636    6093    1938    1941+
+           1940   13145   15899   13148
CTETRA      7737       4    1407    6366    1408    6374   15414   15415+
+           4656   13262    8945   13254
CTETRA      7738       4    1478    6361    6362    6375   17483    8944+
+          17349   17358    8942    8938
CTETRA      7739       4     623     640     624    5836    1957    1959+
+           1958   12204   15314   13748
CTETRA      7740       4    1478    6362    6142    6375   17349    8936+
+          17389   17358    8938    8937
CTETRA      7741       4    1408    1481    6365    6366    4634   15276+
+          13249   15415   15279    8914
CTETRA      7742       4    1436    1449    1437    5970    4536    4539+
+           4538   17323   12057   12056
CTETRA      7743       4     627     631     628    5841    1910    1909+
+           1911   16294   15904   15675
CTETRA      7744       4    1582    1628    1636    6290    5129    5150+
+           5146   17224   17375   17225
CTETRA      7745       4    1480    1484    6139    6182    4648   17392+
+          14780   17436   17395    8344
CTETRA      7746       4    1496    1497    1498    6163    4721    4723+
+           4722   15969   16031   16030
CTETRA      7747       4    1435    1436    1479    6182    4527    4644+
+           4647   17518   17496   17437
CTETRA      7748       4    1464    6230    6231    6232   15236    8520+
+          16988   14708    8516    8519
CTETRA      7749       4     636     637     642    5947    1947    1969+
+           1971   15901   17445   15902
CTETRA      7750       4     629     630    5954    6094    1917   12979+
+          15898   16613   12977    8030
CTETRA      7751       4    1414    6210    1415    6223   16724   14058+
+           4455   17487    8483   14055
CTETRA      7752       4    1460    1461    1471    6155    4571    4608+
+           4607   17498   15767   13153
CTETRA      7753       4     674     685     687    5897    2113    2127+
+           2121   16606   16601   16598
CTETRA      7754       4    1459    1460    6154    6231    4591   17497+
+          13753   17494   16987    8507
CTETRA      7755       4     637     642    5947    5951    1969   15902+
+          17445   17446   16081    7683
CTETRA      7756       4    1460    6155    6154    6231   17498    8268+
+          17497   16987    8508    8507
CTETRA      7757       4     371    1817     726    5938    5753    5755+
+           5754   12870   13745   12871
CTETRA      7758       4     134     579     724    5945    1825    2302+
+           2301   11790   12693   11791
CTETRA      7759       4    1814    1817    6083    6084    5765   17444+
+          16624   17438   13747    8003
CTETRA      7760       4    1811    6087    1814    6088   11828   11830+
+           5747   11831    8011   13781
CTETRA      7761       4      36      83      84    7219     561      94+
+            560   15599   11695   11694
CTETRA      7762       4    1418    1430    1431    6198    4482    4490+
+           4487   16841   17492   17491
CTETRA      7763       4    1417    6210    1426    6214   17334   12030+
+           4457   16843    8451   12032
CTETRA      7764       4     361    5817     634    5948   12956   12958+
+           1923   15679    7666   13259
CTETRA      7765       4     425    1428    1431    6197    4483    4484+
+           4485   17195   17495   17308
CTETRA      7766       4     633     639     638    5950    1950    1952+
+           1951   16804   14168   14175
CTETRA      7767       4     578     725     579    5943    2299    2304+
+           1829   13807   13806   14656
CTETRA      7768       4    1428    1431    6197    6209    4484   17308+
+          17495   14053   17282    8450
CTETRA      7769       4    1315    6709    6706    6710   13167   10024+
+          16532   16530   10027   10022
CTETRA      7770       4     600     601     633    5818    1834    1921+
+           1920   17443   14657   16808
CTETRA      7771       4    1374    6622    1388    6623   15155   17442+
+           4366   13213    9882   15268
CTETRA      7772       4    1364    6624    6623    6720   13215    9887+
+          13214   12042   10056   10057
CTETRA      7773       4    1270    1388    6622    6718    4364   17442+
+          16887   15269   12491   10063
CTETRA      7774       4    1628    1634    1636    6290    5133    5151+
+           5150   17375   15697   17225
CTETRA      7775       4      55     723     722    5920    2259    2256+
+           2254   15651   13186   11922
CTETRA      7776       4    1321    6740    6734    6747   12078   10143+
+          14844   14847   10184   10162
CTETRA      7777       4    1806    6083    6073    6088   15940    8001+
+          11890   11892    8008    8007
CTETRA      7778       4    1388    6623    6622    6718   15268    9882+
+          17442   12491   10061   10063
CTETRA      7779       4    1270    1271    1388    6718    4079    4363+
+           4364   15269   12054   12491
CTETRA      7780       4    1387    6622    1389    6682   16402   15154+
+           4368   16403    9936   15217
CTETRA      7781       4    1270    6718    6622    6721   15269   10063+
+          16887   13225   10069   10068
CTETRA      7782       4     594     611     595    6125    1872    1871+
+           1873   12136   14859   12125
CTETRA      7783       4       1    6131       2    6132    8178   15891+
+            153    8182    8183   14492
CTETRA      7784       4    1274    1373    1369    6737    4317    4321+
+           4289   15754   17527   17552
CTETRA      7785       4    1308    6728    6714    6731   13007   10086+
+          16394   13008   10104   10101
CTETRA      7786       4    1274    6735    6737    6738   12076   10122+
+          15754   12077   10128   10133
CTETRA      7787       4     598     636    5955    6093    1940   13147+
+          13144   13145   13148    8041
CTETRA      7788       4    1306    6726    1322    6727   14836   14837+
+           4124   14839   10099   14840
CTETRA      7789       4     657    5850    5852    5853   17413    7299+
+          17034   17210    7294    7300
CTETRA      7790       4     626     637     630    5839    1942    1945+
+           1913   16824   12635   17409
CTETRA      7791       4     630    5840    5839    5954   12976    7352+
+          17409   12979    8029   11776
CTETRA      7792       4    1275    6735    1321    6743   15267   14845+
+           4130   13211   10140   12081
CTETRA      7793       4    1365    6624    6625    6664   13204    9858+
+          16035   13205    9857    9856
CTETRA      7794       4    1373    6627    6626    6737   16704    9839+
+          17551   17527   10124   10125
CTETRA      7795       4     648    5879     690    5880   13433   13434+
+           2145   15406    7420   17536
CTETRA      7796       4    1362    6520    6521    6550   17006    9425+
+          17007   14809    9421    9424
CTETRA      7797       4     655     659    5844    5853    2025   13444+
+          13443   17537   16163    7291
CTETRA      7798       4     652     657     653    5850    1993    1995+
+           1994   17414   17413   17077
CTETRA      7799       4     649     691     690    5879    2139    2141+
+           2140   13429   17071   13434
CTETRA      7800       4    1273    1274    1369    6739    4125    4289+
+           4288   14862   15755   14857
CTETRA      7801       4    1354    1372    6627    6658    4315   17566+
+          17538   17299   17156    9837
CTETRA      7802       4      36      84      37     859     560     562+
+             45    2661   15598    2662
CTETRA      7803       4     665     666     667    5857    2064    2060+
+           2063   15677   12222   12220
CTETRA      7804       4    1361    6522    6521    6659   16698    9418+
+          15013   15017    9836    9835
CTETRA      7805       4     637    5839    5838    5947   12635    7378+
+          12609   17445    7686    7685
CTETRA      7806       4    1346    1361    6522    6527    4280   16698+
+          15910   17014   17015    9419
CTETRA      7807       4    1277    1289    1278    6525    3983    3966+
+           3984   12313   12320   14182
CTETRA      7808       4     357     635     620    5833    1929    1931+
+           1927   16076   13233   13232
CTETRA      7809       4     685    5884    5897    5898   15657    7472+
+          16601   16615    7484    7485
CTETRA      7810       4    1277    1349    6524    6582    4220   16716+
+          17020   17018   17010    9585
CTETRA      7811       4    1345    1346    1361    6522    4228    4280+
+           4271   15911   15910   16698
CTETRA      7812       4     654    5845     660    5864   13435   13437+
+           2022   17207    7362   13438
CTETRA      7813       4    1345    1350    1348    6523    4230    4225+
+           4227   15914   15909   16715
CTETRA      7814       4    1178    1465    1463    6228    4563    4565+
+           4561   15238   16989   14705
CTETRA      7815       4     683     684     686    5885    2106    2108+
+           2109   13749   13794   13750
CTETRA      7816       4     433    5971    1437    6690   17197   16200+
+           4540   15098    9959   12058
CTETRA      7817       4     437     242     244    6233   15096     243+
+          15095   16921    8538    8539
CTETRA      7818       4     696     697     706    5925    2163    2174+
+           2173   16152   13541   13528
CTETRA      7819       4     433     242     240    6690   14490     241+
+          14489   15098    9948    9949
CTETRA      7820       4     451     453     260    6629     452   13285+
+          13287   13289   13286    9826
CTETRA      7821       4     701    5933    5932    5934   17109    7598+
+          15652   16136    7608    7615
CTETRA      7822       4     715     716     717    5912    2229    2230+
+           2231   14640   16142   14641
CTETRA      7823       4     697    5925    5892    5926   13541    7566+
+          17560   17022    7570    7568
CTETRA      7824       4     451    6526    1287    6751   13311   13314+
+           3969   15244   10179   17351
CTETRA      7825       4     692    5877    5891    5892   16377    7454+
+          11949   11950    7460    7461
CTETRA      7826       4     713    5923    5933    5934   15643    7595+
+          17108   16141    7607    7608
CTETRA      7827       4     691     692     697    5892    2136    2151+
+           2161   17456   11950   17560
CTETRA      7828       4     691    5892     697    5893   17456   17560+
+           2161   17074    7458   17567
CTETRA      7829       4    1287    6742    1288    6750   13208   16714+
+           3982   17480   10175   15135
CTETRA      7830       4    1289    6526    6525    6742   13282    9596+
+          12320   12321   10156   10155
CTETRA      7831       4    1287    1288    1291    6750    3982    3992+
+           3987   17480   15135   17353
CTETRA      7832       4     451     258    6526    6751   13288    9594+
+          13311   15244   10177   10179
CTETRA      7833       4     696    5893     697    5925   16945   17567+
+           2163   16152    7567   13541
CTETRA      7834       4     618     657     652    5851    1990    1993+
+           1987   16778   17415   13194
CTETRA      7835       4     449    6748     256    6751   17447   10172+
+          13278   17350   10182   10178
CTETRA      7836       4    1291    1292    1293    6749    3993    4001+
+           3996   16846   17038   14630
CTETRA      7837       4     690     691     696    5893    2141    2162+
+           2164   17055   17074   16945
CTETRA      7838       4     447    5957     254    6748   17001    8432+
+          17000   17244   10173   10171
CTETRA      7839       4     674    5896     714    5904   16817   16819+
+           2211   17206    7507   17464
CTETRA      7840       4     714    5904    5922    5923   17464    7560+
+          16473   16475    7561    7562
CTETRA      7841       4    1287    6526    1289    6742   13314   13282+
+           3970   13208   10156   12321
CTETRA      7842       4     713    5923    5922    5933   15643    7562+
+          16474   17108    7595    7594
CTETRA      7843       4     645    5869    5868    5883   11820    7380+
+          13759   17003    7427    7429
CTETRA      7844       4    1291    1292    6749    6750    3993   17038+
+          16846   17353   17274   10191
CTETRA      7845       4    1262    6513    6514    6561   12709    9505+
+          17163   16561    9496    9504
CTETRA      7846       4     673     674     714    5904    2112    2211+
+           2212   17047   17206   17464
CTETRA      7847       4    1250    6641    6640    6644   14884    9749+
+          17052   14885    9760    9761
CTETRA      7848       4     673     683    5898    5905    2104   13751+
+          17046   17048   15312    7513
CTETRA      7849       4    1254    1264    6514    6560    3940   17162+
+          12093   16692   16691    9501
CTETRA      7850       4     673    5897     674    5904   16605   16606+
+           2112   17047    7506   17206
CTETRA      7851       4    1203    6516    1204    6639   12088   12090+
+           3800   12094    9753   12095
CTETRA      7852       4     457     264     266    6578   15465     265+
+          16387   16388    9600    9601
CTETRA      7853       4    1238    1239    1247    6637    3848    3888+
+           3889   14373   17568   16548
CTETRA      7854       4     457    1240    1238    6636    3845    3847+
+           3843   15478   15472   17064
CTETRA      7855       4    1239    6646    6637    6653   16898    9781+
+          17568   16649    9801    9800
CTETRA      7856       4    1238    1239    6637    6653    3848   17568+
+          14373   16648   16649    9800
CTETRA      7857       4    1239    6646    6653    6654   16898    9801+
+          16649   16899    9811    9812
CTETRA      7858       4    1239    1247    6637    6646    3888   16548+
+          17568   16898   16553    9781
CTETRA      7859       4     750     751     884    7151    2307    2805+
+           2804   17473   17133   16482
CTETRA      7860       4     756    7088    7147    7154   14120   11414+
+          15603   16182   11434   11432
CTETRA      7861       4     755     776     756    7154    2312    2314+
+           2313   15988   15063   16182
CTETRA      7862       4     804    7146    7147    7148   15607   11420+
+          15604   11906   11419   11416
CTETRA      7863       4     755     804     807    7146    2468    2472+
+           2470   15608   15607   17116
CTETRA      7864       4    1250    6640    1252    6644   17052   17051+
+           3899   14885    9761   14882
CTETRA      7865       4     459    1341    1334    6615    4203    4202+
+           4201   15147   15149   16295
CTETRA      7866       4     755    7147    7146    7150   15602   11420+
+          15608   15987   11422   11421
CTETRA      7867       4     755    7150     776    7154   15987   17539+
+           2312   15988   11433   15063
CTETRA      7868       4    1206    1264    6560    6569    3937   16691+
+          17270   15193   17253    9541
CTETRA      7869       4     750    7150     755    7151   17541   15987+
+           2306   17473   11423   17540
CTETRA      7870       4     751     755    7146    7151    2308   15608+
+          17112   17133   17540   11426
CTETRA      7871       4    1204    1205    6515    6541    3808   12101+
+          14888   14890   12102    9456
CTETRA      7872       4     933    7107    7120    7121   12522   11278+
+          12524   12470   11283   11284
CTETRA      7873       4    1205    6541    1225    6568   12102   12107+
+           3807   16901    9534   14898
CTETRA      7874       4     791    7162    7177    7178   17291   11524+
+          12351   16949   11526   11521
CTETRA      7875       4    1225    1226    1231    6540    3795    3811+
+           3810   14896   17524   17569
CTETRA      7876       4     768    6981    6980    7083   14105   11069+
+          12449   12447   11353   11355
CTETRA      7877       4    1211    1212    1226    6555    3761    3777+
+           3774   14907   14783   17153
CTETRA      7878       4    1212    6538    1232    6539   13302   16046+
+           3804   16223    9465   17250
CTETRA      7879       4    1211    1221    1222    6543    3754    3753+
+           3756   16220   14782   13742
CTETRA      7880       4     838    7221     860    7225   12424   12426+
+           2670   16966   11664   14304
CTETRA      7881       4     844    7234    7213    7238   16180   11717+
+          16178   14983   11729   11727
CTETRA      7882       4    1216    6542    6531    6552   13308    9395+
+          14582   12818    9447    9439
CTETRA      7883       4     467     274     272    6512   12638     273+
+          17288   17045   10337    9742
CTETRA      7884       4     756     757     814    7088    2317    2499+
+           2498   14120   14122   13466
CTETRA      7885       4     822    7199     823    7215   16964   16479+
+           2542   16965   11638   17130
CTETRA      7886       4     994    1001    1002    6596    3116    3120+
+           3118   14274   14271   14270
CTETRA      7887       4    1024    1038    6891    6964    3284   13374+
+          13358   13351   13333   10837
CTETRA      7888       4     765     783     766    7168    2373    2372+
+           2374   16446   15703   16447
CTETRA      7889       4     765    7168    7171    7176   16446   11489+
+          13929   13926   11510   11512
CTETRA      7890       4    1091    6876    1152    6992   17196   12973+
+           3627   16018   11009   12972
CTETRA      7891       4    1093    1094    1166    6901    3541    3671+
+           3672   14288   14305   16500
CTETRA      7892       4    1118    1121    1120    7024    3500    3499+
+           3488   14230   12177   14238
CTETRA      7893       4    1139    7070    1140    7072   12498   13967+
+           3583   15078   11181   15079
CTETRA      7894       4    1145    7063    7056    7065   16944   11147+
+          17558   14223   11149   11148
CTETRA      7895       4     519     521     788    7042     520    2428+
+           2403   16498   14231   14147
CTETRA      7896       4     517     324     326    7039   14088     325+
+          14087   13423   11056   11055
CTETRA      7897       4    1149    7062    7063    7065   15525   11158+
+          15517   14224   11157   11149
CTETRA      7898       4     934     938     939    7114    2919    2921+
+           2913   16631   16091   17316
CTETRA      7899       4    1145    1153    7056    7063    3618   14246+
+          17558   16944   17526   11147
CTETRA      7900       4    1117    7027    7026    7028   12163   11001+
+          13342   12165   11006   11023
CTETRA      7901       4     743     785     744    7047    2395    2394+
+           2396   16765   16470   16469
CTETRA      7902       4    1145    1146    1153    7063    3610    3619+
+           3618   16944   15516   17526
CTETRA      7903       4    1146    7057    1153    7063   15518   15081+
+           3619   15516   11150   17526
CTETRA      7904       4     744    7046     895    7047   14952   16767+
+           2698   16469   11087   16766
CTETRA      7905       4     752     807     806    7144    2479    2478+
+           2481   15874   15617   15616
CTETRA      7906       4     801     802    7092    7142    2493   15005+
+          16587   16440   15871   11389
CTETRA      7907       4     511     318     316    6886   14112     317+
+          16093   14113   10733   10732
CTETRA      7908       4     759     784     760    7183    2386    2380+
+           2388   15053   15057   17289
CTETRA      7909       4     770     777     771    7166    2331    2335+
+           2336   15629   15627   16183
CTETRA      7910       4    1137    7074    7075    7077   12007   11200+
+          12010   12009   11199   11191
CTETRA      7911       4     829     841     855    7236    2596    2643+
+           2642   12399   15435   12406
CTETRA      7912       4     758     822     821    7200    2535    2536+
+           2514   16184   16963   17468
CTETRA      7913       4     765    7164     783    7168   14765   15699+
+           2373   16446   11484   15703
CTETRA      7914       4    1135    7074    7077    7078   12006   11199+
+          12008   13617   11201   11196
CTETRA      7915       4    1091    6878    6877    7029   17132   10605+
+          16502   16020   11011   11013
CTETRA      7916       4     770     771    7165    7166    2336   16129+
+          15694   15629   16183   11487
CTETRA      7917       4    1125    6878    6879    6911   16198   10608+
+          15720   17070   10602   10606
CTETRA      7918       4    1122    7028    6878    7029   13349   11010+
+          16197   16022   11007   11011
CTETRA      7919       4     758     821    7186    7200    2514   14127+
+          17293   16184   17468   11590
CTETRA      7920       4    1145    1153    1150    7056    3618    3620+
+           3616   17558   14246   14245
CTETRA      7921       4     757     758     821    7186    2326    2514+
+           2513   14123   17293   14127
CTETRA      7922       4    1092    1093    6876    6914    3525   14287+
+          14303   14295   17066   10629
CTETRA      7923       4    1165    1167    1166    6875    3675    3676+
+           3666   17246   12970   16501
CTETRA      7924       4     820    7187     821    7201   13459   17107+
+           2517   14208   11601   17466
CTETRA      7925       4     814     821     820    7187    2515    2517+
+           2516   13467   17107   13459
CTETRA      7926       4    1127    6906    6904    6911   16646   10583+
+          13331   17069   10610   10609
CTETRA      7927       4    1099    6907    6906    6909   17549   10585+
+          17067   17550   10590   10612
CTETRA      7928       4     820    7202     840    7203   13460   12401+
+           2590   13470   11605   13471
CTETRA      7929       4    1099    6909    6906    6911   17550   10612+
+          17067   17068   10607   10610
CTETRA      7930       4    1098    1099    1125    6909    3460    3520+
+           3513   13668   17550   15721
CTETRA      7931       4    1098    1114    1099    6909    3459    3461+
+           3460   13668   13671   17550
CTETRA      7932       4    1099    1115    6906    6907    3465   16521+
+          17067   17549   17075   10585
CTETRA      7933       4    1073    6939    1076    6952   15133   15128+
+           3360   14447   10808   14463
CTETRA      7934       4     862     863    7226    7230    2681   11888+
+          11887   11881   11880   11691
CTETRA      7935       4     819    7188     820    7203   13454   13453+
+           2523   13468   11603   13470
CTETRA      7936       4     820     828     840    7202    2564    2591+
+           2590   13460   12402   12401
CTETRA      7937       4    1081    1083    6766    6856    3393   17451+
+          14817   14811   14812   10495
CTETRA      7938       4     757     777     758    7185    2324    2327+
+           2326   16586   15625   15624
CTETRA      7939       4     840     855    7216    7237    2641   12407+
+          12431   12404   12408   11724
CTETRA      7940       4    1084    6765    6766    6860   13655   10511+
+          13647   17145   10509   10507
CTETRA      7941       4     485    1080     487    6943    3371    3370+
+            486   13644   13654   14008
CTETRA      7942       4     841    7214    7234    7236   17129   11716+
+          17089   15435   11714   11711
CTETRA      7943       4     822    7201    7200    7215   17469   11602+
+          16963   16965   11637   11636
CTETRA      7944       4    1075    6765    6764    6938   14001   10456+
+          12566   12565   10764   10765
CTETRA      7945       4     991     992     997    6785    3079    3111+
+           3112   16342   16860   16861
CTETRA      7946       4     856     857     858    7223    2658    2659+
+           2660   15594   15595   15582
CTETRA      7947       4      40     864     863    7227    2688    2685+
+           2683   17126   17117   17120
CTETRA      7948       4    1060    6962    1064    6963   16946   16039+
+           3314   16038   10852   15537
CTETRA      7949       4    1060    6957    1062    6962   17265   16932+
+           3304   16946   10846   16947
CTETRA      7950       4     842    7235    7239    7240   15588   11735+
+          16462   15586   11734   11736
CTETRA      7951       4     775    7155     779    7157   14919   14420+
+           2341   14920   11453   14424
CTETRA      7952       4    1105    6890    6889    6966   16024   10573+
+          16406   16025   10843   10842
CTETRA      7953       4    1028    1053    1046    6930    3245    3243+
+           3223   16796   17546   17347
CTETRA      7954       4     889    7096    7095    7160   15560   11317+
+          17542   15561   11471   11470
CTETRA      7955       4    1053    6929    6928    6931   17214   10709+
+          17085   17086   10722   10721
CTETRA      7956       4    1066    6969    6968    6976   15532   10872+
+          12850   16052   10890   10891
CTETRA      7957       4     888     899     889    7095    2743    2747+
+           2748   16414   17219   17542
CTETRA      7958       4    1067    6969    1068    6970   12122   16053+
+           3330   16338   10876   16339
CTETRA      7959       4     748     909     889    7160    2791    2793+
+           2746   16773   15557   15561
CTETRA      7960       4     747     889    7158    7160    2745   17561+
+          14924   17110   15561   11467
CTETRA      7961       4     747     889     899    7158    2745    2747+
+           2739   14924   17561   14968
CTETRA      7962       4    1126    6905    6904    6915   14294   10611+
+          13330   14298   10640   10641
CTETRA      7963       4    1093    6900    1094    6901   16334   13320+
+           3541   14288   10639   14305
CTETRA      7964       4    1028    6918    6917    6930   16774   10684+
+          14799   16796   10711   10713
CTETRA      7965       4     965    6836    6835    6852   15513   10422+
+          14941   15514   10491   10492
CTETRA      7966       4     958    1017    1007    6820    3174    3175+
+           3142   15862   13383   15322
CTETRA      7967       4     989    6813    6812    6841   15360   10368+
+          13398   15359   10408   10409
CTETRA      7968       4     957    6821     958    6824   15752   15753+
+           3043   16124   10361   16126
CTETRA      7969       4    1031    1174    6774    6775    3701   12044+
+          12475   13338   12053   10214
CTETRA      7970       4     953     992    6776    6784    3086   16886+
+          15782   15524   12319   10234
CTETRA      7971       4     952     999     992    6784    3110    3113+
+           3087   15523   12308   12319
CTETRA      7972       4     773    7084    7131    7133   14361   11350+
+          14359   12929   11356   11346
CTETRA      7973       4     954    6778    1173    6779   16156   12118+
+           3693   15784   10197   12140
CTETRA      7974       4     739    6792    1241    6804   13315   13903+
+           3869   11870   10307   11875
CTETRA      7975       4     922    6884     923    7022   16937   16943+
+           2867   14935   11030   13639
CTETRA      7976       4     874     914     875    6934    2831    2830+
+           2832   16820   17260   16821
CTETRA      7977       4     915    6932    6933    6937   13405   10742+
+          13411   13416   10741   10743
CTETRA      7978       4     873     877    6883    7031    2755   16580+
+          17478   17554   14434   11034
CTETRA      7979       4     969     972     970    6871    2962    2967+
+           2968   16209   16210   16096
CTETRA      7980       4     976    6867    6870    6872   16526   10565+
+          16075   16524   10566   10561
CTETRA      7981       4     969    6871     970    6872   16209   16096+
+           2968   16522   10564   16523
CTETRA      7982       4     737     970    6790    6868    2965   16094+
+          14495   16874   16095   10548
CTETRA      7983       4     738     972    6791    6871    2953   16877+
+          11876   17254   16210   10556
CTETRA      7984       4     872     873    6882    7031    2754   17134+
+          15290   15485   17554   11045
CTETRA      7985       4     741     943    1082    6855    2941    3391+
+           3382   13906   13356   13360
CTETRA      7986       4     879    6988     880    6989   15574   17231+
+           2783   16929   10955   16652
CTETRA      7987       4    1246    6798    6791    6804   11878   10301+
+          11868   11871   10300   10304
CTETRA      7988       4     924    6884    6883    7034   17166   10727+
+          17165   13631   11031   11033
CTETRA      7989       4     913     914     922    6936    2823    2863+
+           2864   13412   17261   17285
CTETRA      7990       4     919    7099     921    7124   16484   16641+
+           2850   13417   11305   14340
CTETRA      7991       4     883     919     936    7119    2853    2904+
+           2911   16485   16193   15068
CTETRA      7992       4     878     902    7001    7033    2766   15092+
+          14431   13633   15091   11028
CTETRA      7993       4     878     902     879    7001    2766    2773+
+           2774   14431   15092   14432
CTETRA      7994       4    1120    7024    7004    7035   14238   11040+
+          15812   15299   11042   11041
CTETRA      7995       4    1150    7050    1160    7055   14240   15800+
+           3657   17454   11129   15806
CTETRA      7996       4     919    7118     936    7119   15883   15069+
+           2904   16193   11300   15068
CTETRA      7997       4     934     939    7104    7114    2913   17115+
+          16101   16631   17316   11259
CTETRA      7998       4    1041    6925    1057    6927   14319   15328+
+           3277   14320   10694   15329
CTETRA      7999       4     969     976     975    6870    2983    2985+
+           2978   16080   16075   16074
CTETRA      8000       4     945     971     968    6866    2951    2958+
+           2957   16207   15106   14488
CTETRA      8001       4     900    7002     902    7033   14946   15093+
+           2767   15090   11025   15091
CTETRA      8002       4     877     900     878    7033    2756    2764+
+           2765   13632   15090   13633
CTETRA      8003       4     736    6506    6505    6869   14520    9520+
+          14522   16734   10543   10541
CTETRA      8004       4     749    7149     911    7159   17474   17136+
+           2795   15553   11461   15554
CTETRA      8005       4     966     977    6853    6867    2995   17279+
+          16225   16880   16686   10545
CTETRA      8006       4     733     980     734    6558    3002    3004+
+           3003   12859   12860   16697
CTETRA      8007       4     745    7000    7046    7048   14959   11080+
+          14953   12918   11095   11100
CTETRA      8008       4     744    7046    7047    7048   14952   11087+
+          16469   12246   11100   11099
CTETRA      8009       4     967    6853     977    6869   12035   17279+
+           3000   16849   10542   16688
CTETRA      8010       4     961    6534     962    6587   14264   14265+
+           3010   14266    9610   12699
CTETRA      8011       4     744     745    7046    7048    2363   14953+
+          14952   12246   12918   11100
CTETRA      8012       4     889    7095     899    7158   17542   17219+
+           2747   17561   11460   14968
CTETRA      8013       4       3      41      89    7229      42     553+
+            552   11972   17124   11686
CTETRA      8014       4     980     982     981    6559    3023    3026+
+           3028   14262   14263   17141
CTETRA      8015       4     842    7218     857    7235   15585   17092+
+           2653   15588   11720   15589
CTETRA      8016       4     539       5       3      77   11971     554+
+            540   13549      97     566
CTETRA      8017       4     537     344     346    7209   13449     345+
+          13448   13452   11625   11626
CTETRA      8018       4     491     296     298    6780   16144     297+
+          16150   16146   10193   10192
CTETRA      8019       4     857    7217    7218    7220   17088   11655+
+          17092   15593   11654   11656
CTETRA      8020       4     830     841    7214    7234    2595   17129+
+          17104   16179   17089   11716
CTETRA      8021       4     844    7234    7238    7239   16180   11729+
+          14983   16117   11731   11730
CTETRA      8022       4     841    7235     854    7236   17091   15437+
+           2647   15435   11713   15436
CTETRA      8023       4    1006    1007    1015    6823    3149    3181+
+           3182   15356   14327   13393
CTETRA      8024       4     533     809     535    7094    2502    2504+
+            534   16492   14899   16527
CTETRA      8025       4    1012    1013    1016    6572    3167    3177+
+           3176   13388   14330   14329
CTETRA      8026       4     966    6852    6853    6854   16072   10487+
+          16225   15511   10486   10485
CTETRA      8027       4     822     829     828    7215    2567    2566+
+           2565   16965   12398   17562
CTETRA      8028       4     828    7215     829    7237   17562   12398+
+           2566   12403   11722   12400
CTETRA      8029       4    1004    1008    1006    6817    3147    3148+
+           3145   17528   15355   15354
CTETRA      8030       4    1008    6817    6818    6824   15355   10373+
+          17530   16125   10365   10371
CTETRA      8031       4      84     859    7219    7223   15598   15600+
+          11694   11698   16617   11670
CTETRA      8032       4     828    7201    7215    7237   14209   11637+
+          17562   12403   11721   11722
CTETRA      8033       4     818    7189     819    7204   15009   15613+
+           2521   14199   11609   13469
CTETRA      8034       4     998    6817    1004    6828   17531   17528+
+           3138   16858   10388   17240
CTETRA      8035       4     998    1008    6817    6818    3144   15355+
+          17531   17348   17530   10373
CTETRA      8036       4     989     990    6812    6825    3068   13399+
+          13398   15363   15734   10367
CTETRA      8037       4     957    1007    1008    6824    3139    3141+
+           3140   16124   15323   16125
CTETRA      8038       4     812     819     818    7189    2518    2521+
+           2520   14202   15613   15009
CTETRA      8039       4     481    1003    1020    6827    3133    3196+
+           3195   16565   17357   12052
CTETRA      8040       4     813    7187     820    7188   14119   13459+
+           2522   11886   11572   13453
CTETRA      8041       4     947     963     948    6846    2973    2975+
+           2974   16060   16836   16061
CTETRA      8042       4     856     860    7221    7224    2668   12426+
+          12425   16111   14852   11665
CTETRA      8043       4    1003    1005    1004    6826    3134    3135+
+           3136   17273   17458   17529
CTETRA      8044       4     479     286    6794    6857   15926   10294+
+          17148   15830   10498   10506
CTETRA      8045       4     471     280     473    6599   17087   16571+
+            472   12688    9654   16894
CTETRA      8046       4      87    7227     863    7230   11689   17120+
+          17125   11692   11690   11880
CTETRA      8047       4    1007    6820    1017    6823   15322   13383+
+           3175   14327   10355   13385
CTETRA      8048       4     992     993    6776    6785    3080   16151+
+          16886   16860   16343   10232
CTETRA      8049       4     818     819     839    7204    2521    2592+
+           2589   14199   13469   13456
CTETRA      8050       4    1016    1019    1018    6576    3188    3190+
+           3191   15055   15924   15529
CTETRA      8051       4     840    7203    7216    7222   13471   11658+
+          12431   12432   11650   11660
CTETRA      8052       4     817    7191    7190    7205   13566   11561+
+          16627   13567   11613   11612
CTETRA      8053       4    1027    1131    1129    6898    3543    3545+
+           3533   12208   14796   12209
CTETRA      8054       4    1042    1052    1053    6931    3252    3244+
+           3254   17084   17164   17086
CTETRA      8055       4    1027    6917    6898    6929   14797   10675+
+          12208   17213   10703   10702
CTETRA      8056       4     831     847     844    7238    2602    2607+
+           2601   16768   14984   14983
CTETRA      8057       4     761     824    7182    7197    2549   13478+
+          13477   14992   13483   11595
CTETRA      8058       4    1042    1053    1043    6928    3254    3251+
+           3255   14481   17085   14524
CTETRA      8059       4     760     824     823    7198    2539    2538+
+           2537   17290   13484   16478
CTETRA      8060       4     765     784     783    7164    2383    2384+
+           2373   14765   13472   15699
CTETRA      8061       4    1026    1043    1027    6897    3249    3248+
+           3250   13376   13371   17335
CTETRA      8062       4    1093    6900    6901    6914   16334   10639+
+          14288   17066   10636   10630
CTETRA      8063       4    1046    6930    1053    6931   17347   17546+
+           3243   17179   10719   17086
CTETRA      8064       4     953    6776    6775    6784   15782   10202+
+          15522   15524   10234   10255
CTETRA      8065       4     823    7199    7198    7214   16479   11599+
+          16478   17103   11639   11640
CTETRA      8066       4     767     780     768    7083    2359    2357+
+           2360   12446   14915   12447
CTETRA      8067       4    1022    1111    1110    6958    3442    3441+
+           3429   17267   16036   15320
CTETRA      8068       4    1021    1062    6957    6961    3312   16932+
+          17257   12243   16933   10830
CTETRA      8069       4    1061    1062    6956    6962    3303   16931+
+          17553   16042   16947   10849
CTETRA      8070       4     503     876     505    6932    2826    2825+
+            504   12213   13404   13403
CTETRA      8071       4     848     851     850    7244    2626    2627+
+           2625   16545   14334   14333
CTETRA      8072       4     824    7198    7197    7213   13484   11596+
+          13483   16175   11645   11644
CTETRA      8073       4     497     499    1156    7052     498    3639+
+           3640   16009   17452   16010
CTETRA      8074       4     495     304     497    6753   17555   17183+
+            496   12147   10229   17159
CTETRA      8075       4    1317    6716    6715    6730   15272   10060+
+          15265   14842   10088   10087
CTETRA      8076       4     874    1108    1102    6948    3412    3422+
+           3420   16825   17262   17211
CTETRA      8077       4     802    7141    7091    7142   15002   11384+
+          15001   15871   11386   11385
CTETRA      8078       4     917    7122    7101    7123   13430   11290+
+          13939   13937   11289   11291
CTETRA      8079       4    1036    6894    6893    6950   15334   10689+
+          16536   12571   10795   10796
CTETRA      8080       4     753     806     808    7140    2489    2491+
+           2483   13600   16187   16444
CTETRA      8081       4     752     916     921    7145    2844    2847+
+           2848   14214   13599   13596
CTETRA      8082       4     752    7144    7140    7145   15874   11397+
+          16186   14214   11399   11402
CTETRA      8083       4     944     945    6859    6862    2950   16206+
+          15701   12334   16529   10522
CTETRA      8084       4     916     920     921    7100    2845    2849+
+           2847   12875   12874   13594
CTETRA      8085       4     946    1055    6832    6840    3260   15731+
+          13977   15729   12585   10433
CTETRA      8086       4     805     808    7135    7138    2485   16439+
+          16486   16488   16443   11374
CTETRA      8087       4     753     808     754    7138    2483    2482+
+           2484   16953   16443   16188
CTETRA      8088       4     781    6981    6982    7048   14951   11098+
+          12924   12919   11096   11094
CTETRA      8089       4    1102    1103    1112    6887    3423    3456+
+           3447   14285   13665   13664
CTETRA      8090       4     793     794    6979    7041    2435   12554+
+          12549   15716   14145   11072
CTETRA      8091       4     768     769     787    6980    2365    2404+
+           2406   12449   14104   17263
CTETRA      8092       4     787    7037    7038    7041   17264   11062+
+          15713   15715   11061   11060
CTETRA      8093       4    1144    1145    7055    7065    3600   17559+
+          15803   14346   14223   11151
CTETRA      8094       4     785     787    7037    7038    2405   17264+
+          12405   16472   15713   11062
CTETRA      8095       4     795    7173    7174    7175   14139   11509+
+          15454   14152   11508   11505
CTETRA      8096       4     872     873    1113    6882    2754    3443+
+           3444   15290   17134   15291
CTETRA      8097       4     888     898     899    6984    2742    2741+
+           2743   17218   16363   14966
CTETRA      8098       4     769    6981     781    7048   14106   14951+
+           2364   12247   11096   12919
CTETRA      8099       4    1113    6882    6881    7036   15291   10593+
+          14284   14229   11046   11048
CTETRA      8100       4    1148    7062    7061    7067   14218   11163+
+          14217   16399   11171   11174
CTETRA      8101       4    1133    1141    1138    7068    3576    3578+
+           3574   16628   15509   12492
CTETRA      8102       4     768     781     769    6981    2358    2364+
+           2365   14105   14951   14106
CTETRA      8103       4     768     787     793    6980    2406    2432+
+           2431   12449   17263   16620
CTETRA      8104       4     765    7171     796    7176   13929   13930+
+           2439   13926   11512   13927
CTETRA      8105       4    1134    1143    1141    7069    3589    3591+
+           3577   15709   13965   13966
CTETRA      8106       4     865     866    1137    7081    2695    3566+
+           3567   16681   15708   15706
CTETRA      8107       4     929     937    7108    7114    2916   13959+
+          13607   17190   16090   11254
CTETRA      8108       4      36     859     843    7219    2661    2663+
+           2615   15599   15600   16809
CTETRA      8109       4    1150    7056    1151    7059   14245   14247+
+           3621   14241   11133   15469
CTETRA      8110       4     769     785     787    7037    2397    2405+
+           2404   12245   12405   17264
CTETRA      8111       4     785     786     788    7038    2400    2402+
+           2407   16472   16471   15714
CTETRA      8112       4    1145    1150    7055    7056    3616   17454+
+          17559   17558   14245   11135
CTETRA      8113       4     788    7041    7038    7042   14146   11060+
+          15714   14147   11063   11058
CTETRA      8114       4     883     910     911    7129    2800    2799+
+           2801   16098   16647   15870
CTETRA      8115       4    1144    1145    1150    7055    3600    3616+
+           3617   15803   17559   17454
CTETRA      8116       4    1089    1090    6994    7027    3495   15504+
+          12151   13354   12162   10993
CTETRA      8117       4     775     776    7152    7153    2322   15060+
+          15059   14918   15062   11444
CTETRA      8118       4     499     501    1159    7054     500    3638+
+           3637   17453   14251   15797
CTETRA      8119       4     911    7149    7097    7159   17136   11430+
+          15558   15554   11461   11462
CTETRA      8120       4    1144    7055    7064    7065   15803   11144+
+          14254   14346   11151   11152
CTETRA      8121       4     501     308     503    7049   12229   12228+
+            502   12216   11118   12217
CTETRA      8122       4    1150    1161    1160    7050    3654    3656+
+           3657   14240   14239   15800
CTETRA      8123       4     749     775    7152    7155    2319   15059+
+          15058   16370   14919   11454
CTETRA      8124       4     777    7087    7086    7185   15631   11439+
+          12376   15625   11540   11539
CTETRA      8125       4    1166    6901    6919    6922   16500   10663+
+          16934   16936   10662   10665
CTETRA      8126       4     749    7152    7149    7159   15058   11442+
+          17474   15553   11463   11461
CTETRA      8127       4     850    7244    7245    7246   14333   11757+
+          13493   14314   11760   11761
CTETRA      8128       4     792     796     795    7174    2441    2443+
+           2442   16119   13935   15454
CTETRA      8129       4    1169    6754    1170    6873   14789   12135+
+           3684   15480   10656   15487
CTETRA      8130       4    1164    6756    1176    6920   16513   14911+
+           3716   16850   10681   16512
CTETRA      8131       4     952    6770     999    6784   14038   12306+
+           3110   15523   10237   12308
CTETRA      8132       4     997    6771     998    6828   16539   16857+
+           3115   17239   10396   16858
CTETRA      8133       4    1164    6920    6919    6924   16850   10670+
+          16853   16514   10682   10686
CTETRA      8134       4     955     999    6770    6829    3105   12306+
+          12317   12303   12305   10405
CTETRA      8135       4     700    5922    5895    5930   16800    7559+
+          17449   16801    7588    7587
CTETRA      8136       4    1063    1064    1066    6976    3320    3335+
+           3336   14908   15538   16052
CTETRA      8137       4    1176    6755    6756    6782   13324   10218+
+          14911   13325   10215   10209
CTETRA      8138       4     700     713    5922    5933    2220   16474+
+          16800   16802   17108    7594
CTETRA      8139       4    1066    1067    1070    6969    3332    3338+
+           3337   15532   12122   12121
CTETRA      8140       4     355     651     658    5862    2005    2009+
+           2007   17123   17122   17121
CTETRA      8141       4    1231    6540    6539    6570   17569    9476+
+          17251   17548    9543    9545
CTETRA      8142       4    1228    6554    6545    6556   15815    9459+
+          14894   14901    9468    9467
CTETRA      8143       4     691    5878     692    5892   13432   17031+
+           2136   17456    7457   11950
CTETRA      8144       4    1231    6570    1237    6571   17548   16733+
+           3835   15186    9556   15183
CTETRA      8145       4    1237    6563    6562    6570   16731    9524+
+          16896   16733    9547    9555
CTETRA      8146       4     692     693     698    5891    2138    2150+
+           2149   11949   11965   11943
CTETRA      8147       4     651    5862    5876    5877   17122    7407+
+          16378   16375    7409    7411
CTETRA      8148       4    1195    1227    6518    6551    3778   15196+
+          15808   12073   15818    9427
CTETRA      8149       4    1211    6555    1226    6556   14907   17153+
+           3774   17523    9471   14902
CTETRA      8150       4    1211    1226    1228    6556    3774    3776+
+           3775   17523   14902   14901
CTETRA      8151       4     630     637     636    5954    1945    1947+
+           1946   12979   17479   13146
CTETRA      8152       4     628    5857    5858    5859   15676    7336+
+          15674   15326    7335    7325
CTETRA      8153       4    1225    1230    1228    6554    3794    3793+
+           3792   12109   14892   15815
CTETRA      8154       4    1251    1253    6641    6643    3910   16002+
+          14883   12099   17161    9755
CTETRA      8155       4    1210    6546    6544    6551   12738    9408+
+          12731   12074    9435    9434
CTETRA      8156       4    1195    1227    1196    6518    3778    3781+
+           3780   15808   15196   13050
CTETRA      8157       4    1225    6554    1228    6556   12109   15815+
+           3792   14897    9468   14901
CTETRA      8158       4      23      24      12    5842      26     544+
+            543   15325   16286    7318
CTETRA      8159       4    1226    6539    1231    6540   17154   17251+
+           3811   17524    9476   17569
CTETRA      8160       4      23      12      11    5861     543      16+
+            546   12227    7331    7333
CTETRA      8161       4    1459    1470    6153    6154    4596   14778+
+          17440   13753   13755    8315
CTETRA      8162       4    1225    6540    1231    6568   14896   17569+
+           3810   14898    9536   16902
CTETRA      8163       4     653    5845     654    5846   17076   13435+
+           2003   17036    7343   17037
CTETRA      8164       4     467     276     469    6598   12639   12648+
+            468   12640    9671   12655
CTETRA      8165       4     655    5845    5850    5853   13436    7293+
+          17078   17537    7290    7294
CTETRA      8166       4    1260    6805    6796    6808   15120   10312+
+          15459   15452   10327   10329
CTETRA      8167       4    1231    6568    6570    6571   16902    9544+
+          17548   15186    9557    9556
CTETRA      8168       4     655     657     656    5853    2000    1999+
+           2001   17537   17210   16155
CTETRA      8169       4    1206    6509    1259    6569   15126   15127+
+           3934   15193    9552   15192
CTETRA      8170       4     646    5867    5881    5882   13074    7422+
+          16791   16794    7424    7426
CTETRA      8171       4    1206    6568    1231    6571   15194   16902+
+           3833   15185    9557   15186
CTETRA      8172       4    1231    6568    6540    6570   16902    9536+
+          17569   17548    9544    9543
CTETRA      8173       4    1231    1232    1237    6570    3812    3840+
+           3835   17548   16732   16733
CTETRA      8174       4    1207    6508    6509    6571   15121    9550+
+          15122   15182    9548    9551
CTETRA      8175       4    1197    6633    1383    6634   16717   15446+
+           4351   12762    9776   12763
CTETRA      8176       4     685     686    5884    5898    2115   15656+
+          15657   16615   13752    7484
CTETRA      8177       4    1202    6648    1229    6651   13047   13046+
+           3791   15032    9799   13049
CTETRA      8178       4    1202    1249    6647    6649    3882   16720+
+          15028   15031   16552    9782
CTETRA      8179       4    1202    6639    1248    6649   15027   14881+
+           3881   15031    9795   15923
CTETRA      8180       4    1205    1206    6560    6568    3836   17270+
+          12103   16901   15194    9535
CTETRA      8181       4    1205    1231    1206    6568    3809    3833+
+           3836   16901   16902   15194
CTETRA      8182       4    1259    6510    6561    6569   15191    9537+
+          17049   15192    9539    9538
CTETRA      8183       4    1259    1263    1264    6561    3944    3946+
+           3938   17049   16562   17252
CTETRA      8184       4    1212    6539    1226    6555   16223   17154+
+           3777   14783    9466   17153
CTETRA      8185       4    1262    1264    1263    6561    3942    3946+
+           3947   16561   17252   16562
CTETRA      8186       4    1260    6510    6805    6808   15118   10326+
+          15120   15452   10328   10327
CTETRA      8187       4     598     636     599    5955    1940    1972+
+           1973   13144   13147   15389
CTETRA      8188       4    1257    6795    1266    6808   15460   15448+
+           3950   15458   10330   15447
CTETRA      8189       4     636     637    5947    5954    1947   17445+
+          15901   13146   17479   11777
CTETRA      8190       4    1259    6561    1264    6569   17049   17252+
+           3938   15192    9538   17253
CTETRA      8191       4    1206    1259    1264    6569    3934    3938+
+           3937   15193   15192   17253
CTETRA      8192       4    1288    1292    6750    6752    3991   17274+
+          15135   15136   17275   10190
CTETRA      8193       4    1288    1292    1291    6750    3991    3993+
+           3992   15135   17274   17353
CTETRA      8194       4     625     637     626    5839    1943    1942+
+           1944   12634   12635   16824
CTETRA      8195       4     694     714    5896    5922    2213   16819+
+          16818   17450   16473    7558
CTETRA      8196       4     624     688     686    5884    2124    2130+
+           2129   11809   11807   15656
CTETRA      8197       4    1751    6118    6119    6121   14587    8152+
+          16289   13802    8147    8151
CTETRA      8198       4     431     236     238    6221   12853     237+
+          12852   12600    8496    8497
CTETRA      8199       4    1443    6708    6694    6712   12004   10029+
+          13173   15433   10050   10040
CTETRA      8200       4      22      23      11    5861      27     546+
+            545   13192   12227    7333
CTETRA      8201       4    1436    1438    1449    6688    4528    4537+
+           4536   17329   15426   15428
CTETRA      8202       4    1178    1179    1465    6228    4027    4564+
+           4563   15238   17543   16989
CTETRA      8203       4    1179    1299    1279    6235    4025    4029+
+           4028   16728   15239   14829
CTETRA      8204       4     666     667    5857    5861    2060   12220+
+          12222   12224   12221    7340
CTETRA      8205       4    1631    6411    6245    6415   16244    9049+
+          16242   13608    9051    9050
CTETRA      8206       4      22      11    5860    5861     545    7329+
+          17416   13192    7333    7334
CTETRA      8207       4    1428    6209    6197    6224   14053    8450+
+          17495   12106    8480    8479
CTETRA      8208       4     435     437    1304    6233     436    4048+
+           4047   13096   16921   13094
CTETRA      8209       4    1295    1297    6206    6207    4014   13947+
+          16452   15591   12953    8423
CTETRA      8210       4     429     234     236    6226   12868     235+
+          12867   12606    8489    8490
CTETRA      8211       4    1178    1179    6228    6235    4027   17543+
+          15238   15237   16728    8525
CTETRA      8212       4    1304    1305    6234    6239    4059   17035+
+          12932   13691   17021    8551
CTETRA      8213       4    1279    6215    1333    6242   16726   16851+
+           4185   14831    8562   16727
CTETRA      8214       4    1303    1305    1304    6239    4058    4059+
+           4052   13690   17021   13691
CTETRA      8215       4    1818    6084    6087    6096   15366    8010+
+          16288   15367    8021    8020
CTETRA      8216       4    1815    1819    1818    6096    5761    5763+
+           5762   15163   12884   15367
CTETRA      8217       4       7       8     146     728     154     149+
+          11779    5774   11798   14610
CTETRA      8218       4     437    1303    6233    6240    4043   13689+
+          16921   17284   13952    8549
CTETRA      8219       4     604     608    6082    6104    1857   16215+
+          16227   16212   16236    8085
CTETRA      8220       4    1270    6718    6721    6723   15269   10069+
+          13225   13227   10082   10079
CTETRA      8221       4      82    7219     843    7240   11739   16809+
+          15596   11740   11733   15587
CTETRA      8222       4    1313    6705    1315    6709   16923   16531+
+           4087   13258   10025   13167
CTETRA      8223       4     820    7188    7202    7203   13453   11604+
+          13460   13470   11603   11605
CTETRA      8224       4    1448    6701    6618    6702   13682   10006+
+          13681   13022   10004   10005
CTETRA      8225       4    1432    5965    5966    6167   14069    8258+
+          14786   12718    8257    8259
CTETRA      8226       4    1183    1319    1184    5964    4105    4109+
+           4111   15945   14349   16164
CTETRA      8227       4    1181    6158    1333    6159   16566   17028+
+           4176   17485    8219   17033
CTETRA      8228       4     857    7218     859    7223   17092   17565+
+           2664   15595   11667   16617
CTETRA      8229       4    1434    5967    1442    6684   12019   12018+
+           4503   12735    9977   13177
CTETRA      8230       4      39      87     863    7230     557   17125+
+           2682   13479   11692   11880
CTETRA      8231       4    1432    5965    1444    5966   14069   14342+
+           4495   14786    8258   12014
CTETRA      8232       4     842     843     857    7218    2605    2654+
+           2653   15585   15584   17092
CTETRA      8233       4    1311    6715    1317    6719   14822   15265+
+           4091   14835   10059   15274
CTETRA      8234       4     837    7205     838    7225   14301   14198+
+           2586   11907   11662   16966
CTETRA      8235       4      34     848      80    7241    2612   16194+
+            575   16625   16544   11744
CTETRA      8236       4     603    6081     608    6104   16218   16256+
+           1855   16219    8086   16236
CTETRA      8237       4    1365    6624    1370    6625   13204   14854+
+           4298   16035    9858   14853
CTETRA      8238       4      35      82      36     843     574     573+
+             51    2614   15596    2615
CTETRA      8239       4     850    7245     852    7246   13493   12722+
+           2635   14314   11761   12685
CTETRA      8240       4     535     342     537    7194   17095   17093+
+            536   17097   11578   13451
CTETRA      8241       4      77     834    7209    7247   13558   13557+
+          11771   11769   12761   11767
CTETRA      8242       4    1393    6620    6619    6703   13931    9912+
+          15443   13933   10016   10013
CTETRA      8243       4    1313    1319    6704    6711    4110   14350+
+          16922   16924   14351   10033
CTETRA      8244       4       3      89       5    7229     552      90+
+            554   11972   11686   11685
CTETRA      8245       4     827     834     833    7210    2556    2562+
+           2561   16437   12760   16114
CTETRA      8246       4     608    6081    6082    6104   16256    8087+
+          16215   16236    8086    8085
CTETRA      8247       4    1180    6157    1462    6242   14832   15761+
+           4573   15763    8557   15764
CTETRA      8248       4    1311    1318    1317    6715    4098    4100+
+           4091   14822   14821   15265
CTETRA      8249       4     533     342     340    7094   17101     341+
+          16493   16492   11370   11369
CTETRA      8250       4     790     791    7162    7177    2426   17291+
+          12908   12349   12351   11524
CTETRA      8251       4    1338    1342    1343    6609    4212    4218+
+           4219   15178   15790   15789
CTETRA      8252       4     766     782    7167    7168    2367   17311+
+          16448   16447   17315   11476
CTETRA      8253       4     750     884    7098    7151    2804   16481+
+          17471   17473   16482   11431
CTETRA      8254       4     465     467     729    6611     466    3096+
+           3097   17532   17278   16903
CTETRA      8255       4     883    7098    7119    7129   17217   11303+
+          16485   16098   11332   11333
CTETRA      8256       4     465     467     272    6512     466   17288+
+          17150   16537   17045    9742
CTETRA      8257       4     910     912    7125    7129    2813   15860+
+          16417   16647   15861   11330
CTETRA      8258       4     463     270     272    6613   17057     271+
+          17151   17168    9707    9706
CTETRA      8259       4     461     463     270    6640     462   17057+
+          17054   17050   17525    9746
CTETRA      8260       4    1211    6544    6543    6555   12732    9407+
+          16220   14907    9470    9463
CTETRA      8261       4     910    7097     911    7129   15564   15558+
+           2799   16647   11329   15870
CTETRA      8262       4     596    6081     603    6103   16257   16218+
+           1852   16230    8090   16217
CTETRA      8263       4     748    7159     909    7160   16772   15555+
+           2791   16773   11469   15557
CTETRA      8264       4     909     910    7096    7097    2798   15563+
+          15556   15559   15564   11331
CTETRA      8265       4    1190    6608    6609    6612   15794    9712+
+          15795   16920    9705    9710
CTETRA      8266       4     908    7125     912    7127   16416   15860+
+           2816   16412   11316   17144
CTETRA      8267       4    1192    1193    6529    6530    3734   12497+
+          12507   12505   12514    9398
CTETRA      8268       4     637    5838     641    5951   12609   12608+
+           1967   17446    7687   13733
CTETRA      8269       4    1346    1347    1362    6527    4246    4279+
+           4278   17014   17012   16710
CTETRA      8270       4     906    6987    6986    7128   16064   10921+
+          16425   16426   11318   11320
CTETRA      8271       4    1194    1221    1210    6546    3746    3750+
+           3747   14807   12739   12738
CTETRA      8272       4     881    7103     906    7126   17138   17137+
+           2808   15071   11323   15072
CTETRA      8273       4     535     815     537    7193    2524    2526+
+            536   16528   14695   14699
CTETRA      8274       4    1372    6626    6658    6665   16034    9838+
+          17156   12783    9859    9860
CTETRA      8275       4    1372    6626    6627    6658   16034    9839+
+          17566   17156    9838    9837
CTETRA      8276       4     753     808    7138    7140    2483   16443+
+          16953   13600   16444   11392
CTETRA      8277       4    1344    6628    1373    6736   16719   16703+
+           4318   17298   10120   16705
CTETRA      8278       4    1358    6519    1360    6520   17266   16700+
+           4267   17013    9423   17249
CTETRA      8279       4    1366    6664    6663    6667   15768    9867+
+          12787   16517    9872    9871
CTETRA      8280       4     531     336     338    7178   17098     337+
+          16496   12916   11522   11523
CTETRA      8281       4    1344    1345    1354    6628    4234    4269+
+           4272   16719   15915   17359
CTETRA      8282       4    1354    6658    6627    6659   17299    9837+
+          17538   15016    9834    9843
CTETRA      8283       4    1354    1372    1373    6627    4315    4320+
+           4319   17538   17566   16704
CTETRA      8284       4     535    7179     342    7194   17096   11536+
+          17095   17097   11580   11578
CTETRA      8285       4     527     754     529    7139    2840    2463+
+            528   13496   15373   16191
CTETRA      8286       4    1349    6579    1352    6580   17009   16300+
+           4243   16299    9607   14761
CTETRA      8287       4     525     798    6978    7175    2450   12538+
+          12537   13497   13499   11499
CTETRA      8288       4     934     935    7105    7118    2907   15879+
+          16087   16086   12629   11340
CTETRA      8289       4    1375    6670    6673    6682   16166    9898+
+          13037   15229    9935    9937
CTETRA      8290       4     754     805    7134    7138    2462   16487+
+          16579   16188   16488   11373
CTETRA      8291       4     445     447    1293    5957     446    3995+
+           4003   16453   17001   17276
CTETRA      8292       4     752    7140     753    7145   16186   13600+
+           2490   14214   11402   13602
CTETRA      8293       4     928    6990     930    7108   12357   13521+
+           2888   12358   11234   13606
CTETRA      8294       4    1402    1403    6488    6490    4419   15798+
+          17169   16908   17373    9355
CTETRA      8295       4    1536    6488    6491    6492   12302    9362+
+          12300   12293    9367    9368
CTETRA      8296       4    1401    6454    1531    6460   12752   14752+
+           4750   17312    9254   16900
CTETRA      8297       4    1400    6466    1424    6467   15829   15086+
+           4433   15100    9280   12758
CTETRA      8298       4    1401    1422    1402    6453    4424    4423+
+           4425   12751   15089   12769
CTETRA      8299       4    1421    6212    6152    6213   12039    8436+
+          17489   17283    8456    8443
CTETRA      8300       4     929     939     937    7114    2915    2917+
+           2916   17190   17316   16090
CTETRA      8301       4    1401    6454    6460    6467   12752    9254+
+          17312   12753    9276    9281
CTETRA      8302       4     878    7001    7023    7033   14431   10987+
+          12340   13633   11028   11029
CTETRA      8303       4     507     509    1148    7061     508    3604+
+           3602   14225   16104   14217
CTETRA      8304       4     513    7073    1136    7078   14073   14076+
+           3560   14094   11204   14101
CTETRA      8305       4    1422    6148    6147    6453   15439    8446+
+          12771   15089    9272    9273
CTETRA      8306       4    1402    1422    6147    6453    4423   12771+
+          12770   12769   15089    9273
CTETRA      8307       4    1147    7062    7065    7066   17319   11157+
+          14215   13391   11159   11154
CTETRA      8308       4     625    5837     641    5838   11811   13734+
+           1966   11817    7405   12608
CTETRA      8309       4    1138    1149    1148    7062    3612    3615+
+           3614   15526   15525   14218
CTETRA      8310       4     644    5952    5951    5953   14382    7682+
+          14385   14165    7696    7695
CTETRA      8311       4     433    1449     435    6690    4542    4548+
+            434   15098   12059   16204
CTETRA      8312       4     423    6197    1431    6202   17307   17308+
+           4488   17241    8401   17242
CTETRA      8313       4    1144    7064    1147    7065   14254   14216+
+           3599   14346   11152   14215
CTETRA      8314       4    1170    6754    6753    6873   12135   10231+
+          12133   15487   10656   10657
CTETRA      8315       4    1435    1479    1488    6183    4647    4683+
+           4682   15750   16279   14703
CTETRA      8316       4    1416    6222    1467    6225   12747   12748+
+           4583   12116    8493   14056
CTETRA      8317       4     499     306     501    7054   17330   17324+
+            500   17453   11113   14251
CTETRA      8318       4    1160    7049    7050    7054   12218   11121+
+          15800   15796   11120   11117
CTETRA      8319       4    1414    1415    1468    6223    4455    4592+
+           4587   17487   14055   17192
CTETRA      8320       4    1159    7050    7053    7054   15801   11115+
+          16007   15797   11117   11112
CTETRA      8321       4    1408    1486    1481    6366    4654    4657+
+           4634   15415   14773   15279
CTETRA      8322       4    1157    1165    6874    7051    3660   15496+
+          16006   16329   17248   11105
CTETRA      8323       4     425     427    1428    6224     426    4469+
+           4483   13638   12104   12106
CTETRA      8324       4     425     427     234    6372     426   15580+
+          13637   12848   12856    8919
CTETRA      8325       4     133     602     144     644    1824   11818+
+          11782    1985    1984   14383
CTETRA      8326       4     417    1568    1579    6388    4948    4986+
+           4985   16432   13086   11954
CTETRA      8327       4    1574    1575    1577    6358    4972    4981+
+           4982   16972   16970   11962
CTETRA      8328       4     903    7017    7007    7018   15575   10943+
+          15568   15577   10945   10944
CTETRA      8329       4     437     246     244    6692   17356     245+
+          15095   15429    9961    9960
CTETRA      8330       4    1492    6145    6144    6382   13120    8329+
+          13118   14017    8970    8977
CTETRA      8331       4    1479    6182    1480    6191   17437   17436+
+           4650   14766    8343   14767
CTETRA      8332       4    1435    6182    1479    6183   17518   17437+
+           4647   15750    8313   16279
CTETRA      8333       4    1482    1484    1483    6138    4649    4652+
+           4653   16373   16203   16374
CTETRA      8334       4    1436    5969    1438    6688   16741   16541+
+           4528   17329    9956   15426
CTETRA      8335       4    1436    5969    5970    6182   16741    8312+
+          17323   17496    8311    8306
CTETRA      8336       4     870    7004    7019    7021   15811   10968+
+          14437   14440   10976   10977
CTETRA      8337       4     899    7095    6984    7158   17219   11313+
+          14966   14968   11460   11459
CTETRA      8338       4     435    1451     437    6689    4552    4559+
+            436   17325   15431   15097
CTETRA      8339       4    1098    6880    1112    6910   13669   13505+
+           3450   13670   10596   13509
CTETRA      8340       4     435    1449    1451    6689    4548    4551+
+           4552   17325   16542   15431
CTETRA      8341       4    1098    6879    1123    6880   15719   15723+
+           3511   13669   10598   15722
CTETRA      8342       4    1181    1333    1330    6159    4176    4179+
+           4164   17485   17033   17032
CTETRA      8343       4    1451    6689    6688    6691   15431    9954+
+          15427   11990    9963    9979
CTETRA      8344       4     435     242     437    6233   13095   15096+
+            436   13096    8538   16921
CTETRA      8345       4    1102    1113    6882    6887    3445   15291+
+          17135   14285   14286   10594
CTETRA      8346       4    1112    6888    1114    6910   13667   17205+
+           3457   13509   10586   13672
CTETRA      8347       4     886    7007    7008    7014   15566   10928+
+          15392   12023   10923   10927
CTETRA      8348       4    1413    1414    6211    6212    4447   17320+
+          17441   12038   16723    8439
CTETRA      8349       4    1097    1118    7025    7030    3506   15286+
+          14341   16959   13346   11016
CTETRA      8350       4    1402    6147    1423    6490   12770   12772+
+           4418   16908    9353   17374
CTETRA      8351       4    1413    6152    1421    6212   13105   17489+
+           4431   12038    8436   12039
CTETRA      8352       4    1421    6152    6147    6213   17489    8325+
+          17488   17283    8443    8442
CTETRA      8353       4    1422    6148    6453    6467   15439    9272+
+          15089   12759    9277    9274
CTETRA      8354       4    1413    1470    6152    6153    4599   13106+
+          13105   16735   14778    8319
CTETRA      8355       4     868    1087    1143    6996    3481    3594+
+           3593   16569   13969   13963
CTETRA      8356       4     868    7009    7010    7016   15565   10942+
+          16570   15382   10939   10941
CTETRA      8357       4    1306    6716    1317    6730   15273   15272+
+           4097   14841   10088   14842
CTETRA      8358       4     527     336     529    7173   13494   16190+
+            528   14137   11507   14138
CTETRA      8359       4     887    7011    6985    7014   12027   10913+
+          16423   12025   10917   10916
CTETRA      8360       4     429     236    6221    6226   12867    8496+
+          12749   12606    8490    8498
CTETRA      8361       4     425     232    6363    6372   13636    8924+
+          12846   12848    8920    8926
CTETRA      8362       4    1405    1406    1549    6380    4700    4859+
+           4858   17484   12070   16915
CTETRA      8363       4    1476    6187    6190    6192   13156    8347+
+          11983   14753    8349    8348
CTETRA      8364       4     676     680     679    5901    2082    2088+
+           2087   12987   13727   13726
CTETRA      8365       4     893    6999    6998    7043   15712   10909+
+          12374   16110   11081   11082
CTETRA      8366       4    1405    1406    6380    6383    4700   12070+
+          17484   15611   12068    8976
CTETRA      8367       4     867     868    6997    6998    2709   16556+
+          16078   12373   16810   10932
CTETRA      8368       4    1133    1141    7068    7075    3576   15509+
+          16628   12011   12483   11189
CTETRA      8369       4     495     304     302    6975   17555     303+
+          12111   16643   10880   10879
CTETRA      8370       4    1405    6381    6382    6383   14019    8964+
+          14021   15611    8979    8978
CTETRA      8371       4    1405    1492    1493    6383    4696    4705+
+           4699   15611   14018   12069
CTETRA      8372       4    1407    6374    6361    6375   13262    8934+
+          17482   15421    8943    8942
CTETRA      8373       4     497    6956     304    6975   17545   10832+
+          17183   17198   10885   10880
CTETRA      8374       4     497    1061    1062    6956    3299    3303+
+           3301   17545   17553   16931
CTETRA      8375       4    1478    1493    1489    6143    4701    4703+
+           4702   17390   15609   15410
CTETRA      8376       4    1399    1420    1400    6466    4435    4432+
+           4436   16995   16996   15829
CTETRA      8377       4    1399    1502    6458    6459    4742   16258+
+          17519   16781   14976    9252
CTETRA      8378       4     669    5902     676    5908   15025   12422+
+           2075   11925    7500   12988
CTETRA      8379       4    1078    6938    6939    6942   14002   10758+
+          15748   14003   10757   10756
CTETRA      8380       4     491    1074    1067    6973    3348    3350+
+           3329   15490   12983   12982
CTETRA      8381       4    1422    1424    6148    6467    4438   15440+
+          15439   12759   12758    9277
CTETRA      8382       4    1400    1401    6460    6467    4439   17312+
+          15828   15100   12753    9281
CTETRA      8383       4     497    1062     499    6956    3301    3302+
+            498   17545   16931   17331
CTETRA      8384       4     493     302     300    6970   12110     301+
+          17200   12114   10874   10873
CTETRA      8385       4     495     302     304    6753   12111     303+
+          17555   12147   10228   10229
CTETRA      8386       4    1399    1532    6459    6466    4747   16782+
+          16781   16995   17493    9267
CTETRA      8387       4     495     302    6970    6975   12111   10874+
+          12115   16643   10879   10881
CTETRA      8388       4    1509    1605    1613    6475    5012    5024+
+           5027   13244   13248   17509
CTETRA      8389       4    1509    6472    6475    6477   16859    9308+
+          13244   17564    9310    9309
CTETRA      8390       4    1508    1539    1509    6472    4800    4799+
+           4801   17336   15075   16859
CTETRA      8391       4     501     308     306    6961   12229     307+
+          17324   17188   10824   10825
CTETRA      8392       4     670     679     671    5907    2084    2086+
+           2085   14870   14887   13729
CTETRA      8393       4    1163    1165    1166    6922    3664    3666+
+           3665   13219   17328   16936
CTETRA      8394       4    1144    1160    7049    7055    3647   12218+
+          14253   15803   15806   11132
CTETRA      8395       4    1477    1478    1489    6142    4668    4702+
+           4706   13743   17389   13744
CTETRA      8396       4    1520    6379    1548    6385   17381   15225+
+           4857   17382    8993   17504
CTETRA      8397       4    1405    1549    1547    6381    4858    4860+
+           4848   14019   17481   17332
CTETRA      8398       4     503     310     308    6959   12212     309+
+          12228   12215   10814   10815
CTETRA      8399       4    1519    1576    1572    6387    4964    4965+
+           4954   15235   13623   13622
CTETRA      8400       4    1556    6359    6360    6373   17512    8949+
+          13257   17513    8946    8935
CTETRA      8401       4     880     939     929    7115    2914    2915+
+           2882   16653   17143   16654
CTETRA      8402       4    1559    6255    6254    6447   17341    8726+
+          16745   16746    9190    9189
CTETRA      8403       4    1640    1643    1648    6418    5184    5188+
+           5189   13611   17342   17502
CTETRA      8404       4    1103    1108    6947    6948    3419   16738+
+          17235   17212   17262   10792
CTETRA      8405       4     670    5901    5907    5908   14886    7503+
+          14870   11926    7502    7504
CTETRA      8406       4    1560    6446    6447    6448   14719    9196+
+          14721   12547    9195    9191
CTETRA      8407       4    1515    1567    1560    6446    4933    4934+
+           4909   12553   14720   14719
CTETRA      8408       4     874    6883    6934    6948   17533   10726+
+          16820   16825   10780   10781
CTETRA      8409       4    1103    6888    6887    6947   13666   10588+
+          13665   17235   10771   10772
CTETRA      8410       4     676     677     680    5888    2079    2081+
+           2082   12421   12419   12994
CTETRA      8411       4    1571    1572    1574    6390    4961    4966+
+           4968   12284   13624   15541
CTETRA      8412       4    1163    6874    1165    6922   15497   15496+
+           3664   13219   10660   17328
CTETRA      8413       4    1556    1575    1576    6359    4969    4971+
+           4963   17512   15246   17557
CTETRA      8414       4    1515    6443    1567    6446   14731   14733+
+           4933   12553    9206   14720
CTETRA      8415       4    1169    6755    6754    6921   14790   10226+
+          14789   15483   10652   10655
CTETRA      8416       4    1575    1576    6359    6386    4971   17557+
+          15246   17309   13627    9003
CTETRA      8417       4    1163    6920    1176    6921   13217   16512+
+           3712   13218   10653   15488
CTETRA      8418       4     676    5888     680    5901   12421   12994+
+           2082   12987    7481   13727
CTETRA      8419       4    1574    6386    6358    6389   16185    9005+
+          16972   15540    9009    9008
CTETRA      8420       4    1556    6359    1576    6378   17512   17557+
+           4963   17515    8992   13626
CTETRA      8421       4    1572    1576    1574    6390    4965    4967+
+           4966   13624   13625   15541
CTETRA      8422       4    1114    6907    6909    6910   17209   10590+
+          13671   13672   10589   10591
CTETRA      8423       4    1575    6358    6359    6376   16970    8957+
+          15246   12835    8956    8948
CTETRA      8424       4    1606    1614    1612    6250    5037    5038+
+           5026   14472   14614   14473
CTETRA      8425       4    1099    1114    1115    6907    3461    3463+
+           3465   17549   17209   17075
CTETRA      8426       4    1115    6907    6889    6908   17075   10577+
+          16405   16408   10584   10572
CTETRA      8427       4     872    7032    7031    7036   15486   11039+
+          15485   14307   11050   11047
CTETRA      8428       4    1591    1730    1732    6330    5463    5464+
+           5461   12557   14034   12560
CTETRA      8429       4    1097    6881    6880    7025   13507   10600+
+          13506   14341   11017   11014
CTETRA      8430       4    1597    1626    1618    6420    5103    5093+
+           5101   12817   11941   14675
CTETRA      8431       4    1106    1111    6946    6958    3434   15315+
+          15316   15319   16036   10821
CTETRA      8432       4    1214    1234    1233    6567    3818    3819+
+           3814   13675   15164   13984
CTETRA      8433       4    1589    1607    6258    6259    5004   12683+
+          12701   12780   15085    8641
CTETRA      8434       4    1213    6538    6537    6565   12808    9451+
+          12807   15931    9507    9510
CTETRA      8435       4    1510    6253    6438    6448   13238    9182+
+          13237   12544    9187    9184
CTETRA      8436       4     968     969     975    6865    2963    2978+
+           2977   14487   14485   16079
CTETRA      8437       4    1601    1613    1612    6401    5029    5025+
+           5032   17511   17510   16422
CTETRA      8438       4     970    6871    6868    6872   16096   10559+
+          16095   16523   10564   10567
CTETRA      8439       4     965     976    6852    6870    2988   16918+
+          15514   16073   16075   10553
CTETRA      8440       4     964    6834    6835    6842   14948   10420+
+          14940   16082   10419   10417
CTETRA      8441       4    1235    6507    6562    6567   15168    9528+
+          15165   15167    9531    9523
CTETRA      8442       4     987    6841    6812    6844   15358   10409+
+          13397   12324   10445   10426
CTETRA      8443       4     964    6842    6835    6843   16082   10417+
+          14940   16226   10414   10418
CTETRA      8444       4     976    6867    6852    6870   16526   10546+
+          16918   16075   10565   10553
CTETRA      8445       4     965     976     966    6852    2988    2994+
+           2996   15514   16918   16072
CTETRA      8446       4    1632    6243    1633    6413   17362   17383+
+           5136   13584    9042   17366
CTETRA      8447       4    1003    1004    1006    6826    3136    3145+
+           3146   17273   17529   15362
CTETRA      8448       4    1010    1019    6573    6577    3185   14057+
+          12695   14052   14051    9566
CTETRA      8449       4     397    1633    5972    6414    5131   17500+
+          15982   16742   16744    9038
CTETRA      8450       4    1629    5972    1633    6243   16248   17500+
+           5130   13770    8659   17383
CTETRA      8451       4     477    6575    1019    6577   17178   15930+
+           3189   17175    9562   14051
CTETRA      8452       4    1018    6498    1020    6499   17174   12051+
+           3194   15528    9583   17170
CTETRA      8453       4    1162    1163    1169    6921    3663    3682+
+           3681   15482   13218   15483
CTETRA      8454       4    1632    6413    1637    6415   13584   13586+
+           5160   17376    9054   13604
CTETRA      8455       4     497    1170    6753    7052    3680   12133+
+          17159   16009   16011   11101
CTETRA      8456       4    1632    1634    1633    6243    5135    5134+
+           5136   17362   13771   17383
CTETRA      8457       4    1595    1640    1648    6405    5172    5189+
+           5196   13012   17185   16865
CTETRA      8458       4    1647    6403    6404    6421   17397    9101+
+          17399   17401    9100    9092
CTETRA      8459       4    1641    1645    1643    6409    5185    5180+
+           5183   17394   17388   17387
CTETRA      8460       4    1595    6405    1648    6423   13012   16865+
+           5196   16005    9133   15619
CTETRA      8461       4    1169    1176    6755    6921    3711   13324+
+          14790   15483   15488   10652
CTETRA      8462       4     413     220     218    6450   16361     219+
+          16356   16017    9213    9214
CTETRA      8463       4    1398    1399    1502    6458    4465    4742+
+           4743   16251   17519   16258
CTETRA      8464       4    1503    1530    1504    6462    4752    4754+
+           4753   15018   16239   16238
CTETRA      8465       4    1156    6873    7052    7053   15494   11102+
+          16010   15491   11109   11110
CTETRA      8466       4    1516    6440    6441    6443   16978    9204+
+          16696   14732    9203    9205
CTETRA      8467       4    1681    1692    1682    6282    5290    5289+
+           5291   16749   15850   17410
CTETRA      8468       4    1587    6271    6270    6301   17396    8611+
+          14042   12082    8711    8713
CTETRA      8469       4     493    6778     300    6783   12119   10195+
+          17200   12112   10221   10223
CTETRA      8470       4    1586    1705    1682    6269    5353    5355+
+           5288   15169   17520   15181
CTETRA      8471       4    1585    1682    1692    6268    5287    5289+
+           5283   15176   15180   15177
CTETRA      8472       4    1705    6270    6283    6284   16870    8610+
+          16961   17418    8617    8618
CTETRA      8473       4     997    1004    6772    6828    3137   17544+
+          16881   17239   17240   10392
CTETRA      8474       4    1293    5957    6748    6749   17276   10173+
+          16844   14630   10170   10174
CTETRA      8475       4    1295    5957    5958    6206   16454    8434+
+          13958   16452    8433    8430
CTETRA      8476       4    1700    6275    6262    6281   12896    8595+
+          12578   12897    8601    8591
CTETRA      8477       4     671     719    5907    5918    2241   14871+
+          13729   15321   14873    7537
CTETRA      8478       4     443    1189     445    6618    4531    4379+
+            444   17234   13680   17005
CTETRA      8479       4    1715    1716    1718    6322    5403    5416+
+           5417   14964   13662   17420
CTETRA      8480       4    1284    1294    1292    6746    3997    4000+
+           3989   13511   14627   17245
CTETRA      8481       4    1285    1292    1288    6752    3988    3991+
+           3974   17271   17275   15136
CTETRA      8482       4     670     676     679    5901    2077    2087+
+           2084   14886   12987   13726
CTETRA      8483       4     387    1717    6310    6313    5401   14357+
+          14356   14257   14259    8757
CTETRA      8484       4     670     676    5901    5908    2077   12987+
+          14886   11926   12988    7502
CTETRA      8485       4    1709    6309    1717    6313   12877   12879+
+           5409   14258    8752   14259
CTETRA      8486       4    1322    6726    6734    6738   14837   10129+
+          12086   12087   10131   10126
CTETRA      8487       4    1274    6735    1275    6736   12076   15267+
+           4133   16706   10123   16707
CTETRA      8488       4    1274    6736    1373    6737   16706   16705+
+           4317   15754   10121   17527
CTETRA      8489       4     389    6310    1715    6345   14358   14963+
+           5398   15569    8876   14965
CTETRA      8490       4    1809    5995    6072    6073   17423    7977+
+          16622   16623    7980    7981
CTETRA      8491       4    1800    1804    5993    5994    5699   12630+
+          15107   17499   12622    7838
CTETRA      8492       4     385    1709     387    6313    5377    5405+
+            386   14282   14258   14257
CTETRA      8493       4    1307    1317    1318    6715    4101    4100+
+           4103   15266   15265   14821
CTETRA      8494       4     387     196     389    6014   14402   14401+
+            388   13704    7697   14283
CTETRA      8495       4    1369    1373    1372    6626    4321    4320+
+           4311   16033   17551   16034
CTETRA      8496       4    1270    1311    6719    6723    4078   14835+
+          14834   13227   15280   10083
CTETRA      8497       4    1312    6705    6714    6722   16534   10073+
+          17521   15278   10075   10070
CTETRA      8498       4     401     208     210    6417   13582     209+
+          14460   13583    9063    9064
CTETRA      8499       4    1182    6172    6171    6175   12721    8225+
+          16280   14353    8255    8247
CTETRA      8500       4    1316    6707    6696    6710   13268   10017+
+          13264   13269   10021   10019
CTETRA      8501       4    1269    6697    6707    6721   13231   10018+
+          13245   13246   10067   10077
CTETRA      8502       4    1295    6206    5958    6207   16452    8430+
+          13958   15591    8423    8428
CTETRA      8503       4    1189    6618    6619    6677   13680    9918+
+          13462   16998    9917    9914
CTETRA      8504       4     447    6676     254    6677   15139    9904+
+          17000   15140    9908    9906
CTETRA      8505       4    1513    1730    6314    6329    5456   14037+
+          13901   14033   14035    8810
CTETRA      8506       4    1393    6619    6620    6675   15443    9912+
+          13931   14793    9911    9913
CTETRA      8507       4    1271    6719    6716    6720   12055   10058+
+          15275   12040   10064   10052
CTETRA      8508       4     399    1731     401    6331    5459    5457+
+            400   16868   16957   14031
CTETRA      8509       4    1312    1315    1313    6705    4088    4087+
+           4089   16534   16531   16923
CTETRA      8510       4    1589    6259    6258    6316   12780    8641+
+          12701   12679    8769    8768
CTETRA      8511       4    1368    6625    6626    6665   13207    9863+
+          16032   12782    9861    9859
CTETRA      8512       4    1382    6667    6663    6668   13200    9871+
+          15253   15255    9873    9869
CTETRA      8513       4     403    6302     210    6329   14469    8741+
+          14461   14462    8809    8811
CTETRA      8514       4     401    1731    1730    6331    5457    5458+
+           5455   14031   16957   14036
CTETRA      8515       4    1638    1639    6412    6416    5156   16879+
+          13579   13578   17294    9060
CTETRA      8516       4     401    1638    1639    6412    5152    5156+
+           5154   13581   13579   16879
CTETRA      8517       4     403     210    6408    6417   14461    9068+
+          14456   14458    9064    9070
CTETRA      8518       4    1374    6670    6623    6671   13191    9880+
+          13213   13189    9886    9885
CTETRA      8519       4    1741    1754    1759    6107    5502    5505+
+           5497   13014   13013   12939
CTETRA      8520       4    1312    6714    1318    6722   17521   16393+
+           4099   15278   10070   14824
CTETRA      8521       4    1755    1757    1756    6078    5494    5491+
+           5495   13844   13843   13778
CTETRA      8522       4    1755    1756    1758    6124    5495    5500+
+           5520   13129   14533   17002
CTETRA      8523       4    1740    1741    1801    6111    5504    5689+
+           5688   13009   13010   13787
CTETRA      8524       4    1762    6069    6068    6112   13025    7987+
+          14622   13028    8113    8112
CTETRA      8525       4    1747    6047    6046    6113   14647    7919+
+          14141   13796    8122    8124
CTETRA      8526       4    1753    1759    6107    6115    5509   12939+
+          17402   16993   13485    8129
CTETRA      8527       4    1754    6107    6110    6112   13013    8107+
+          13000   13033    8120    8119
CTETRA      8528       4    1763    6105    6106    6109   16237    8116+
+          14632   14624    8099    8115
CTETRA      8529       4    1372    6626    1373    6627   16034   17551+
+           4320   17566    9839   16704
CTETRA      8530       4    1762    6068    6109    6112   14622    8095+
+          14625   13028    8112    8114
CTETRA      8531       4    1745    1746    1770    6045    5554    5577+
+           5571   16956   13814   16951
CTETRA      8532       4    1273    6738    1274    6739   14850   12077+
+           4125   14862   10137   15755
CTETRA      8533       4     582    1767    1768    6066    5560    5562+
+           5558   15917   16637   17203
CTETRA      8534       4    1434    5968    5967    6684   12724    8289+
+          12019   12735    9976    9977
CTETRA      8535       4     451    6629     258    6678   13289    9827+
+          13288   13280    9924    9922
CTETRA      8536       4     457     264    6578    6583   15465    9600+
+          16388   15462    9598    9602
CTETRA      8537       4    1204    1254    1255    6515    3904    3906+
+           3905   14888   14813   14814
CTETRA      8538       4    1695    5981    5987    6040   14096    7866+
+          16298   14097    7868    7867
CTETRA      8539       4     465    1267    6512    6642    3958   15994+
+          16537   17152   15995    9738
CTETRA      8540       4    1794    1798    1796    6029    5682    5683+
+           5672   14603   14595   16467
CTETRA      8541       4    1775    1777    1779    5989    5610    5612+
+           5611   17408   16805   14561
CTETRA      8542       4     463     270    6640    6642   17057    9746+
+          17525   15998    9741    9748
CTETRA      8543       4    1457    1473    1458    6169    4624    4628+
+           4629   14154   13882   12548
CTETRA      8544       4    1664    5988    6039    6040   17434    7858+
+          15867   15868    7871    7872
CTETRA      8545       4     475     282     280    6800   16895     281+
+          16572   16893   10272   10271
CTETRA      8546       4     477    6794     284    6803   16307   10293+
+          17176   16308   10295   10285
CTETRA      8547       4    1191    1340    1338    6608    4189    4194+
+           4193   15038   15037   15179
CTETRA      8548       4     729     730    1190    6612    3100    3717+
+           3718   16888   16909   16920
CTETRA      8549       4      60     702     708    5935    2191    2193+
+           2190   17113   15648   15650
CTETRA      8550       4    1664    5988    1779    6039   17434   17406+
+           5613   15867    7858   14559
CTETRA      8551       4    1779    5988    5989    6039   17406    7859+
+          14561   14559    7858    7857
CTETRA      8552       4      60      61     112     708      66    5815+
+           5816    2190    2186   16619
CTETRA      8553       4     451    1396    6629    6678    4406   13303+
+          13289   13280   15146    9924
CTETRA      8554       4     449     256    6676    6678   13278    9905+
+          15143   13279    9923    9930
CTETRA      8555       4    1789    1803    1795    6027    5696    5708+
+           5670   14136   12632   16577
CTETRA      8556       4    1716    6321    1718    6322   13661   15379+
+           5416   13662    8797   17420
CTETRA      8557       4     449     451    1287    6751     450    3969+
+           3985   17350   15244   17351
CTETRA      8558       4    1346    1353    6593    6594    4244   14754+
+          14758   15913   16391    9653
CTETRA      8559       4     457    6636     264    6652   15478    9770+
+          15465   15467    9805    9803
CTETRA      8560       4    1792    6000    6015    6016   16588    7736+
+          16593   16600    7734    7733
CTETRA      8561       4    1738    5992    1803    6026   14131   15696+
+           5695   13825    7797   14135
CTETRA      8562       4    1784    1786    6010    6013    5643   15973+
+          13705   13162   15974    7704
CTETRA      8563       4     441    6687    1450    6702   17238   16708+
+           4545   16990   10002   13023
CTETRA      8564       4    1347    1363    1362    6528    4284    4285+
+           4279   14819   14805   14808
CTETRA      8565       4    1669    6062    6063    6064   16602    7949+
+          12605   13830    7948    7945
CTETRA      8566       4    1793    1799    1808    6031    5705    5710+
+           5709   14604   15635   15636
CTETRA      8567       4    1362    6521    6527    6550   17007    9417+
+          16710   14809    9424    9412
CTETRA      8568       4    1354    6627    6628    6659   17538    9844+
+          17359   15016    9843    9842
CTETRA      8569       4     704     705     708    5936    2182    2187+
+           2188   15021   15022   16618
CTETRA      8570       4    1359    6521    6520    6657   15014    9425+
+          15007   15006    9830    9831
CTETRA      8571       4    1195    6519    1358    6549   15809   17266+
+           4265   12071    9422   12064
CTETRA      8572       4    1194    1195    1358    6549    3748    4265+
+           4266   12063   12071   12064
CTETRA      8573       4    1782    1792    1787    6015    5666    5660+
+           5664   16311   16593   16315
CTETRA      8574       4    1782    6015    1787    6017   16311   16315+
+           5664   16312    7739   16316
CTETRA      8575       4    1781    1782    1787    6017    5630    5664+
+           5665   15919   16312   16316
CTETRA      8576       4      61     112     708    5937    5815   16619+
+           2186   16455    7621   16458
CTETRA      8577       4    1336    1340    6592    6616    4191   15033+
+          15042   13291   13293    9727
CTETRA      8578       4    1218    1219    6531    6605    3731   14906+
+          14581   13306   13061    9675
CTETRA      8579       4     385     387    1781    6011     386    5627+
+           5628   16335   13703   13707
CTETRA      8580       4     379     186    6062    6064   12511    7946+
+          15302   12512    7941    7948
CTETRA      8581       4    1795    6027    1804    6033   16577   12633+
+           5707   14638    7831   12625
CTETRA      8582       4    1191    1220    1218    6602    3721    3725+
+           3724   12502   13305   12503
CTETRA      8583       4     734     980     981    6557    3004    3028+
+           3012   13077   16897   14828
CTETRA      8584       4    1412    6146    1423    6152   16379   16713+
+           4422   13104    8323   17490
CTETRA      8585       4     583     584    6044    6137    2292   13914+
+          16638   15853   15854    8210
CTETRA      8586       4    1423    6147    6146    6490   12772    8324+
+          16713   17374    9353    9360
CTETRA      8587       4     705    5936    5931    5937   15022    7614+
+          15024   16326    7620    7622
CTETRA      8588       4    1423    6146    6356    6490   16713    8969+
+          17303   17374    9360    9359
CTETRA      8589       4    1455    6166    6165    6194   13570    8271+
+          15412   13571    8363    8365
CTETRA      8590       4    1411    6146    6145    6356   16712    8331+
+          14011   14010    8969    8968
CTETRA      8591       4    1605    1608    1606    6257    5011    5013+
+           5014   13859   13861   12703
CTETRA      8592       4     131     142       8    6097   11786     151+
+          11788   15622    8042    8037
CTETRA      8593       4     133     644     144    5952    1985   14383+
+          11782   16457   14382    7678
CTETRA      8594       4    1529    6478    6454    6489   13560    9328+
+          14745   12299    9364    9351
CTETRA      8595       4    1744    6091    6090    6100   15692    8032+
+          15686   13836    8061    8070
CTETRA      8596       4    1524    6496    6480    6497   15067    9384+
+          16271   13274    9389    9392
CTETRA      8597       4    1504    1592    1657    6396    5068    5231+
+           5229   13698   15837   15841
CTETRA      8598       4    1523    1534    1533    6482    4777    4772+
+           4774   13142   13141   13138
CTETRA      8599       4    1537    1543    1542    6495    4833    4834+
+           4830   15212   15116   13116
CTETRA      8600       4    1515    1541    1516    6440    4814    4817+
+           4816   14607   14609   16978
CTETRA      8601       4     642    5946    5947    5951   14583    7684+
+          15902   16081    7681    7683
CTETRA      8602       4     642    5947    5946    5955   15902    7684+
+          14583   15903   11775   11774
CTETRA      8603       4    1812    6089    6086    6101   15160    8062+
+          13017   13773    8067    8066
CTETRA      8604       4    1531    6460    6455    6462   16900    9253+
+          16693   17369    9256    9240
CTETRA      8605       4    1517    6442    1518    6452   14389   14390+
+           4831   14411    9224   12274
CTETRA      8606       4    1537    6441    6471    6495   15211    9290+
+          13550   15212    9376    9378
CTETRA      8607       4     702     718     716    5913    2234    2235+
+           2223   16132   16140   16133
CTETRA      8608       4     132     599    5946    5956    1983   15394+
+          14155   14156   14161   11773
CTETRA      8609       4     589     590    1744    6092    2274    5482+
+           5481   12395   12397   12412
CTETRA      8610       4     590    1820    1744    6091    5757    5756+
+           5482   15691   14090   15692
CTETRA      8611       4     716     718     717    5916    2235    2236+
+           2230   16143   15847   16148
CTETRA      8612       4    1649    6434    1655    6435   13849   12793+
+           5221   13845    9164   12791
CTETRA      8613       4     132     599     642    5946    1983    1974+
+           1981   14155   15394   14583
CTETRA      8614       4     349     156       6    5928   13818     155+
+          15327   15929    7579    7581
CTETRA      8615       4      64     116     115    5928    5806     126+
+           5810   12967    7582    7583
CTETRA      8616       4    1644    6421    6408    6422   16835    9095+
+          16848   17171    9097    9096
CTETRA      8617       4     405     407    1644    6422     406    5178+
+           5177   16682   15403   17171
CTETRA      8618       4     606    6129    5824    6133   14417    8165+
+          14509   14418    8177    8176
CTETRA      8619       4     716    5913     718    5916   16133   16140+
+           2235   16143    7520   15847
CTETRA      8620       4     527     529     336    7139     528   16190+
+          13494   13496   16191   11379
CTETRA      8621       4      57     108    5914    5916    5803    7527+
+          13500   15846    7519    7529
CTETRA      8622       4     647     689     675    5881    2142    2144+
+           2119   15353   16795   16786
CTETRA      8623       4     403     405    1645    6408     404    5175+
+           5176   14456   14468   14457
CTETRA      8624       4      22     619     667    5860    2055    2053+
+           2056   17416   13195   12219
CTETRA      8625       4      22     667     666    5861    2056    2060+
+           2059   13192   12221   12224
CTETRA      8626       4      10     613    5822    5832   11839   16783+
+           7249    7287   11840    7283
CTETRA      8627       4     691     697     696    5893    2161    2163+
+           2162   17074   17567   16945
CTETRA      8628       4     695    5894     696    5929   16476   17535+
+           2165   15964    7592   16153
CTETRA      8629       4    1647    1651    1649    6403    5207    5202+
+           5205   17397   13850   13848
CTETRA      8630       4     401    1730     403    6329    5455    5454+
+            402   14030   14035   14462
CTETRA      8631       4     649     654     660    5864    2024    2022+
+           2018   13427   17207   13438
CTETRA      8632       4    1641    6409    1643    6418   17394   17387+
+           5183   13621    9075   17342
CTETRA      8633       4    1641    6410    6409    6418   13590    9066+
+          17394   13621    9072    9075
CTETRA      8634       4      58      59     109     718      71    5799+
+           5801    2233    2232   17083
CTETRA      8635       4    1645    6409    6408    6421   17388    9071+
+          14457   16834    9094    9095
CTETRA      8636       4      59     110     109    5913    5800     121+
+           5799   16139    7517    7516
CTETRA      8637       4    1398    1427    1399    6464    4460    4463+
+           4465   16249   14738   16994
CTETRA      8638       4     349      54       4     104    2261      76+
+            348   13169    5792    5791
CTETRA      8639       4    1594    1648    1646    6423    5195    5191+
+           5193   16348   15619   15618
CTETRA      8640       4    1457    1497    6178    6179    4718   15968+
+          14452   16930   12518    8281
CTETRA      8641       4     397     399     204    6326     398   17306+
+          15980   17425   17422    8827
CTETRA      8642       4     349       4      64    5928     348      70+
+           2209   15929   15332   12967
CTETRA      8643       4     399     204     206    6414   17306     205+
+          17172   16743    9040    9041
CTETRA      8644       4     351     353     160    5876     352   15348+
+          15347   15659   15664    7406
CTETRA      8645       4    1519    6379    1520    6387   15224   17381+
+           4856   15235    9000   15232
CTETRA      8646       4     696     706     703    5929    2173    2178+
+           2172   16153   16154   15963
CTETRA      8647       4     527     334    7173    7175   13495   11506+
+          14137   13498   11502   11508
CTETRA      8648       4    1537    1538    1543    6481    4825    4827+
+           4833   13552   13123   13122
CTETRA      8649       4    1492    6144    1493    6383   13118   15610+
+           4705   14018    8972   12069
CTETRA      8650       4     690     696     695    5894    2164    2165+
+           2159   17056   17535   16476
CTETRA      8651       4     689     690     695    5894    2146    2159+
+           2158   17448   17056   16476
CTETRA      8652       4    1548    6353    6354    6384   15226    8984+
+          17355   16839    8981    8985
CTETRA      8653       4     689    5880     690    5894   16785   17536+
+           2146   17448    7463   17056
CTETRA      8654       4     705     708    5936    5937    2187   16618+
+          15022   16326   16458    7620
CTETRA      8655       4    1548    6379    6353    6384   15225    8983+
+          15226   16839    8982    8981
CTETRA      8656       4     689    5880    5894    5895   16785    7463+
+          17448   16607    7465    7467
CTETRA      8657       4     527     334    7102    7139   13495   11295+
+          15475   13496   11382   11383
CTETRA      8658       4    1549    6384    6380    6385   16838    8998+
+          16915   16916    8994    8997
CTETRA      8659       4    1520    6360    6378    6385   17556    8989+
+          15231   17382    8991    8990
CTETRA      8660       4     647    5866     648    5880   15351   15409+
+           2030   16784    7419   15406
CTETRA      8661       4    1405    6380    1549    6381   17484   16915+
+           4858   14019    8980   17481
CTETRA      8662       4     702    5934    5932    5935   16134    7615+
+          15653   15648    7612    7616
CTETRA      8663       4    1547    6354    6381    6384   17354    8986+
+          17332   16837    8985    8988
CTETRA      8664       4    1406    1521    1549    6385    4863    4865+
+           4859   16913   16914   16916
CTETRA      8665       4    1519    1548    1520    6379    4855    4857+
+           4856   15224   15225   17381
CTETRA      8666       4    1548    6384    1549    6385   16839   16838+
+           4862   17504    8994   16916
CTETRA      8667       4    1406    6380    6361    6385   12070    8975+
+          16911   16913    8997    8996
CTETRA      8668       4    1406    1478    6361    6362    4665   17483+
+          16911   12067   17349    8944
CTETRA      8669       4    1725    6333    6334    6335   13068    8836+
+          11859   13057    8835    8834
CTETRA      8670       4     109     718    5913    5916   17083   16140+
+           7516    7518   15847    7520
CTETRA      8671       4    1675    6334    1726    6347   11857   13053+
+           5433   14683    8889   14684
CTETRA      8672       4    1722    6340    6339    6346   12652    8866+
+          11928   15378    8886    8883
CTETRA      8673       4      59    5913     702    5935   16139   16132+
+           2192   17073    7611   15648
CTETRA      8674       4    1676    1703    6260    6261    5339   11862+
+          13088   11860   13070    8604
CTETRA      8675       4     525     918     527    7102    2833    2834+
+            526   14129   14128   15475
CTETRA      8676       4    1511    6304    1512    6318   17343   13890+
+           4882   15207    8780   13888
CTETRA      8677       4     703     706     705    5929    2178    2180+
+           2179   15963   16154   15654
CTETRA      8678       4    1658    6006    6005    6019   15975    7717+
+          17339   17421    7773    7761
CTETRA      8679       4    1513    1552    6302    6303    4877   16683+
+          14032   16689   13892    8743
CTETRA      8680       4     798    7170    6978    7175   14256   11496+
+          12538   13499   11500   11499
CTETRA      8681       4    1510    1561    6253    6448    4910   12542+
+          13238   12544   12543    9187
CTETRA      8682       4    1512    1591    1610    6318    4989    4993+
+           4991   13888   13889   15206
CTETRA      8683       4      58     109     108    5916    5801     123+
+           5804   15848    7518    7519
CTETRA      8684       4    1551    1561    1559    6254    4915    4916+
+           4913   16873   12541   16745
CTETRA      8685       4    1561    6447    6254    6448   16747    9189+
+          12541   12543    9191    9188
CTETRA      8686       4      62     113     707    5924    5811   16324+
+           2184   14377    7576   13533
CTETRA      8687       4     696    5894    5893    5929   17535    7464+
+          16945   16153    7592    7590
CTETRA      8688       4    1551    6304    6254    6306   13885    8718+
+          16873   13886    8720    8719
CTETRA      8689       4     707    5931    5924    5937   15647    7601+
+          13533   16325    7622    7623
CTETRA      8690       4    1511    6318    1610    6319   15207   15206+
+           4992   13241    8786   13865
CTETRA      8691       4      57      58     108    5916      72    5804+
+           5803   15846   15848    7519
CTETRA      8692       4     697    5893    5892    5925   17567    7458+
+          17560   13541    7567    7566
CTETRA      8693       4    1597    1631    1642    6411    5141    5167+
+           5174   12816   16244   16240
CTETRA      8694       4    1684    6266    1685    6285   15855   15859+
+           5260   13113    8629   15849
CTETRA      8695       4    1583    6266    1687    6291   16667   16658+
+           5243   16354    8663   16657
CTETRA      8696       4    1594    6423    6424    6430   16348    9139+
+          13993   13995    9134    9137
CTETRA      8697       4    1634    1635    1636    6244    5144    5149+
+           5151   17364   17182   17503
CTETRA      8698       4     588    6079    1755    6080   12387   12389+
+           5492   12390    8081   16278
CTETRA      8699       4      59     111     110    5935    5812     128+
+           5800   17073    7610    7609
CTETRA      8700       4    1184    1319    1313    6711    4109    4110+
+           4085   15434   14351   16924
CTETRA      8701       4    1635    1636    6244    6295    5149   17503+
+          17182   16351   16350    8674
CTETRA      8702       4     431     433     240    5971     432   14489+
+          13714   13657   17197    9958
CTETRA      8703       4    1703    6283    6275    6284   11864    8623+
+          17419   17417    8618    8621
CTETRA      8704       4    1682    6282    6269    6284   17410    8612+
+          15181   17563    8614    8613
CTETRA      8705       4     694     695     700    5895    2160    2166+
+           2167   16609   16608   17449
CTETRA      8706       4    1697    6265    5981    6278   15251    8563+
+          14579   14660    8565    8568
CTETRA      8707       4    1699    6277    6276    6280   15991    8577+
+          14663   15989    8585    8584
CTETRA      8708       4     523     330    6978    7040   12561   11075+
+          12529   12531   11065   11077
CTETRA      8709       4    1681    1704    6274    6282    5350   16854+
+          16549   16749   16855    8622
CTETRA      8710       4    1694    1697    1696    5980    5317    5316+
+           5305   16575   14578   12170
CTETRA      8711       4    1664    5987    5988    6040   16460    7873+
+          17434   15868    7867    7871
CTETRA      8712       4     361     166     168    5948   15678     167+
+          17016   15679    7663    7665
CTETRA      8713       4     359     656     361    5855    2015    1997+
+            360   15680   15683   15681
CTETRA      8714       4     361     617     363    5820    1998    2267+
+            362   16595   16319   14115
CTETRA      8715       4     621     635    5834    5874    1933   12944+
+          12990   12416   13234    7387
CTETRA      8716       4    1682    1704    6282    6284    5356   16855+
+          17410   17563   16856    8614
CTETRA      8717       4     527     332     334    7175   14134     333+
+          13495   13498   11501   11502
CTETRA      8718       4     385     194     387    6011   14281   14235+
+            386   16335    7708   13703
CTETRA      8719       4    1682    6268    6269    6282   15180    8616+
+          15181   17410    8615    8612
CTETRA      8720       4    1618    6296    6247    6299   13564    8698+
+          14219   14222    8700    8699
CTETRA      8721       4    1682    1692    6268    6282    5289   15177+
+          15180   17410   15850    8615
CTETRA      8722       4    1279    1280    6215    6216    4057   13986+
+          16726   16725   13685    8462
CTETRA      8723       4     391     196     198    6012   11896     197+
+          11895   15374    7699    7700
CTETRA      8724       4     393     395     200    6343     394   15984+
+          16554   14027   15985    8864
CTETRA      8725       4    1757    6099    6079    6102   13837    8074+
+          12388   13833    8073    8076
CTETRA      8726       4     389    1715     391    6345    5398    5399+
+            390   15569   14965   11893
CTETRA      8727       4    1421    6147    1422    6213   17488   12771+
+           4428   17283    8442   16755
CTETRA      8728       4    1580    6005    1785    6012   17346   17338+
+           5635   15375    7718   14617
CTETRA      8729       4    1421    1426    6212    6213    4449   12031+
+          12039   17283   17486    8456
CTETRA      8730       4    1424    1425    6148    6199    4441   12750+
+          15440   17301   12021    8386
CTETRA      8731       4    1420    6150    6149    6466   14746    8391+
+          15827   16996    9271    9279
$*  Mesh Collector: Solid(5)
$*  Mesh: 3d_mesh(2)
CTETRA      8732       5   17724   17726   18131   18134   17940   18556+
+          18557   18558   18559   18216
CTETRA      8733       5   17706   18159   17708   18160   18560   18561+
+          17886   18562   18311   18563
CTETRA      8734       5   17696   17707   17697   18157   17881   17879+
+          17883   18564   18565   18566
CTETRA      8735       5   17707   18158   18157   18161   18567   18300+
+          18565   18568   18315   18317
CTETRA      8736       5   17640   18158   17707   18161   18302   18567+
+          18569   18316   18315   18568
CTETRA      8737       5   17743   18186   17744   18194   18570   18571+
+          17993   18572   18501   18573
CTETRA      8738       5   17735   18185   17744   18186   18574   18575+
+          17987   18576   18416   18571
CTETRA      8739       5   17744   18194   18185   18195   18573   18500+
+          18575   18577   18461   18497
CTETRA      8740       5   17584   17635   17636   18202   18514   17668+
+          18516   18578   18450   18449
CTETRA      8741       5   17773   18163   17775   18167   18579   18580+
+          18091   18581   18350   18582
CTETRA      8742       5   17775   18162   18154   18167   18583   18334+
+          18584   18582   18347   18346
CTETRA      8743       5   17774   17777   17775   18154   18103   18101+
+          18087   18585   18586   18584
CTETRA      8744       5   17597   17766   18142   18145   18053   18587+
+          18588   18589   18590   18286
CTETRA      8745       5   17675   17681   17676   18203   17784   17811+
+          17812   18591   18592   18593
CTETRA      8746       5   17761   17766   17765   18145   18038   18040+
+          18035   18594   18590   18595
CTETRA      8747       5   17761   17765   18144   18145   18035   18596+
+          18597   18594   18595   18283
CTETRA      8748       5   17597   17571   17765   18145   18553   18598+
+          18043   18589   18284   18595
CTETRA      8749       5   17761   18144   18143   18145   18597   18282+
+          18599   18594   18283   18287
CTETRA      8750       5   17571   17709   17765   18144   18600   18034+
+          18598   18280   18601   18596
CTETRA      8751       5   17576   17629   17672   18137   18537   18602+
+          17791   18603   18240   18604
CTETRA      8752       5   17577   17672   17629   18120   17790   18602+
+          18532   18605   18606   18237
CTETRA      8753       5   17718   17721   17720   18135   17914   17915+
+          17909   18607   18608   18609
CTETRA      8754       5   17720   17721   17725   18135   17915   17934+
+          17933   18609   18608   18610
CTETRA      8755       5   17712   17721   18123   18129   17912   18611+
+          18612   18613   18614   18230
CTETRA      8756       5   17721   18123   18129   18135   18611   18230+
+          18614   18608   18227   18225
CTETRA      8757       5   17718   18122   17721   18135   18615   18616+
+          17914   18607   18228   18608
CTETRA      8758       5   17750   18175   18181   18183   18617   18403+
+          18618   18619   18402   18404
CTETRA      8759       5   17730   17750   18175   18181   18011   18617+
+          18620   18621   18618   18403
CTETRA      8760       5   17742   18187   18186   18193   18622   18424+
+          18623   18624   18503   18504
CTETRA      8761       5   17675   17744   17715   18195   17991   17990+
+          17890   18625   18577   18626
CTETRA      8762       5   17676   17743   17744   18194   17986   17993+
+          17992   18627   18572   18573
CTETRA      8763       5   17741   17743   17742   18186   17994   17983+
+          17995   18628   18570   18623
CTETRA      8764       5   17705   17706   18152   18159   17869   18629+
+          18630   18631   18560   18308
CTETRA      8765       5   17633   18198   17688   18210   18431   18632+
+          18633   18483   18482   18634
CTETRA      8766       5   17678   17689   17690   18199   17819   17825+
+          17828   18635   18636   18637
CTETRA      8767       5   17582   17688   17633   18198   17816   18633+
+          18512   18638   18632   18431
CTETRA      8768       5   17675   17676   18194   18203   17812   18627+
+          18639   18591   18593   18460
CTETRA      8769       5   17710   17726   17711   18140   17942   17939+
+          17943   18640   18641   18642
CTETRA      8770       5   17582   17690   17688   18198   17826   17824+
+          17816   18638   18643   18632
CTETRA      8771       5   17682   17688   17687   18210   17813   17814+
+          17807   18644   18634   18645
CTETRA      8772       5   17751   18149   18148   18181   18646   18328+
+          18647   18648   18394   18395
CTETRA      8773       5   17730   17731   18181   18182   17972   18649+
+          18621   18650   18651   18392
CTETRA      8774       5   17739   17740   18172   18182   17979   18652+
+          18653   18654   18655   18388
CTETRA      8775       5   17731   18149   17751   18181   18656   18646+
+          18010   18649   18394   18648
CTETRA      8776       5   17730   18174   17740   18182   18657   18658+
+          17970   18650   18391   18655
CTETRA      8777       5   17732   18150   18149   18182   18659   18332+
+          18660   18661   18399   18396
CTETRA      8778       5   17755   18155   17775   18164   18662   18663+
+          18089   18664   18335   18665
CTETRA      8779       5   17709   17761   17765   18144   18036   18035+
+          18034   18601   18597   18596
CTETRA      8780       5   17585   17637   17701   18201   18528   18666+
+          17849   18667   18443   18668
CTETRA      8781       5   17700   17701   18190   18201   17848   18669+
+          18670   18671   18668   18442
CTETRA      8782       5   17700   18190   18200   18201   18670   18445+
+          18672   18671   18442   18446
CTETRA      8783       5   17585   17701   17680   18201   17849   17847+
+          17823   18667   18668   18673
CTETRA      8784       5   17574   17627   17722   18132   18535   18674+
+          17917   18675   18223   18676
CTETRA      8785       5   17574   17627   17575   17722   18535   18533+
+          17613   17917   18674   17916
CTETRA      8786       5   17722   18132   18133   18134   18676   18213+
+          18677   18678   18212   18211
CTETRA      8787       5   17722   17724   18132   18134   17928   18679+
+          18676   18678   18558   18212
CTETRA      8788       5   17710   17723   17726   18131   17926   17941+
+          17942   18680   18681   18556
CTETRA      8789       5   17725   18130   17726   18134   18682   18683+
+          17938   18684   18214   18559
CTETRA      8790       5   17572   17709   17625   17723   17922   18685+
+          18541   17920   17924   18686
CTETRA      8791       5   17573   17723   17626   17724   17921   18687+
+          18539   17929   17930   18688
CTETRA      8792       5   17573   17625   17626   17723   18543   17648+
+          18539   17921   18686   18687
CTETRA      8793       5   17725   18133   18130   18134   18689   18217+
+          18682   18684   18211   18214
CTETRA      8794       5   17680   17701   17700   18201   17847   17848+
+          17846   18673   18668   18671
CTETRA      8795       5   17701   18153   17704   18190   18690   18691+
+          17857   18669   18441   18692
CTETRA      8796       5   17700   18190   17702   18191   18670   18693+
+          17855   18694   18447   18695
CTETRA      8797       5   17763   18128   18146   18166   18696   18344+
+          18697   18698   18342   18340
CTETRA      8798       5   17763   18128   18127   18146   18696   18275+
+          18699   18697   18344   18386
CTETRA      8799       5   17754   18154   18155   18158   18700   18296+
+          18701   18702   18289   18295
CTETRA      8800       5   17591   17774   17641   18154   18085   18703+
+          18518   18704   18585   18288
CTETRA      8801       5   17591   17777   17774   18154   18102   18103+
+          18085   18704   18586   18585
CTETRA      8802       5   17592   17776   17777   18167   18094   18100+
+          18099   18705   18706   18707
CTETRA      8803       5   17775   18155   18154   18162   18663   18296+
+          18584   18583   18333   18334
CTETRA      8804       5   17641   17774   17698   18158   18703   18081+
+          18708   18290   18709   18710
CTETRA      8805       5   17755   18156   18155   18164   18711   18297+
+          18662   18664   18331   18335
CTETRA      8806       5   17584   17636   17585   17680   18516   18525+
+          17604   17822   18712   17823
CTETRA      8807       5   17754   17774   18154   18158   18083   18585+
+          18700   18702   18709   18289
CTETRA      8808       5   17709   18131   17710   18144   18713   18680+
+          17925   18601   18277   18714
CTETRA      8809       5   17625   18131   17709   18144   18221   18713+
+          18685   18279   18277   18601
CTETRA      8810       5   17761   18139   18143   18144   18715   18266+
+          18599   18597   18281   18282
CTETRA      8811       5   17710   18131   18140   18144   18680   18263+
+          18640   18714   18277   18278
CTETRA      8812       5   17625   17626   17723   18131   17648   18687+
+          18686   18221   18220   18681
CTETRA      8813       5   17696   17706   17707   18160   17872   17882+
+          17881   18716   18562   18717
CTETRA      8814       5   17704   17705   17706   18152   17867   17869+
+          17868   18718   18630   18629
CTETRA      8815       5   17707   18160   17708   18161   18717   18563+
+          17885   18568   18318   18719
CTETRA      8816       5   17739   18173   18150   18182   18720   18397+
+          18721   18654   18390   18399
CTETRA      8817       5   17752   18149   18150   18156   18722   18332+
+          18723   18724   18330   18301
CTETRA      8818       5   17711   17726   17725   18130   17939   17938+
+          17936   18725   18683   18682
CTETRA      8819       5   17695   17696   18150   18151   17871   18726+
+          18727   18728   18729   18293
CTETRA      8820       5   17695   18151   18150   18173   18728   18293+
+          18727   18730   18398   18397
CTETRA      8821       5   17687   18198   18204   18210   18731   18456+
+          18732   18645   18482   18479
CTETRA      8822       5   17677   17689   18197   18204   17817   18733+
+          18734   18735   18736   18455
CTETRA      8823       5   17681   17682   17687   18208   17788   17807+
+          17806   18737   18738   18739
CTETRA      8824       5   17699   17700   18191   18200   17845   18694+
+          18740   18741   18672   18435
CTETRA      8825       5   17700   17704   17702   18190   17856   17858+
+          17855   18670   18692   18693
CTETRA      8826       5   17694   17702   18189   18191   17853   18742+
+          18743   18744   18695   18493
CTETRA      8827       5   17679   18200   18199   18202   18745   18438+
+          18746   18747   18452   18451
CTETRA      8828       5   17699   18191   18192   18200   18740   18436+
+          18748   18741   18435   18434
CTETRA      8829       5   17693   17702   17694   18191   17851   17853+
+          17852   18749   18695   18744
CTETRA      8830       5   17693   18187   17742   18192   18750   18622+
+          17984   18751   18502   18752
CTETRA      8831       5   17742   18192   18187   18193   18752   18502+
+          18622   18624   18454   18503
CTETRA      8832       5   17692   18192   18193   18197   18753   18454+
+          18754   18755   18439   18453
CTETRA      8833       5   17693   17699   17702   18191   17841   17854+
+          17851   18749   18740   18695
CTETRA      8834       5   17678   18192   17692   18197   18756   18753+
+          17842   18757   18439   18755
CTETRA      8835       5   17678   17699   18192   18200   17837   18748+
+          18756   18758   18741   18434
CTETRA      8836       5   17770   18147   18146   18180   18759   18338+
+          18760   18761   18405   18387
CTETRA      8837       5   17759   17768   18127   18180   18056   18762+
+          18763   18764   18765   18385
CTETRA      8838       5   17759   18127   18126   18180   18763   18268+
+          18766   18764   18385   18383
CTETRA      8839       5   17749   17758   17759   18180   18115   18058+
+          18114   18767   18768   18764
CTETRA      8840       5   17749   18180   18176   18183   18767   18384+
+          18769   18770   18401   18400
CTETRA      8841       5   17758   18147   18180   18183   18771   18405+
+          18768   18772   18406   18401
CTETRA      8842       5   17752   18150   17753   18156   18723   18773+
+          18017   18724   18301   18774
CTETRA      8843       5   17731   17732   17752   18149   17980   18016+
+          18018   18656   18660   18722
CTETRA      8844       5   17697   18156   18157   18158   18775   18299+
+          18566   18776   18298   18300
CTETRA      8845       5   17711   17726   18130   18140   17939   18683+
+          18725   18642   18641   18262
CTETRA      8846       5   17575   17627   17628   18138   18533   17652+
+          18534   18777   18246   18245
CTETRA      8847       5   17574   17724   17626   18132   17927   18688+
+          18538   18675   18679   18222
CTETRA      8848       5   17572   17625   17573   17723   18541   18543+
+          17614   17920   18686   17921
CTETRA      8849       5   17575   17722   17627   18138   17916   18674+
+          18533   18777   18778   18246
CTETRA      8850       5   17722   18133   18132   18136   18677   18213+
+          18676   18779   18235   18236
CTETRA      8851       5   17719   17720   17722   18136   17910   17919+
+          17918   18780   18781   18779
CTETRA      8852       5   17627   17722   18132   18138   18674   18676+
+          18223   18246   18778   18247
CTETRA      8853       5   17586   17705   17701   18153   17864   17866+
+          17850   18782   18783   18690
CTETRA      8854       5   17710   17747   17761   18140   18022   18105+
+          18104   18640   18784   18785
CTETRA      8855       5   17749   17750   17758   18183   18028   18116+
+          18115   18770   18619   18772
CTETRA      8856       5   17723   17724   17726   18131   17930   17940+
+          17941   18681   18557   18556
CTETRA      8857       5   17726   18131   18130   18140   18556   18215+
+          18683   18641   18263   18262
CTETRA      8858       5   17570   17571   17709   17765   18542   18600+
+          17923   18037   18598   18034
CTETRA      8859       5   17706   18151   18152   18160   18786   18314+
+          18629   18562   18312   18310
CTETRA      8860       5   17695   17703   18151   18189   17861   18787+
+          18728   18788   18789   18420
CTETRA      8861       5   17694   17703   17695   18189   17859   17861+
+          17860   18743   18789   18788
CTETRA      8862       5   17751   17752   17756   18149   18019   18112+
+          18117   18646   18722   18790
CTETRA      8863       5   17731   17732   18149   18182   17980   18660+
+          18656   18651   18661   18396
CTETRA      8864       5   17730   18181   18174   18182   18621   18393+
+          18657   18650   18392   18391
CTETRA      8865       5   17756   18148   18149   18164   18791   18328+
+          18790   18792   18327   18329
CTETRA      8866       5   17732   17752   18149   18150   18016   18722+
+          18660   18659   18723   18332
CTETRA      8867       5   17597   17765   17766   18145   18043   18040+
+          18053   18589   18595   18590
CTETRA      8868       5   17763   17767   17764   18142   18044   18046+
+          18045   18793   18794   18795
CTETRA      8869       5   17710   18131   17726   18140   18680   18556+
+          17942   18640   18263   18641
CTETRA      8870       5   17726   18130   18131   18134   18683   18215+
+          18556   18559   18214   18216
CTETRA      8871       5   17626   17724   18131   18134   18688   18557+
+          18220   18224   18558   18216
CTETRA      8872       5   17573   17626   17574   17724   18539   18538+
+          17616   17929   18688   17927
CTETRA      8873       5   17721   18129   17725   18135   18614   18796+
+          17934   18608   18225   18610
CTETRA      8874       5   17721   18122   18123   18135   18616   18229+
+          18611   18608   18228   18227
CTETRA      8875       5   17722   18133   17725   18134   18677   18689+
+          17931   18678   18211   18684
CTETRA      8876       5   17770   18147   17773   18165   18759   18797+
+          18079   18798   18336   18799
CTETRA      8877       5   17757   17773   17770   18147   18076   18079+
+          18065   18800   18797   18759
CTETRA      8878       5   17775   18162   18163   18164   18583   18326+
+          18580   18665   18325   18324
CTETRA      8879       5   17592   17643   17593   17776   18545   18550+
+          17623   18094   18801   18093
CTETRA      8880       5   17754   17774   17775   18154   18083   18087+
+          18086   18700   18585   18584
CTETRA      8881       5   17754   18154   17775   18155   18700   18584+
+          18086   18701   18296   18663
CTETRA      8882       5   17641   18154   17774   18158   18288   18585+
+          18703   18290   18289   18709
CTETRA      8883       5   17592   17642   17643   18167   18544   17663+
+          18545   18705   18348   18349
CTETRA      8884       5   17696   17753   18150   18157   18013   18773+
+          18726   18564   18802   18292
CTETRA      8885       5   17753   18156   18150   18157   18774   18301+
+          18773   18802   18299   18292
CTETRA      8886       5   17752   17755   17756   18164   18111   18092+
+          18112   18803   18664   18792
CTETRA      8887       5   17756   18163   18148   18164   18804   18321+
+          18791   18792   18324   18327
CTETRA      8888       5   17595   17763   17762   18128   18049   18050+
+          18041   18805   18696   18806
CTETRA      8889       5   17763   17764   18127   18142   18045   18807+
+          18699   18793   18795   18273
CTETRA      8890       5   17763   18128   17767   18142   18696   18808+
+          18044   18793   18272   18794
CTETRA      8891       5   17595   17646   17767   18128   18551   18809+
+          18047   18805   18269   18808
CTETRA      8892       5   17763   18127   17768   18146   18699   18762+
+          18060   18697   18386   18810
CTETRA      8893       5   17750   17751   17757   18183   18012   18118+
+          18119   18619   18811   18812
CTETRA      8894       5   17645   18128   17762   18166   18270   18806+
+          18813   18343   18342   18814
CTETRA      8895       5   17771   17772   17776   18165   18075   18096+
+          18095   18815   18816   18817
CTETRA      8896       5   17775   17777   17776   18167   18101   18100+
+          18098   18582   18707   18706
CTETRA      8897       5   17713   17721   17718   18122   17911   17914+
+          17900   18818   18616   18615
CTETRA      8898       5   17700   17701   17704   18190   17848   17857+
+          17856   18670   18669   18692
CTETRA      8899       5   17702   17703   18189   18190   17862   18789+
+          18742   18693   18819   18492
CTETRA      8900       5   17693   17699   18191   18192   17841   18740+
+          18749   18751   18748   18436
CTETRA      8901       5   17678   18199   17679   18200   18635   18746+
+          17829   18758   18438   18745
CTETRA      8902       5   17678   18192   18197   18200   18756   18439+
+          18757   18758   18434   18437
CTETRA      8903       5   17679   18199   17691   18202   18746   18820+
+          17831   18747   18451   18821
CTETRA      8904       5   17677   17692   18193   18197   17843   18754+
+          18822   18734   18755   18453
CTETRA      8905       5   17757   18147   18148   18163   18800   18323+
+          18823   18824   18322   18321
CTETRA      8906       5   17626   17724   17723   18131   18688   17930+
+          18687   18220   18557   18681
CTETRA      8907       5   17758   18147   17770   18180   18771   18759+
+          18064   18768   18405   18761
CTETRA      8908       5   17750   17757   17758   18183   18119   18066+
+          18116   18619   18812   18772
CTETRA      8909       5   17709   17710   17761   18144   17925   18104+
+          18036   18601   18714   18597
CTETRA      8910       5   17757   17773   18147   18163   18076   18797+
+          18800   18824   18579   18322
CTETRA      8911       5   17776   18165   18167   18168   18817   18351+
+          18706   18825   18356   18354
CTETRA      8912       5   17775   18155   18162   18164   18663   18333+
+          18583   18665   18335   18325
CTETRA      8913       5   17764   18142   17766   18143   18795   18587+
+          18032   18826   18274   18827
CTETRA      8914       5   17763   18146   17769   18166   18697   18828+
+          18061   18698   18340   18829
CTETRA      8915       5   17763   18127   18128   18142   18699   18275+
+          18696   18793   18273   18272
CTETRA      8916       5   17759   17768   17764   18127   18056   18059+
+          18054   18763   18762   18807
CTETRA      8917       5   17760   18126   18127   18143   18830   18268+
+          18831   18832   18265   18267
CTETRA      8918       5   17760   18127   17764   18143   18831   18807+
+          18033   18832   18267   18826
CTETRA      8919       5   17769   18165   17771   18166   18833   18815+
+          18072   18829   18341   18834
CTETRA      8920       5   17769   17772   17771   18165   18073   18075+
+          18072   18833   18816   18815
CTETRA      8921       5   17578   17685   17630   18206   17794   18835+
+          18506   18836   18837   18474
CTETRA      8922       5   17588   17640   17589   17707   18521   18523+
+          17610   17877   18569   17876
CTETRA      8923       5   17596   17647   17597   18142   18555   18554+
+          17620   18838   18276   18588
CTETRA      8924       5   17646   17767   18128   18142   18809   18808+
+          18269   18271   18794   18272
CTETRA      8925       5   17760   17761   18139   18143   18039   18715+
+          18839   18832   18599   18266
CTETRA      8926       5   17759   17760   18126   18127   18055   18830+
+          18766   18763   18831   18268
CTETRA      8927       5   17719   18136   17722   18138   18780   18779+
+          17918   18840   18249   18778
CTETRA      8928       5   17720   17725   17722   18133   17933   17931+
+          17919   18841   18689   18677
CTETRA      8929       5   17717   17720   17719   18136   17908   17910+
+          17907   18842   18781   18780
CTETRA      8930       5   17700   18190   18191   18200   18670   18447+
+          18694   18672   18445   18435
CTETRA      8931       5   17694   18189   18188   18191   18743   18419+
+          18843   18744   18493   18498
CTETRA      8932       5   17703   18152   18189   18190   18844   18421+
+          18789   18819   18491   18492
CTETRA      8933       5   17694   17695   18173   18189   17860   18730+
+          18845   18743   18788   18417
CTETRA      8934       5   17591   17641   17642   18154   18518   17657+
+          18520   18704   18288   18291
CTETRA      8935       5   17674   18195   18184   18196   18846   18496+
+          18847   18848   18469   18495
CTETRA      8936       5   17769   17770   17772   18165   18068   18074+
+          18073   18833   18798   18816
CTETRA      8937       5   17591   17642   17777   18154   18520   18849+
+          18102   18704   18291   18586
CTETRA      8938       5   17593   17771   17776   18168   18070   18095+
+          18093   18850   18851   18825
CTETRA      8939       5   17696   18157   18151   18160   18564   18294+
+          18729   18716   18313   18312
CTETRA      8940       5   17703   17704   17706   18152   17863   17868+
+          17873   18844   18718   18629
CTETRA      8941       5   17702   18190   18189   18191   18693   18492+
+          18742   18695   18447   18493
CTETRA      8942       5   17705   17708   17706   18159   17888   17886+
+          17869   18631   18561   18560
CTETRA      8943       5   17697   18157   17707   18158   18566   18565+
+          17879   18776   18300   18567
CTETRA      8944       5   17695   17706   17696   18151   17870   17872+
+          17871   18728   18786   18729
CTETRA      8945       5   17589   17640   17590   17698   18523   18524+
+          17609   17874   18852   17875
CTETRA      8946       5   17590   17698   17641   17774   17875   18708+
+          18519   18084   18081   18703
CTETRA      8947       5   17773   18165   18163   18167   18799   18339+
+          18579   18581   18351   18350
CTETRA      8948       5   17772   17773   17776   18165   18080   18097+
+          18096   18816   18799   18817
CTETRA      8949       5   17675   17681   18203   18207   17784   18592+
+          18591   18853   18854   18468
CTETRA      8950       5   17581   17688   17682   18210   17815   17813+
+          17786   18855   18634   18644
CTETRA      8951       5   17581   17633   17582   17688   18510   18512+
+          17603   17815   18633   17816
CTETRA      8952       5   17582   17634   17690   18198   18513   18856+
+          17826   18638   18430   18643
CTETRA      8953       5   17746   18172   18171   18187   18857   18375+
+          18858   18859   18423   18422
CTETRA      8954       5   17739   18172   18173   18182   18653   18389+
+          18720   18654   18388   18390
CTETRA      8955       5   17740   18174   18172   18182   18658   18376+
+          18652   18655   18391   18388
CTETRA      8956       5   17740   18171   17746   18172   18860   18858+
+          18005   18652   18375   18857
CTETRA      8957       5   17739   18172   17745   18173   18653   18861+
+          17998   18720   18389   18862
CTETRA      8958       5   17745   18172   18187   18188   18861   18423+
+          18863   18864   18425   18426
CTETRA      8959       5   17693   18188   18187   18192   18865   18426+
+          18750   18751   18499   18502
CTETRA      8960       5   17745   18172   17746   18187   18861   18857+
+          18007   18863   18423   18859
CTETRA      8961       5   17742   17746   18186   18187   18006   18866+
+          18623   18622   18859   18424
CTETRA      8962       5   17750   18181   17751   18183   18618   18648+
+          18012   18619   18404   18811
CTETRA      8963       5   17574   17722   17724   18132   17917   17928+
+          17927   18675   18676   18679
CTETRA      8964       5   17725   18129   18130   18133   18796   18219+
+          18682   18689   18218   18217
CTETRA      8965       5   17712   17725   17721   18129   17935   17934+
+          17912   18613   18796   18614
CTETRA      8966       5   17711   17725   17712   18129   17936   17935+
+          17937   18867   18796   18613
CTETRA      8967       5   17757   18147   17758   18183   18800   18771+
+          18066   18812   18406   18772
CTETRA      8968       5   17711   18130   18129   18141   18725   18219+
+          18867   18868   18264   18261
CTETRA      8969       5   17729   17730   17750   18175   17959   18011+
+          18026   18869   18620   18617
CTETRA      8970       5   17575   17628   17576   17719   18534   18536+
+          17612   17905   18870   17904
CTETRA      8971       5   17575   17719   17722   18138   17905   17918+
+          17916   18777   18840   18778
CTETRA      8972       5   17717   18136   17719   18137   18842   18780+
+          17907   18871   18242   18872
CTETRA      8973       5   17704   17705   18152   18153   17867   18630+
+          18718   18691   18783   18309
CTETRA      8974       5   17586   17701   17637   18153   17850   18666+
+          18529   18782   18690   18304
CTETRA      8975       5   17585   17680   17636   18201   17823   18712+
+          18525   18667   18673   18444
CTETRA      8976       5   17585   17637   17586   17701   18528   18529+
+          17607   17849   18666   17850
CTETRA      8977       5   17596   17767   17646   18142   18048   18809+
+          18552   18838   18794   18271
CTETRA      8978       5   17571   18144   17765   18145   18280   18596+
+          18598   18284   18283   18595
CTETRA      8979       5   17681   17682   18208   18209   17788   18738+
+          18737   18873   18874   18486
CTETRA      8980       5   17572   17571   17625   17709   18540   17655+
+          18541   17922   18600   18685
CTETRA      8981       5   17682   17687   18208   18210   17807   18739+
+          18738   18644   18645   18481
CTETRA      8982       5   17676   18204   18203   18208   18875   18464+
+          18593   18876   18480   18487
CTETRA      8983       5   17676   17687   18204   18208   17808   18732+
+          18875   18876   18739   18480
CTETRA      8984       5   17581   17633   17688   18210   18510   18633+
+          17815   18855   18483   18634
CTETRA      8985       5   17581   17682   17632   18210   17786   18877+
+          18508   18855   18644   18484
CTETRA      8986       5   17687   18204   18208   18210   18732   18480+
+          18739   18645   18479   18481
CTETRA      8987       5   17632   17682   18209   18210   18877   18874+
+          18477   18484   18644   18485
CTETRA      8988       5   17751   18148   17757   18183   18647   18823+
+          18118   18811   18407   18812
CTETRA      8989       5   17733   18174   18175   18179   18878   18369+
+          18879   18880   18368   18370
CTETRA      8990       5   17729   17733   17730   18175   17958   17960+
+          17959   18869   18879   18620
CTETRA      8991       5   17729   18175   18178   18179   18869   18380+
+          18881   18882   18370   18382
CTETRA      8992       5   17729   17750   17749   18175   18026   18028+
+          18027   18869   18617   18883
CTETRA      8993       5   17729   17733   18175   18179   17958   18879+
+          18869   18882   18880   18370
CTETRA      8994       5   17730   17731   17751   18181   17972   18010+
+          18009   18621   18649   18648
CTETRA      8995       5   17730   17733   17740   18174   17960   17971+
+          17970   18657   18878   18658
CTETRA      8996       5   17730   17740   17731   18182   17970   17973+
+          17972   18650   18655   18651
CTETRA      8997       5   17734   18170   18171   18179   18884   18373+
+          18885   18886   18372   18371
CTETRA      8998       5   17733   18171   18174   18179   18887   18374+
+          18878   18880   18371   18368
CTETRA      8999       5   17729   18178   17738   18179   18881   18888+
+          17955   18882   18382   18889
CTETRA      9000       5   17731   18149   18181   18182   18656   18394+
+          18649   18651   18396   18392
CTETRA      9001       5   17751   18181   18148   18183   18648   18395+
+          18647   18811   18404   18407
CTETRA      9002       5   17732   17739   18150   18182   17977   18721+
+          18659   18661   18654   18399
CTETRA      9003       5   17751   17756   17757   18148   18117   18078+
+          18118   18647   18791   18823
CTETRA      9004       5   17731   17752   17751   18149   18018   18019+
+          18010   18656   18722   18646
CTETRA      9005       5   17705   18152   18153   18159   18630   18309+
+          18783   18631   18308   18307
CTETRA      9006       5   17586   17637   17638   18153   18529   17659+
+          18530   18782   18304   18303
CTETRA      9007       5   17637   18153   17701   18201   18304   18690+
+          18666   18443   18440   18668
CTETRA      9008       5   17696   17707   18157   18160   17881   18565+
+          18564   18716   18717   18313
CTETRA      9009       5   17683   17684   17686   18209   17783   17801+
+          17805   18890   18891   18892
CTETRA      9010       5   17631   17686   18206   18209   18893   18894+
+          18476   18478   18892   18489
CTETRA      9011       5   17596   17597   17767   18142   17620   18052+
+          18048   18838   18588   18794
CTETRA      9012       5   17625   17723   17709   18131   18686   17924+
+          18685   18221   18681   18713
CTETRA      9013       5   17761   18140   18139   18144   18785   18254+
+          18715   18597   18278   18281
CTETRA      9014       5   17596   17646   17647   18142   18552   17654+
+          18555   18838   18271   18276
CTETRA      9015       5   17766   18143   18142   18145   18827   18274+
+          18587   18590   18287   18286
CTETRA      9016       5   17682   18208   18209   18210   18738   18486+
+          18874   18644   18481   18485
CTETRA      9017       5   17681   18207   17684   18209   18854   18895+
+          17781   18873   18490   18891
CTETRA      9018       5   17684   18207   18206   18209   18895   18472+
+          18896   18891   18490   18489
CTETRA      9019       5   17689   18198   18197   18204   18897   18429+
+          18733   18736   18456   18455
CTETRA      9020       5   17631   17683   17686   18209   18898   17805+
+          18893   18478   18890   18892
CTETRA      9021       5   17640   17698   17707   18158   18852   17878+
+          18569   18302   18710   18567
CTETRA      9022       5   17640   17641   17698   18158   17658   18708+
+          18852   18302   18290   18710
CTETRA      9023       5   17589   17640   17698   17707   18523   18852+
+          17874   17876   18569   17878
CTETRA      9024       5   17576   17672   17719   18137   17791   17906+
+          17904   18603   18604   18872
CTETRA      9025       5   17697   18156   17753   18157   18775   18774+
+          18014   18566   18299   18802
CTETRA      9026       5   17707   18157   18160   18161   18565   18313+
+          18717   18568   18317   18318
CTETRA      9027       5   17770   18146   18147   18165   18760   18338+
+          18759   18798   18337   18336
CTETRA      9028       5   17718   18122   18135   18136   18615   18228+
+          18607   18899   18231   18234
CTETRA      9029       5   17712   18123   18124   18129   18612   18260+
+          18900   18613   18230   18259
CTETRA      9030       5   17711   18129   17712   18141   18867   18613+
+          17937   18868   18261   18901
CTETRA      9031       5   17728   17729   17749   18176   17957   18027+
+          18029   18902   18903   18769
CTETRA      9032       5   17715   17744   18185   18195   17990   18575+
+          18904   18626   18577   18497
CTETRA      9033       5   17756   17773   17757   18163   18077   18076+
+          18078   18804   18579   18824
CTETRA      9034       5   17773   18147   18163   18165   18797   18322+
+          18579   18799   18336   18339
CTETRA      9035       5   17756   17757   18148   18163   18078   18823+
+          18791   18804   18824   18321
CTETRA      9036       5   17591   17642   17592   17777   18520   18544+
+          17624   18102   18849   18099
CTETRA      9037       5   17752   18156   17755   18164   18724   18711+
+          18111   18803   18331   18664
CTETRA      9038       5   17728   17749   17748   18176   18029   18030+
+          18024   18902   18769   18905
CTETRA      9039       5   17729   18175   18176   18178   18869   18381+
+          18903   18881   18380   18361
CTETRA      9040       5   17733   17738   17734   18179   17961   17963+
+          17962   18880   18889   18886
CTETRA      9041       5   17730   17733   18174   18175   17960   18878+
+          18657   18620   18879   18369
CTETRA      9042       5   17597   18142   17647   18145   18588   18276+
+          18554   18589   18286   18285
CTETRA      9043       5   17679   17680   18200   18202   17836   18906+
+          18745   18747   18907   18452
CTETRA      9044       5   17678   18197   17689   18199   18757   18733+
+          17819   18635   18428   18636
CTETRA      9045       5   17584   17691   17635   18202   17834   18908+
+          18514   18578   18821   18450
CTETRA      9046       5   17584   17680   17691   18202   17822   17835+
+          17834   18578   18907   18821
CTETRA      9047       5   17584   17636   17680   18202   18516   18712+
+          17822   18578   18449   18907
CTETRA      9048       5   17693   18191   18188   18192   18749   18498+
+          18865   18751   18436   18499
CTETRA      9049       5   17679   17680   17700   18200   17836   17846+
+          17844   18745   18906   18672
CTETRA      9050       5   17694   18173   18188   18189   18845   18418+
+          18843   18743   18417   18419
CTETRA      9051       5   17693   17694   18188   18191   17852   18843+
+          18865   18749   18744   18498
CTETRA      9052       5   17695   18150   17739   18173   18727   18721+
+          17976   18730   18397   18720
CTETRA      9053       5   17678   17699   17692   18192   17837   17839+
+          17842   18756   18748   18753
CTETRA      9054       5   17739   17740   17745   18172   17979   18008+
+          17998   18653   18652   18861
CTETRA      9055       5   17694   17695   17739   18173   17860   17976+
+          17996   18845   18730   18720
CTETRA      9056       5   17695   18151   18173   18189   18728   18398+
+          18730   18788   18420   18417
CTETRA      9057       5   17701   17705   17704   18153   17866   17867+
+          17857   18690   18783   18691
CTETRA      9058       5   17692   17699   17693   18192   17839   17841+
+          17840   18753   18748   18751
CTETRA      9059       5   17762   18128   17763   18166   18806   18696+
+          18050   18814   18342   18698
CTETRA      9060       5   17706   17708   17707   18160   17886   17885+
+          17882   18562   18563   18717
CTETRA      9061       5   17594   17645   17595   17762   18546   18547+
+          17617   18042   18813   18041
CTETRA      9062       5   17771   18166   18165   18168   18834   18341+
+          18815   18851   18355   18356
CTETRA      9063       5   17594   17771   17644   18166   18069   18909+
+          18548   18910   18834   18345
CTETRA      9064       5   17693   17694   17745   18188   17852   17997+
+          17999   18865   18843   18864
CTETRA      9065       5   17716   17718   17717   18121   17902   17903+
+          17897   18911   18912   18913
CTETRA      9066       5   17713   17718   17714   18122   17900   17899+
+          17901   18818   18615   18914
CTETRA      9067       5   17679   17700   17699   18200   17844   17845+
+          17838   18745   18672   18741
CTETRA      9068       5   17704   18153   18152   18190   18691   18309+
+          18718   18692   18441   18491
CTETRA      9069       5   17576   17629   17577   17672   18537   18532+
+          17599   17791   18602   17790
CTETRA      9070       5   17578   17630   17631   18206   18506   17669+
+          18505   18836   18474   18476
CTETRA      9071       5   17629   18120   17672   18137   18237   18606+
+          18602   18240   18239   18604
CTETRA      9072       5   17576   17628   17629   18137   18536   17651+
+          18537   18603   18244   18240
CTETRA      9073       5   17577   17685   17672   18120   17793   17795+
+          17790   18605   18915   18606
CTETRA      9074       5   17626   18132   17724   18134   18222   18679+
+          18688   18224   18212   18558
CTETRA      9075       5   17764   18127   18142   18143   18807   18273+
+          18795   18826   18267   18274
CTETRA      9076       5   17583   17634   17635   18199   18517   17666+
+          18515   18916   18432   18433
CTETRA      9077       5   17738   18178   18177   18179   18888   18367+
+          18917   18889   18382   18379
CTETRA      9078       5   17731   17739   17732   18182   17978   17977+
+          17980   18651   18654   18661
CTETRA      9079       5   17696   18151   17706   18160   18729   18786+
+          17872   18716   18312   18562
CTETRA      9080       5   17697   17707   17698   18158   17879   17878+
+          17880   18776   18567   18710
CTETRA      9081       5   17756   17775   18163   18164   18090   18580+
+          18804   18792   18665   18324
CTETRA      9082       5   17773   17775   17776   18167   18091   18098+
+          18097   18581   18582   18706
CTETRA      9083       5   17754   18155   18156   18158   18701   18297+
+          18918   18702   18295   18298
CTETRA      9084       5   17694   17702   17703   18189   17853   17862+
+          17859   18743   18742   18789
CTETRA      9085       5   17740   18171   18172   18174   18860   18375+
+          18652   18658   18374   18376
CTETRA      9086       5   17754   18155   17755   18156   18701   18662+
+          18088   18918   18297   18711
CTETRA      9087       5   17738   18177   18170   18179   18917   18377+
+          18919   18889   18379   18372
CTETRA      9088       5   17773   17776   18165   18167   18097   18817+
+          18799   18581   18706   18351
CTETRA      9089       5   17756   17775   17773   18163   18090   18091+
+          18077   18804   18580   18579
CTETRA      9090       5   17757   17770   17758   18147   18065   18064+
+          18066   18800   18759   18771
CTETRA      9091       5   17752   17753   17755   18156   18017   18110+
+          18111   18724   18774   18711
CTETRA      9092       5   17672   17685   17673   18120   17795   17797+
+          17796   18606   18915   18920
CTETRA      9093       5   17628   18137   17719   18138   18244   18872+
+          18870   18245   18248   18840
CTETRA      9094       5   17672   18120   17673   18121   18606   18920+
+          17796   18921   18243   18922
CTETRA      9095       5   17630   17685   18120   18206   18835   18915+
+          18238   18474   18837   18473
CTETRA      9096       5   17578   17686   17685   18206   17803   17802+
+          17794   18836   18894   18837
CTETRA      9097       5   17578   17631   17579   17686   18505   18507+
+          17602   17803   18893   17804
CTETRA      9098       5   17685   18196   18120   18206   18923   18475+
+          18915   18837   18471   18473
CTETRA      9099       5   17673   18121   18120   18196   18922   18243+
+          18920   18924   18494   18475
CTETRA      9100       5   17673   18120   17685   18196   18920   18915+
+          17797   18924   18475   18923
CTETRA      9101       5   17577   17630   17578   17685   18531   18506+
+          17601   17793   18835   17794
CTETRA      9102       5   17672   18121   17717   18137   18921   18913+
+          17898   18604   18241   18871
CTETRA      9103       5   17692   17693   17742   18192   17840   17984+
+          17981   18753   18751   18752
CTETRA      9104       5   17692   17742   17743   18193   17981   17983+
+          17982   18754   18624   18925
CTETRA      9105       5   17740   17746   17745   18172   18005   18007+
+          18008   18652   18857   18861
CTETRA      9106       5   17734   18171   18170   18186   18885   18373+
+          18884   18926   18415   18414
CTETRA      9107       5   17734   17735   17741   18186   17968   17988+
+          18001   18926   18576   18628
CTETRA      9108       5   17735   18170   18185   18186   18927   18413+
+          18574   18576   18414   18416
CTETRA      9109       5   17674   18184   17716   18196   18847   18928+
+          17894   18848   18495   18929
CTETRA      9110       5   17736   18177   17738   18178   18930   18917+
+          17966   18931   18367   18888
CTETRA      9111       5   17713   17737   17736   18177   17947   17954+
+          17953   18932   18933   18930
CTETRA      9112       5   17712   18123   17736   18124   18612   18934+
+          17952   18900   18260   18935
CTETRA      9113       5   17696   17753   17732   18150   18013   18015+
+          17975   18726   18773   18659
CTETRA      9114       5   17695   17696   17732   18150   17871   17975+
+          17974   18727   18726   18659
CTETRA      9115       5   17708   18160   18159   18161   18563   18311+
+          18561   18719   18318   18320
CTETRA      9116       5   17697   17698   17754   18158   17880   18082+
+          18108   18776   18710   18702
CTETRA      9117       5   17768   17770   17769   18146   18067   18068+
+          18062   18810   18760   18828
CTETRA      9118       5   17761   18143   17766   18145   18599   18827+
+          18038   18594   18287   18590
CTETRA      9119       5   17597   17647   17571   18145   18554   17656+
+          18553   18589   18285   18284
CTETRA      9120       5   17758   17770   17768   18180   18064   18067+
+          18057   18768   18761   18765
CTETRA      9121       5   17747   18139   18140   18141   18936   18254+
+          18784   18937   18253   18255
CTETRA      9122       5   17747   18139   17761   18140   18936   18715+
+          18105   18784   18254   18785
CTETRA      9123       5   17724   17725   17726   18134   17932   17938+
+          17940   18558   18684   18559
CTETRA      9124       5   17572   17570   17571   17709   17615   18542+
+          18540   17922   17923   18600
CTETRA      9125       5   17709   17723   17710   18131   17924   17926+
+          17925   18713   18681   18680
CTETRA      9126       5   17710   18140   17761   18144   18640   18785+
+          18104   18714   18278   18597
CTETRA      9127       5   17747   18125   18139   18141   18938   18250+
+          18936   18937   18256   18253
CTETRA      9128       5   17711   17712   17727   18141   17937   17949+
+          17950   18868   18901   18939
CTETRA      9129       5   17712   18129   18124   18141   18613   18259+
+          18900   18901   18261   18257
CTETRA      9130       5   17742   17745   17746   18187   18000   18007+
+          18006   18622   18863   18859
CTETRA      9131       5   17703   18152   18151   18189   18844   18314+
+          18787   18789   18421   18420
CTETRA      9132       5   17694   18173   17745   18188   18845   18862+
+          17997   18843   18418   18864
CTETRA      9133       5   17743   18193   18194   18205   18925   18466+
+          18572   18940   18459   18465
CTETRA      9134       5   17677   18193   17743   18205   18822   18925+
+          17985   18941   18459   18940
CTETRA      9135       5   17741   17744   17743   18186   17989   17993+
+          17994   18628   18571   18570
CTETRA      9136       5   17677   18197   18193   18205   18734   18453+
+          18822   18941   18457   18459
CTETRA      9137       5   17728   17736   17738   18178   17964   17966+
+          17956   18942   18931   18888
CTETRA      9138       5   17728   18176   18125   18178   18902   18357+
+          18943   18942   18361   18359
CTETRA      9139       5   17727   18124   17728   18125   18944   18945+
+          17965   18946   18258   18943
CTETRA      9140       5   17717   17718   17720   18136   17903   17909+
+          17908   18842   18899   18781
CTETRA      9141       5   17719   18137   18136   18138   18872   18242+
+          18780   18840   18248   18249
CTETRA      9142       5   17672   17673   17717   18121   17796   17896+
+          17898   18921   18922   18913
CTETRA      9143       5   17718   18121   18122   18136   18912   18233+
+          18615   18899   18232   18231
CTETRA      9144       5   17676   18204   17677   18205   18875   18735+
+          17809   18947   18458   18941
CTETRA      9145       5   17676   18203   17681   18208   18593   18592+
+          17811   18876   18487   18737
CTETRA      9146       5   17677   17687   17689   18204   17810   17820+
+          17817   18735   18732   18736
CTETRA      9147       5   17677   18204   18197   18205   18735   18455+
+          18734   18941   18458   18457
CTETRA      9148       5   17775   18163   18162   18167   18580   18326+
+          18583   18582   18350   18347
CTETRA      9149       5   17771   18165   17776   18168   18815   18817+
+          18095   18851   18356   18825
CTETRA      9150       5   17593   17776   17643   18168   18093   18801+
+          18550   18850   18825   18353
CTETRA      9151       5   17698   17774   17754   18158   18081   18083+
+          18082   18710   18709   18702
CTETRA      9152       5   17590   17640   17641   17698   18524   17658+
+          18519   17875   18852   18708
CTETRA      9153       5   17587   17638   17639   18159   18527   17660+
+          18526   18948   18305   18306
CTETRA      9154       5   17588   17640   17707   18161   18521   18569+
+          17877   18949   18316   18568
CTETRA      9155       5   17678   17690   17679   18199   17828   17830+
+          17829   18635   18637   18746
CTETRA      9156       5   17583   17635   17584   17691   18515   18514+
+          17606   17833   18908   17834
CTETRA      9157       5   17586   17638   17705   18153   18530   18950+
+          17864   18782   18303   18783
CTETRA      9158       5   17631   17632   17683   18209   17670   18951+
+          18898   18478   18477   18890
CTETRA      9159       5   17677   17689   17678   18197   17817   17819+
+          17818   18734   18733   18757
CTETRA      9160       5   17577   17630   17685   18120   18531   18835+
+          17793   18605   18238   18915
CTETRA      9161       5   17579   17631   17683   17686   18507   18898+
+          17792   17804   18893   17805
CTETRA      9162       5   17673   17685   17674   18196   17797   17798+
+          17799   18924   18923   18848
CTETRA      9163       5   17674   17685   17684   18196   17798   17800+
+          17779   18848   18923   18952
CTETRA      9164       5   17741   17742   17746   18186   17995   18006+
+          18003   18628   18623   18866
CTETRA      9165       5   17734   18170   17735   18186   18884   18927+
+          17968   18926   18414   18576
CTETRA      9166       5   17737   18169   18170   18177   18953   18378+
+          18954   18933   18364   18377
CTETRA      9167       5   17730   18175   18174   18181   18620   18369+
+          18657   18621   18403   18393
CTETRA      9168       5   17747   18125   18126   18139   18938   18251+
+          18955   18936   18250   18252
CTETRA      9169       5   17760   18139   18126   18143   18839   18252+
+          18830   18832   18266   18265
CTETRA      9170       5   17711   17747   18140   18141   18020   18784+
+          18642   18868   18937   18255
CTETRA      9171       5   17711   17727   17747   18141   17950   18021+
+          18020   18868   18939   18937
CTETRA      9172       5   17747   18125   17748   18126   18938   18956+
+          18025   18955   18251   18957
CTETRA      9173       5   17749   18176   18175   18183   18769   18381+
+          18883   18770   18400   18402
CTETRA      9174       5   17752   17756   18149   18164   18112   18790+
+          18722   18803   18792   18329
CTETRA      9175       5   17755   17775   17756   18164   18089   18090+
+          18092   18664   18665   18792
CTETRA      9176       5   17590   17641   17591   17774   18519   18518+
+          17622   18084   18703   18085
CTETRA      9177       5   17753   17754   17755   18156   18109   18088+
+          18110   18774   18918   18711
CTETRA      9178       5   17635   17691   18199   18202   18908   18820+
+          18433   18450   18821   18451
CTETRA      9179       5   17763   17764   17768   18127   18045   18059+
+          18060   18699   18807   18762
CTETRA      9180       5   17595   17645   17646   18128   18547   17653+
+          18551   18805   18270   18269
CTETRA      9181       5   17595   17762   17645   18128   18041   18813+
+          18547   18805   18806   18270
CTETRA      9182       5   17580   17632   17682   17683   18509   18877+
+          17785   17789   18951   17787
CTETRA      9183       5   17722   17725   17724   18134   17931   17932+
+          17928   18678   18684   18558
CTETRA      9184       5   17728   18125   18124   18178   18943   18258+
+          18945   18942   18359   18360
CTETRA      9185       5   17712   17721   17713   18123   17912   17911+
+          17913   18612   18611   18958
CTETRA      9186       5   17727   18125   17747   18141   18946   18938+
+          18021   18939   18256   18937
CTETRA      9187       5   17745   18173   18172   18188   18862   18389+
+          18861   18864   18418   18425
CTETRA      9188       5   17752   18149   18156   18164   18722   18330+
+          18724   18803   18329   18331
CTETRA      9189       5   17746   18171   18186   18187   18858   18415+
+          18866   18859   18422   18424
CTETRA      9190       5   17677   17692   17743   18193   17843   17982+
+          17985   18822   18754   18925
CTETRA      9191       5   17676   17677   17743   18205   17809   17985+
+          17986   18947   18941   18940
CTETRA      9192       5   17692   18192   17742   18193   18753   18752+
+          17981   18754   18454   18624
CTETRA      9193       5   17676   17687   17677   18204   17808   17810+
+          17809   18875   18732   18735
CTETRA      9194       5   17676   18194   18203   18205   18627   18460+
+          18593   18947   18465   18463
CTETRA      9195       5   17594   17762   17771   18166   18042   18071+
+          18069   18910   18814   18834
CTETRA      9196       5   17593   17644   17594   17771   18549   18548+
+          17621   18070   18909   18069
CTETRA      9197       5   17697   17754   18156   18158   18108   18918+
+          18775   18776   18702   18298
CTETRA      9198       5   17579   17632   17580   17683   18511   18509+
+          17600   17792   18951   17789
CTETRA      9199       5   17749   18175   17750   18183   18883   18617+
+          18028   18770   18402   18619
CTETRA      9200       5   17674   18195   18196   18207   18846   18469+
+          18848   18959   18467   18470
CTETRA      9201       5   17673   17716   18121   18196   17895   18911+
+          18922   18924   18929   18494
CTETRA      9202       5   17672   18120   18121   18137   18606   18243+
+          18921   18604   18239   18241
CTETRA      9203       5   17736   18124   18177   18178   18935   18366+
+          18930   18931   18360   18367
CTETRA      9204       5   17712   17736   17727   18124   17952   17951+
+          17949   18900   18935   18944
CTETRA      9205       5   17734   17738   18170   18179   17963   18919+
+          18884   18886   18889   18372
CTETRA      9206       5   17736   17737   17738   18177   17954   17969+
+          17966   18930   18933   18917
CTETRA      9207       5   17728   18124   17736   18178   18945   18935+
+          17964   18942   18360   18931
CTETRA      9208       5   17713   18123   18169   18177   18958   18362+
+          18960   18932   18365   18364
CTETRA      9209       5   17727   17728   17748   18125   17965   18024+
+          18023   18946   18943   18956
CTETRA      9210       5   17694   17739   17745   18173   17996   17998+
+          17997   18845   18720   18862
CTETRA      9211       5   17735   17737   18169   18170   17948   18953+
+          18961   18927   18954   18378
CTETRA      9212       5   17695   17703   17706   18151   17861   17873+
+          17870   18728   18787   18786
CTETRA      9213       5   17693   17745   18187   18188   17999   18863+
+          18750   18865   18864   18426
CTETRA      9214       5   17711   18140   18130   18141   18642   18262+
+          18725   18868   18255   18264
CTETRA      9215       5   17593   17643   17644   18168   18550   17664+
+          18549   18850   18353   18352
CTETRA      9216       5   17699   17700   17702   18191   17845   17855+
+          17854   18740   18694   18695
CTETRA      9217       5   17588   17708   17639   18161   17884   18962+
+          18522   18949   18719   18319
CTETRA      9218       5   17592   17643   17776   18167   18545   18801+
+          18094   18705   18349   18706
CTETRA      9219       5   17696   17697   17753   18157   17883   18014+
+          18013   18564   18566   18802
CTETRA      9220       5   17697   17754   17753   18156   18108   18109+
+          18014   18775   18918   18774
CTETRA      9221       5   17732   17753   17752   18150   18015   18017+
+          18016   18659   18773   18723
CTETRA      9222       5   17696   18150   18151   18157   18726   18293+
+          18729   18564   18292   18294
CTETRA      9223       5   17592   17777   17642   18167   18099   18849+
+          18544   18705   18707   18348
CTETRA      9224       5   17678   17679   17699   18200   17829   17838+
+          17837   18758   18745   18741
CTETRA      9225       5   17754   17775   17755   18155   18086   18089+
+          18088   18701   18663   18662
CTETRA      9226       5   17749   17759   18176   18180   18114   18963+
+          18769   18767   18764   18384
CTETRA      9227       5   17758   17768   17759   18180   18057   18056+
+          18058   18768   18765   18764
CTETRA      9228       5   17769   18146   17770   18165   18828   18760+
+          18068   18833   18337   18798
CTETRA      9229       5   17695   17732   17739   18150   17974   17977+
+          17976   18727   18659   18721
CTETRA      9230       5   17731   17740   17739   18182   17973   17979+
+          17978   18651   18655   18654
CTETRA      9231       5   17759   18126   18176   18180   18766   18358+
+          18963   18764   18383   18384
CTETRA      9232       5   17768   18146   18127   18180   18810   18386+
+          18762   18765   18387   18385
CTETRA      9233       5   17728   17738   17729   18178   17956   17955+
+          17957   18942   18888   18881
CTETRA      9234       5   17733   17734   18171   18179   17962   18885+
+          18887   18880   18886   18371
CTETRA      9235       5   17675   18194   18195   18203   18639   18461+
+          18625   18591   18460   18462
CTETRA      9236       5   17749   17758   18180   18183   18115   18768+
+          18767   18770   18772   18401
CTETRA      9237       5   17748   17749   17759   18176   18030   18114+
+          18113   18905   18769   18963
CTETRA      9238       5   17703   17706   18151   18152   17873   18786+
+          18787   18844   18629   18314
CTETRA      9239       5   17673   17716   17717   18121   17895   17897+
+          17896   18922   18911   18913
CTETRA      9240       5   17674   18196   17684   18207   18848   18952+
+          17779   18959   18470   18895
CTETRA      9241       5   17725   18129   18133   18135   18796   18218+
+          18689   18610   18225   18226
CTETRA      9242       5   17703   17704   18152   18190   17863   18718+
+          18844   18819   18692   18491
CTETRA      9243       5   17727   18124   18125   18141   18944   18258+
+          18946   18939   18257   18256
CTETRA      9244       5   17687   18198   17689   18204   18731   18897+
+          17820   18732   18456   18736
CTETRA      9245       5   17634   17690   18198   18199   18856   18643+
+          18430   18432   18637   18427
CTETRA      9246       5   17594   17644   17645   18166   18548   17662+
+          18546   18910   18345   18343
CTETRA      9247       5   17684   17685   17686   18206   17800   17802+
+          17801   18896   18837   18894
CTETRA      9248       5   17579   17631   17632   17683   18507   17670+
+          18511   17792   18898   18951
CTETRA      9249       5   17747   17760   17761   18139   18106   18039+
+          18105   18936   18839   18715
CTETRA      9250       5   17577   17629   17630   18120   18532   17650+
+          18531   18605   18237   18238
CTETRA      9251       5   17580   17632   17581   17682   18509   18508+
+          17598   17785   18877   17786
CTETRA      9252       5   17684   18196   17685   18206   18952   18923+
+          17800   18896   18471   18837
CTETRA      9253       5   17582   17633   17634   18198   18512   17665+
+          18513   18638   18431   18430
CTETRA      9254       5   17674   17675   18195   18207   17780   18625+
+          18846   18959   18853   18467
CTETRA      9255       5   17675   17684   17681   18207   17778   17781+
+          17784   18853   18895   18854
CTETRA      9256       5   17681   17683   17682   18209   17782   17787+
+          17788   18873   18890   18874
CTETRA      9257       5   17674   17715   18184   18195   17889   18964+
+          18847   18846   18626   18496
CTETRA      9258       5   17675   18194   17744   18195   18639   18573+
+          17991   18625   18461   18577
CTETRA      9259       5   17687   17688   18198   18210   17814   18632+
+          18731   18645   18634   18482
CTETRA      9260       5   17734   17737   17735   18170   17967   17948+
+          17968   18884   18954   18927
CTETRA      9261       5   17587   17708   17705   18159   17887   17888+
+          17865   18948   18561   18631
CTETRA      9262       5   17713   17714   17737   18169   17901   17946+
+          17947   18960   18965   18953
CTETRA      9263       5   17714   17735   17737   18169   17944   17948+
+          17946   18965   18961   18953
CTETRA      9264       5   17714   18169   18122   18184   18965   18363+
+          18914   18966   18410   18408
CTETRA      9265       5   17713   18169   17737   18177   18960   18953+
+          17947   18932   18364   18933
CTETRA      9266       5   17595   17767   17763   18128   18047   18044+
+          18049   18805   18808   18696
CTETRA      9267       5   17737   18170   17738   18177   18954   18919+
+          17969   18933   18377   18917
CTETRA      9268       5   17733   17746   17740   18171   18004   18005+
+          17971   18887   18858   18860
CTETRA      9269       5   17763   17768   17769   18146   18060   18062+
+          18061   18697   18810   18828
CTETRA      9270       5   17764   17767   17766   18142   18046   18051+
+          18032   18795   18794   18587
CTETRA      9271       5   17689   18198   17690   18199   18897   18643+
+          17825   18636   18427   18637
CTETRA      9272       5   17733   18171   17740   18174   18887   18860+
+          17971   18878   18374   18658
CTETRA      9273       5   17684   18196   18206   18207   18952   18471+
+          18896   18895   18470   18472
CTETRA      9274       5   17728   17748   18125   18176   18024   18956+
+          18943   18902   18905   18357
CTETRA      9275       5   17713   18123   18122   18169   18958   18229+
+          18818   18960   18362   18363
CTETRA      9276       5   17710   17711   17747   18140   17943   18020+
+          18022   18640   18642   18784
CTETRA      9277       5   17720   18133   17722   18136   18841   18677+
+          17919   18781   18235   18779
CTETRA      9278       5   17759   17764   17760   18127   18054   18033+
+          18055   18763   18807   18831
CTETRA      9279       5   17576   17719   17628   18137   17904   18870+
+          18536   18603   18872   18244
CTETRA      9280       5   17727   17748   17747   18125   18023   18025+
+          18021   18946   18956   18938
CTETRA      9281       5   17587   17705   17638   18159   17865   18950+
+          18527   18948   18631   18305
CTETRA      9282       5   17588   17707   17708   18161   17877   17885+
+          17884   18949   18568   18719
CTETRA      9283       5   17639   17708   18159   18161   18962   18561+
+          18306   18319   18719   18320
CTETRA      9284       5   17702   17704   17703   18190   17858   17863+
+          17862   18693   18692   18819
CTETRA      9285       5   17722   18136   18132   18138   18779   18236+
+          18676   18778   18249   18247
CTETRA      9286       5   17574   17626   17627   18132   18538   17649+
+          18535   18675   18222   18223
CTETRA      9287       5   17713   17721   18122   18123   17911   18616+
+          18818   18958   18611   18229
CTETRA      9288       5   17717   18121   18136   18137   18913   18232+
+          18842   18871   18241   18242
CTETRA      9289       5   17716   17718   18121   18122   17902   18912+
+          18911   18967   18615   18233
CTETRA      9290       5   17717   18121   17718   18136   18913   18912+
+          17903   18842   18232   18899
CTETRA      9291       5   17711   17725   18129   18130   17936   18796+
+          18867   18725   18682   18219
CTETRA      9292       5   17768   17770   18146   18180   18067   18760+
+          18810   18765   18761   18387
CTETRA      9293       5   17730   17751   17750   18181   18009   18012+
+          18011   18621   18648   18618
CTETRA      9294       5   17748   17759   18126   18176   18113   18766+
+          18957   18905   18963   18358
CTETRA      9295       5   17769   18146   18165   18166   18828   18337+
+          18833   18829   18340   18341
CTETRA      9296       5   17760   17764   17766   18143   18033   18032+
+          18031   18832   18826   18827
CTETRA      9297       5   17713   17736   18123   18177   17953   18934+
+          18958   18932   18930   18365
CTETRA      9298       5   17736   18124   18123   18177   18935   18260+
+          18934   18930   18366   18365
CTETRA      9299       5   17727   17736   17728   18124   17951   17964+
+          17965   18944   18935   18945
CTETRA      9300       5   17729   18175   17749   18176   18869   18883+
+          18027   18903   18381   18769
CTETRA      9301       5   17735   18170   18169   18185   18927   18378+
+          18961   18574   18413   18412
CTETRA      9302       5   17716   18122   18121   18184   18967   18233+
+          18911   18928   18408   18409
CTETRA      9303       5   17674   17715   17716   18184   17889   17891+
+          17894   18847   18964   18928
CTETRA      9304       5   17673   17674   17716   18196   17799   17894+
+          17895   18924   18848   18929
CTETRA      9305       5   17676   18203   18204   18205   18593   18464+
+          18875   18947   18463   18458
CTETRA      9306       5   17681   17684   17683   18209   17781   17783+
+          17782   18873   18891   18890
CTETRA      9307       5   17684   18206   17686   18209   18896   18894+
+          17801   18891   18489   18892
CTETRA      9308       5   17679   17690   17691   18199   17830   17832+
+          17831   18746   18637   18820
CTETRA      9309       5   17681   18208   18207   18209   18737   18488+
+          18854   18873   18486   18490
CTETRA      9310       5   17762   17763   17769   18166   18050   18061+
+          18063   18814   18698   18829
CTETRA      9311       5   17594   17645   17762   18166   18546   18813+
+          18042   18910   18343   18814
CTETRA      9312       5   17595   17646   17596   17767   18551   18552+
+          17619   18047   18809   18048
CTETRA      9313       5   17762   17769   17771   18166   18063   18072+
+          18071   18814   18829   18834
CTETRA      9314       5   17587   17639   17708   18159   18526   18962+
+          17887   18948   18306   18561
CTETRA      9315       5   17593   17644   17771   18168   18549   18909+
+          18070   18850   18352   18851
CTETRA      9316       5   17643   17776   18167   18168   18801   18706+
+          18349   18353   18825   18354
CTETRA      9317       5   17581   17632   17633   18210   18508   17671+
+          18510   18855   18484   18483
CTETRA      9318       5   17632   17682   17683   18209   18877   17787+
+          18951   18477   18874   18890
CTETRA      9319       5   17687   17688   17689   18198   17814   17821+
+          17820   18731   18632   18897
CTETRA      9320       5   17582   17634   17583   17690   18513   18517+
+          17605   17826   18856   17827
CTETRA      9321       5   17583   17635   17691   18199   18515   18908+
+          17833   18916   18433   18820
CTETRA      9322       5   17693   17745   17742   18187   17999   18000+
+          17984   18750   18863   18622
CTETRA      9323       5   17676   17681   17687   18208   17811   17806+
+          17808   18876   18737   18739
CTETRA      9324       5   17676   17743   18194   18205   17986   18572+
+          18627   18947   18940   18465
CTETRA      9325       5   17583   17691   17690   18199   17833   17832+
+          17827   18916   18820   18637
CTETRA      9326       5   17678   18197   18199   18200   18757   18428+
+          18635   18758   18437   18438
CTETRA      9327       5   17677   17678   17692   18197   17818   17842+
+          17843   18734   18757   18755
CTETRA      9328       5   17735   17744   17741   18186   17987   17989+
+          17988   18576   18571   18628
CTETRA      9329       5   17675   17676   17744   18194   17812   17992+
+          17991   18639   18627   18573
CTETRA      9330       5   17744   18186   18185   18194   18571   18416+
+          18575   18573   18501   18500
CTETRA      9331       5   17716   18184   18121   18196   18928   18409+
+          18911   18929   18495   18494
CTETRA      9332       5   17714   18122   17716   18184   18914   18967+
+          17892   18966   18408   18928
CTETRA      9333       5   17712   18124   17727   18141   18900   18944+
+          17949   18901   18257   18939
CTETRA      9334       5   17713   18122   17714   18169   18818   18914+
+          17901   18960   18363   18965
CTETRA      9335       5   17720   17725   18133   18135   17933   18689+
+          18841   18609   18610   18226
CTETRA      9336       5   17597   17571   17570   17765   18553   18542+
+          17618   18043   18598   18037
CTETRA      9337       5   17674   17684   17675   18207   17779   17778+
+          17780   18959   18895   18853
CTETRA      9338       5   17715   18185   18184   18195   18904   18411+
+          18964   18626   18497   18496
CTETRA      9339       5   17714   18184   17715   18185   18966   18964+
+          17893   18968   18411   18904
CTETRA      9340       5   17748   17759   17760   18126   18113   18055+
+          18107   18957   18766   18830
CTETRA      9341       5   17770   17773   17772   18165   18079   18080+
+          18074   18798   18799   18816
CTETRA      9342       5   17747   18126   17760   18139   18955   18830+
+          18106   18936   18252   18839
CTETRA      9343       5   17760   17766   17761   18143   18031   18038+
+          18039   18832   18827   18599
CTETRA      9344       5   17748   18126   18125   18176   18957   18251+
+          18956   18905   18358   18357
CTETRA      9345       5   17714   17718   17716   18122   17899   17902+
+          17892   18914   18615   18967
CTETRA      9346       5   17644   18166   17771   18168   18345   18834+
+          18909   18352   18355   18851
CTETRA      9347       5   17680   17700   18200   18201   17846   18672+
+          18906   18673   18671   18446
CTETRA      9348       5   17706   18152   18159   18160   18629   18308+
+          18560   18562   18310   18311
CTETRA      9349       5   17588   17639   17640   18161   18522   17661+
+          18521   18949   18319   18316
CTETRA      9350       5   17587   17639   17588   17708   18526   18522+
+          17611   17887   18962   17884
CTETRA      9351       5   17638   17705   18153   18159   18950   18783+
+          18303   18305   18631   18307
CTETRA      9352       5   17743   18193   18186   18194   18925   18504+
+          18570   18572   18466   18501
CTETRA      9353       5   17586   17638   17587   17705   18530   18527+
+          17608   17864   18950   17865
CTETRA      9354       5   17734   17741   17746   18186   18001   18003+
+          18002   18926   18628   18866
CTETRA      9355       5   17680   18201   18200   18202   18673   18446+
+          18906   18907   18448   18452
CTETRA      9356       5   17742   18186   17743   18193   18623   18570+
+          17983   18624   18504   18925
CTETRA      9357       5   17689   18197   18198   18199   18733   18429+
+          18897   18636   18428   18427
CTETRA      9358       5   17672   17717   17719   18137   17898   17907+
+          17906   18604   18871   18872
CTETRA      9359       5   17575   17628   17719   18138   18534   18870+
+          17905   18777   18245   18840
CTETRA      9360       5   17578   17631   17686   18206   18505   18893+
+          17803   18836   18476   18894
CTETRA      9361       5   17729   17738   17733   18179   17955   17961+
+          17958   18882   18889   18880
CTETRA      9362       5   17728   17729   18176   18178   17957   18903+
+          18902   18942   18881   18361
CTETRA      9363       5   17747   17748   17760   18126   18025   18107+
+          18106   18955   18957   18830
CTETRA      9364       5   17757   18148   18147   18183   18823   18323+
+          18800   18812   18407   18406
CTETRA      9365       5   17642   17777   18154   18167   18849   18586+
+          18291   18348   18707   18346
CTETRA      9366       5   17714   18169   18184   18185   18965   18410+
+          18966   18968   18412   18411
CTETRA      9367       5   17720   18135   18133   18136   18609   18226+
+          18841   18781   18234   18235
CTETRA      9368       5   17597   17766   17767   18142   18053   18051+
+          18052   18588   18587   18794
CTETRA      9369       5   17751   17756   18148   18149   18117   18791+
+          18647   18646   18790   18328
CTETRA      9370       5   17674   17675   17715   18195   17780   17890+
+          17889   18846   18625   18626
CTETRA      9371       5   17734   17738   17737   18170   17963   17969+
+          17967   18884   18919   18954
CTETRA      9372       5   17714   17735   18169   18185   17944   18961+
+          18965   18968   18574   18412
CTETRA      9373       5   17718   18135   17720   18136   18607   18609+
+          17909   18899   18234   18781
CTETRA      9374       5   17733   17734   17746   18171   17962   18002+
+          18004   18887   18885   18858
CTETRA      9375       5   17712   17713   17736   18123   17913   17953+
+          17952   18612   18958   18934
CTETRA      9376       5   17775   18154   17777   18167   18584   18586+
+          18101   18582   18346   18707
CTETRA      9377       5   17715   17744   17735   18185   17990   17987+
+          17945   18904   18575   18574
CTETRA      9378       5   17625   17709   17571   18144   18685   18600+
+          17655   18279   18601   18280
CTETRA      9379       5   17583   17690   17634   18199   17827   18856+
+          18517   18916   18637   18432
CTETRA      9380       5   17714   17716   17715   18184   17892   17891+
+          17893   18966   18928   18964
CTETRA      9381       5   17734   17746   18171   18186   18002   18858+
+          18885   18926   18866   18415
CTETRA      9382       5   17714   17715   17735   18185   17893   17945+
+          17944   18968   18904   18574
CTETRA      9383       5   17675   18203   18195   18207   18591   18462+
+          18625   18853   18468   18467
CTETRA      9384       5   17681   18203   18207   18208   18592   18468+
+          18854   18737   18487   18488
CTETRA      9385       5   17636   18201   17680   18202   18444   18673+
+          18712   18449   18448   18907
CTETRA      9386       5   17688   17690   17689   18198   17824   17825+
+          17821   18632   18643   18897
CTETRA      9387       5   17679   17691   17680   18202   17831   17835+
+          17836   18747   18821   18907
CTETRA      9388       5   17585   17636   17637   18201   18525   17667+
+          18528   18667   18444   18443
CTETRA      9389       5   17701   18153   18190   18201   18690   18441+
+          18669   18668   18440   18442
$*  Mesh Collector: RBE2 Collector(1)
$*  Mesh: connection_recipe_1_mesh
RBE2        9390   18969  123456       4
RBE2        9391   18970  123456      76
RBE2        9392   18971  123456      54
RBE2        9393   18972  123456      75
RBE2        9394   18973  123456      55
RBE2        9395   18974  123456      74
RBE2        9396   18975  123456      56
RBE2        9397   18976  123456      73
RBE2        9398   18977  123456      57
RBE2        9399   18978  123456      72
RBE2        9400   18979  123456      58
RBE2        9401   18980  123456      71
RBE2        9402   18981  123456      59
RBE2        9403   18982  123456      67
RBE2        9404   18983  123456      60
RBE2        9405   18984  123456      66
RBE2        9406   18985  123456      61
RBE2        9407   18986  123456      65
RBE2        9408   18987  123456      62
RBE2        9409   18988  123456      68
RBE2        9410   18989  123456      63
RBE2        9411   18990  123456      69
RBE2        9412   18991  123456      64
RBE2        9413   18992  123456      70
$*  Mesh Collector: RBE3 Collector(1)
$*  Mesh: connection_recipe_1_spider
RBE3        9414           18969  1234560.151589     123   177090.152484+
+            123   177650.163999     123   177610.164867     123   18034+
+       0.181691     123   180350.185370     123   18036
RBE3        9415           18970  1234560.147090     123   177090.156915+
+            123   177650.164315     123   180340.164428     123   17761+
+       0.178520     123   180360.188731     123   18035
RBE3        9416           18971  1234560.143495     123   177090.162161+
+            123   177610.162581     123   177650.164249     123   18034+
+       0.171603     123   180360.195910     123   18035
RBE3        9417           18972  1234560.142732     123   177660.159763+
+            123   177610.162772     123   180380.169630     123   18040+
+       0.169942     123   177650.195162     123   18035
RBE3        9418           18973  1234560.145327     123   177660.154266+
+            123   177610.161191     123   180380.174435     123   18040+
+       0.175734     123   177650.189047     123   18035
RBE3        9419           18974  1234560.147560     123   177660.150007+
+            123   177610.158693     123   180380.177552     123   18040+
+       0.183058     123   180350.183130     123   17765
RBE3        9420           18975  1234560.147931     123   177610.148911+
+            123   177660.156642     123   180380.177919     123   18040+
+       0.178810     123   180350.189786     123   17765
RBE3        9421           18976  1234560.147388     123   177610.149477+
+            123   177660.155103     123   180380.175845     123   18035+
+       0.176404     123   180400.195784     123   17765
RBE3        9422           18977  1234560.140922     123   175700.153548+
+            123   177090.159627     123   179230.170439     123   18037+
+       0.177325     123   180340.198140     123   17765
RBE3        9423           18978  1234560.141883     123   175700.152613+
+            123   177090.162177     123   179230.173608     123   18037+
+       0.177412     123   180340.192307     123   17765
RBE3        9424           18979  1234560.142350     123   175700.152598+
+            123   177090.165521     123   179230.176194     123   18037+
+       0.177731     123   180340.185605     123   17765
RBE3        9425           18980  1234560.142043     123   175700.154555+
+            123   177090.170044     123   179230.176810     123   18037+
+       0.177856     123   177650.178692     123   18034
RBE3        9426           18981  1234560.141403     123   175700.158539+
+            123   177090.170963     123   177650.174559     123   17923+
+       0.174716     123   180370.179818     123   18034
RBE3        9427           18982  1234560.140339     123   175700.164765+
+            123   177090.165408     123   177650.170461     123   18037+
+       0.177769     123   179230.181258     123   18034
RBE3        9428           18983  1234560.139307     123   175700.161426+
+            123   177650.165493     123   180370.172979     123   17709+
+       0.178352     123   179230.182443     123   18034
RBE3        9429           18984  1234560.138324     123   175700.159875+
+            123   177650.161601     123   180370.176127     123   17923+
+       0.180763     123   177090.183309     123   18034
RBE3        9430           18985  1234560.137408     123   175700.158693+
+            123   180370.159674     123   177650.172888     123   17923+
+       0.183693     123   180340.187645     123   17709
RBE3        9431           18986  1234560.136714     123   175700.156695+
+            123   180370.160647     123   177650.169423     123   17923+
+       0.183830     123   180340.192690     123   17709
RBE3        9432           18987  1234560.140851     123   177610.155179+
+            123   177650.157542     123   180350.174055     123   18036+
+       0.180568     123   180340.191804     123   17709
RBE3        9433           18988  1234560.144209     123   177610.152674+
+            123   177650.159277     123   180350.178019     123   18034+
+       0.178778     123   180360.187043     123   17709
RBE3        9434           18989  1234560.148471     123   177610.150340+
+            123   177650.161830     123   180350.174780     123   18034+
+       0.180040     123   177090.184539     123   18036
RBE3        9435           18990  1234560.148519     123   177650.152354+
+            123   177610.164787     123   180350.171559     123   18034+
+       0.172588     123   177090.190192     123   18036
RBE3        9436           18991  1234560.147357     123   177650.156183+
+            123   177610.164593     123   177090.168239     123   18034+
+       0.168621     123   180350.195006     123   18036
RBE3        9437           18992  1234560.149093     123   177650.157148+
+            123   177090.160803     123   177610.166057     123   18034+
+       0.174908     123   180350.191990     123   18036
$*
$* PROPERTY CARDS
$*
$*  Property: PSOLID4::mech_assembly_fem2::[4]
PSOLID         4       2       0                           SMECH
$*  Property: PSOLID5::mech_assembly_fem2::[5]
PSOLID         5       3       0                           SMECH
$*
$* MATERIAL CARDS
$*
$*  Material: Aluminum_6061::mech_assembly_fem2::[2]
MAT1           26.8980+7        0.3300002.7110-62.2380-5
MATT1          2       1               2               3
TABLEM1        1                       1                                +
+        20.00006.8980+7 21.11006.8980+7 23.89006.8980+7 37.78006.8290+7+
+        51.67006.8290+7 65.56006.7600+7 79.44006.6910+7 93.33006.6221+7+
+       107.22006.5531+7121.11006.4841+7135.00006.4151+7148.89006.3461+7+
+       162.78006.2772+7176.67006.1392+7190.56006.0702+7204.44005.9323+7+
+       218.33005.8633+7232.22005.7253+7246.11005.5874+7260.00005.4494+7+
+       273.89005.3114+7287.78005.1735+7301.67005.0355+7315.56004.8976+7+
+       329.44004.7596+7343.33004.6216+7357.22004.4147+7371.11004.2767+7+
+       385.00004.1388+7398.89003.9318+7412.78003.7939+7426.67003.5869+7+
+           ENDT
TABLEM1        2                       1                                +
+        20.00000.330000 21.11000.330000    ENDT
TABLEM1        3                       1                                +
+        20.00002.2380-5 93.33002.3184-5107.22002.3346-5121.11002.3508-5+
+       135.00002.3670-5148.89002.3832-5162.78002.3994-5176.67002.4138-5+
+       190.56002.4300-5204.44002.4444-5218.33002.4588-5232.22002.4732-5+
+       246.11002.4876-5260.00002.5002-5273.89002.5146-5287.78002.5272-5+
+       301.67002.5398-5315.56002.5524-5    ENDT
$*  Material: Polycarbonate::mech_assembly_fem2::[3]
MAT1           32.5000+6        0.4000001.2000-6
$*
$* LOAD AND CONSTRAINT CARDS
$*
$*  Load: Force(1)
FORCE          1   17648       0 21.7235  0.0000-1.00000  0.0000
FORCE          1   17649       0 20.5334  0.0000-1.00000  0.0000
FORCE          1   17650       0 21.6968  0.0000-1.00000  0.0000
FORCE          1   17651       0 20.1579  0.0000-1.00000  0.0000
FORCE          1   17652       0 15.9551  0.0000-1.00000  0.0000
FORCE          1   17653       0 21.1612  0.0000-1.00000  0.0000
FORCE          1   17654       0 19.7799  0.0000-1.00000  0.0000
FORCE          1   17655       0 23.7271  0.0000-1.00000  0.0000
FORCE          1   17656       0 16.5625  0.0000-1.00000  0.0000
FORCE          1   17657       0 21.8986  0.0000-1.00000  0.0000
FORCE          1   17658       0 26.5886  0.0000-1.00000  0.0000
FORCE          1   17659       0 21.2480  0.0000-1.00000  0.0000
FORCE          1   17660       0 20.9226  0.0000-1.00000  0.0000
FORCE          1   17661       0 22.4297  0.0000-1.00000  0.0000
FORCE          1   17662       0 19.7543  0.0000-1.00000  0.0000
FORCE          1   17663       0 23.6609  0.0000-1.00000  0.0000
FORCE          1   17664       0 16.5829  0.0000-1.00000  0.0000
FORCE          1   17665       0 22.5471  0.0000-1.00000  0.0000
FORCE          1   17666       0 22.5011  0.0000-1.00000  0.0000
FORCE          1   17667       0 21.0196  0.0000-1.00000  0.0000
FORCE          1   17668       0 17.6499  0.0000-1.00000  0.0000
FORCE          1   17669       0 21.2580  0.0000-1.00000  0.0000
FORCE          1   17670       0 20.0140  0.0000-1.00000  0.0000
FORCE          1   17671       0 20.4638  0.0000-1.00000  0.0000
FORCE          1   18211       0 19.8832  0.0000-1.00000  0.0000
FORCE          1   18212       0 27.1779  0.0000-1.00000  0.0000
FORCE          1   18213       0 25.7744  0.0000-1.00000  0.0000
FORCE          1   18214       0 19.4595  0.0000-1.00000  0.0000
FORCE          1   18215       0 20.4551  0.0000-1.00000  0.0000
FORCE          1   18216       0 26.5003  0.0000-1.00000  0.0000
FORCE          1   18217       0 19.7344  0.0000-1.00000  0.0000
FORCE          1   18218       0 19.5669  0.0000-1.00000  0.0000
FORCE          1   18219       0 21.2715  0.0000-1.00000  0.0000
FORCE          1   18220       0 38.1371  0.0000-1.00000  0.0000
FORCE          1   18221       0 42.5656  0.0000-1.00000  0.0000
FORCE          1   18222       0 37.2009  0.0000-1.00000  0.0000
FORCE          1   18223       0 34.1179  0.0000-1.00000  0.0000
FORCE          1   18224       0 33.0812  0.0000-1.00000  0.0000
FORCE          1   18225       0 18.6366  0.0000-1.00000  0.0000
FORCE          1   18226       0 20.7765  0.0000-1.00000  0.0000
FORCE          1   18227       0 19.9148  0.0000-1.00000  0.0000
FORCE          1   18228       0 23.0637  0.0000-1.00000  0.0000
FORCE          1   18229       0 24.4828  0.0000-1.00000  0.0000
FORCE          1   18230       0 21.7521  0.0000-1.00000  0.0000
FORCE          1   18231       0 30.3674  0.0000-1.00000  0.0000
FORCE          1   18232       0 37.1520  0.0000-1.00000  0.0000
FORCE          1   18233       0 34.0729  0.0000-1.00000  0.0000
FORCE          1   18234       0 24.1512  0.0000-1.00000  0.0000
FORCE          1   18235       0 26.8352  0.0000-1.00000  0.0000
FORCE          1   18236       0 29.4407  0.0000-1.00000  0.0000
FORCE          1   18237       0 42.2363  0.0000-1.00000  0.0000
FORCE          1   18238       0 42.4988  0.0000-1.00000  0.0000
FORCE          1   18239       0 39.2767  0.0000-1.00000  0.0000
FORCE          1   18240       0 40.6974  0.0000-1.00000  0.0000
FORCE          1   18241       0 38.1020  0.0000-1.00000  0.0000
FORCE          1   18242       0 34.7371  0.0000-1.00000  0.0000
FORCE          1   18243       0 37.3758  0.0000-1.00000  0.0000
FORCE          1   18244       0 34.6073  0.0000-1.00000  0.0000
FORCE          1   18245       0 30.4045  0.0000-1.00000  0.0000
FORCE          1   18246       0 29.5396  0.0000-1.00000  0.0000
FORCE          1   18247       0 27.7611  0.0000-1.00000  0.0000
FORCE          1   18248       0 29.8218  0.0000-1.00000  0.0000
FORCE          1   18249       0 29.5489  0.0000-1.00000  0.0000
FORCE          1   18250       0 29.0132  0.0000-1.00000  0.0000
FORCE          1   18251       0 32.0965  0.0000-1.00000  0.0000
FORCE          1   18252       0 31.3097  0.0000-1.00000  0.0000
FORCE          1   18253       0 24.1227  0.0000-1.00000  0.0000
FORCE          1   18254       0 24.0929  0.0000-1.00000  0.0000
FORCE          1   18255       0 19.9550  0.0000-1.00000  0.0000
FORCE          1   18256       0 27.0023  0.0000-1.00000  0.0000
FORCE          1   18257       0 25.3427  0.0000-1.00000  0.0000
FORCE          1   18258       0 28.8765  0.0000-1.00000  0.0000
FORCE          1   18259       0 24.1670  0.0000-1.00000  0.0000
FORCE          1   18260       0 26.4184  0.0000-1.00000  0.0000
FORCE          1   18261       0 22.7562  0.0000-1.00000  0.0000
FORCE          1   18262       0 19.7065  0.0000-1.00000  0.0000
FORCE          1   18263       0 24.0637  0.0000-1.00000  0.0000
FORCE          1   18264       0 20.2481  0.0000-1.00000  0.0000
FORCE          1   18265       0 32.7377  0.0000-1.00000  0.0000
FORCE          1   18266       0 33.7996  0.0000-1.00000  0.0000
FORCE          1   18267       0 34.0954  0.0000-1.00000  0.0000
FORCE          1   18268       0 34.6020  0.0000-1.00000  0.0000
FORCE          1   18269       0 40.9676  0.0000-1.00000  0.0000
FORCE          1   18270       0 40.9618  0.0000-1.00000  0.0000
FORCE          1   18271       0 39.5862  0.0000-1.00000  0.0000
FORCE          1   18272       0 37.9454  0.0000-1.00000  0.0000
FORCE          1   18273       0 35.2990  0.0000-1.00000  0.0000
FORCE          1   18274       0 31.0943  0.0000-1.00000  0.0000
FORCE          1   18275       0 36.7971  0.0000-1.00000  0.0000
FORCE          1   18276       0 34.4274  0.0000-1.00000  0.0000
FORCE          1   18277       0 34.5374  0.0000-1.00000  0.0000
FORCE          1   18278       0 27.1712  0.0000-1.00000  0.0000
FORCE          1   18279       0 44.5693  0.0000-1.00000  0.0000
FORCE          1   18280       0 41.0969  0.0000-1.00000  0.0000
FORCE          1   18281       0 31.4733  0.0000-1.00000  0.0000
FORCE          1   18282       0 33.7936  0.0000-1.00000  0.0000
FORCE          1   18283       0 33.1660  0.0000-1.00000  0.0000
FORCE          1   18284       0 33.9323  0.0000-1.00000  0.0000
FORCE          1   18285       0 31.2100  0.0000-1.00000  0.0000
FORCE          1   18286       0 28.5819  0.0000-1.00000  0.0000
FORCE          1   18287       0 29.7307  0.0000-1.00000  0.0000
FORCE          1   18288       0 45.3713  0.0000-1.00000  0.0000
FORCE          1   18289       0 37.8266  0.0000-1.00000  0.0000
FORCE          1   18290       0 50.0613  0.0000-1.00000  0.0000
FORCE          1   18291       0 43.6913  0.0000-1.00000  0.0000
FORCE          1   18292       0 28.8111  0.0000-1.00000  0.0000
FORCE          1   18293       0 28.6482  0.0000-1.00000  0.0000
FORCE          1   18294       0 25.4147  0.0000-1.00000  0.0000
FORCE          1   18295       0 28.2859  0.0000-1.00000  0.0000
FORCE          1   18296       0 23.2964  0.0000-1.00000  0.0000
FORCE          1   18297       0 24.1178  0.0000-1.00000  0.0000
FORCE          1   18298       0 32.2193  0.0000-1.00000  0.0000
FORCE          1   18299       0 32.9308  0.0000-1.00000  0.0000
FORCE          1   18300       0 37.9137  0.0000-1.00000  0.0000
FORCE          1   18301       0 29.2660  0.0000-1.00000  0.0000
FORCE          1   18302       0 51.4054  0.0000-1.00000  0.0000
FORCE          1   18303       0 40.3921  0.0000-1.00000  0.0000
FORCE          1   18304       0 41.4391  0.0000-1.00000  0.0000
FORCE          1   18305       0 40.0668  0.0000-1.00000  0.0000
FORCE          1   18306       0 39.9494  0.0000-1.00000  0.0000
FORCE          1   18307       0 35.2384  0.0000-1.00000  0.0000
FORCE          1   18308       0 28.0154  0.0000-1.00000  0.0000
FORCE          1   18309       0 32.3133  0.0000-1.00000  0.0000
FORCE          1   18310       0 22.8213  0.0000-1.00000  0.0000
FORCE          1   18311       0 24.8892  0.0000-1.00000  0.0000
FORCE          1   18312       0 22.1474  0.0000-1.00000  0.0000
FORCE          1   18313       0 23.9906  0.0000-1.00000  0.0000
FORCE          1   18314       0 24.3562  0.0000-1.00000  0.0000
FORCE          1   18315       0 44.4433  0.0000-1.00000  0.0000
FORCE          1   18316       0 47.2466  0.0000-1.00000  0.0000
FORCE          1   18317       0 32.3698  0.0000-1.00000  0.0000
FORCE          1   18318       0 25.7115  0.0000-1.00000  0.0000
FORCE          1   18319       0 41.4566  0.0000-1.00000  0.0000
FORCE          1   18320       0 31.9949  0.0000-1.00000  0.0000
FORCE          1   18321       0 28.6225  0.0000-1.00000  0.0000
FORCE          1   18322       0 31.0032  0.0000-1.00000  0.0000
FORCE          1   18323       0 32.0116  0.0000-1.00000  0.0000
FORCE          1   18324       0 23.3677  0.0000-1.00000  0.0000
FORCE          1   18325       0 17.9774  0.0000-1.00000  0.0000
FORCE          1   18326       0 23.0278  0.0000-1.00000  0.0000
FORCE          1   18327       0 27.0351  0.0000-1.00000  0.0000
FORCE          1   18328       0 29.6246  0.0000-1.00000  0.0000
FORCE          1   18329       0 26.8253  0.0000-1.00000  0.0000
FORCE          1   18330       0 27.6728  0.0000-1.00000  0.0000
FORCE          1   18331       0 23.2361  0.0000-1.00000  0.0000
FORCE          1   18332       0 30.2442  0.0000-1.00000  0.0000
FORCE          1   18333       0 16.8124  0.0000-1.00000  0.0000
FORCE          1   18334       0 22.5557  0.0000-1.00000  0.0000
FORCE          1   18335       0 18.0556  0.0000-1.00000  0.0000
FORCE          1   18336       0 32.4573  0.0000-1.00000  0.0000
FORCE          1   18337       0 33.9245  0.0000-1.00000  0.0000
FORCE          1   18338       0 34.4414  0.0000-1.00000  0.0000
FORCE          1   18339       0 33.4725  0.0000-1.00000  0.0000
FORCE          1   18340       0 35.2244  0.0000-1.00000  0.0000
FORCE          1   18341       0 30.9900  0.0000-1.00000  0.0000
FORCE          1   18342       0 37.9169  0.0000-1.00000  0.0000
FORCE          1   18343       0 39.5548  0.0000-1.00000  0.0000
FORCE          1   18344       0 36.7743  0.0000-1.00000  0.0000
FORCE          1   18345       0 34.4634  0.0000-1.00000  0.0000
FORCE          1   18346       0 35.4059  0.0000-1.00000  0.0000
FORCE          1   18347       0 26.5333  0.0000-1.00000  0.0000
FORCE          1   18348       0 45.4537  0.0000-1.00000  0.0000
FORCE          1   18349       0 41.2159  0.0000-1.00000  0.0000
FORCE          1   18350       0 30.7520  0.0000-1.00000  0.0000
FORCE          1   18351       0 33.5988  0.0000-1.00000  0.0000
FORCE          1   18352       0 31.2921  0.0000-1.00000  0.0000
FORCE          1   18353       0 34.1379  0.0000-1.00000  0.0000
FORCE          1   18354       0 33.3221  0.0000-1.00000  0.0000
FORCE          1   18355       0 28.5911  0.0000-1.00000  0.0000
FORCE          1   18356       0 29.6490  0.0000-1.00000  0.0000
FORCE          1   18357       0 33.3844  0.0000-1.00000  0.0000
FORCE          1   18358       0 34.0402  0.0000-1.00000  0.0000
FORCE          1   18359       0 32.1753  0.0000-1.00000  0.0000
FORCE          1   18360       0 31.0995  0.0000-1.00000  0.0000
FORCE          1   18361       0 34.3986  0.0000-1.00000  0.0000
FORCE          1   18362       0 28.9029  0.0000-1.00000  0.0000
FORCE          1   18363       0 29.4624  0.0000-1.00000  0.0000
FORCE          1   18364       0 31.1563  0.0000-1.00000  0.0000
FORCE          1   18365       0 29.0012  0.0000-1.00000  0.0000
FORCE          1   18366       0 29.8170  0.0000-1.00000  0.0000
FORCE          1   18367       0 32.7232  0.0000-1.00000  0.0000
FORCE          1   18368       0 39.6441  0.0000-1.00000  0.0000
FORCE          1   18369       0 37.8867  0.0000-1.00000  0.0000
FORCE          1   18370       0 37.4738  0.0000-1.00000  0.0000
FORCE          1   18371       0 39.1267  0.0000-1.00000  0.0000
FORCE          1   18372       0 36.3162  0.0000-1.00000  0.0000
FORCE          1   18373       0 36.7052  0.0000-1.00000  0.0000
FORCE          1   18374       0 39.0026  0.0000-1.00000  0.0000
FORCE          1   18375       0 36.4317  0.0000-1.00000  0.0000
FORCE          1   18376       0 36.2267  0.0000-1.00000  0.0000
FORCE          1   18377       0 33.8158  0.0000-1.00000  0.0000
FORCE          1   18378       0 32.6372  0.0000-1.00000  0.0000
FORCE          1   18379       0 34.5668  0.0000-1.00000  0.0000
FORCE          1   18380       0 35.8065  0.0000-1.00000  0.0000
FORCE          1   18381       0 35.4665  0.0000-1.00000  0.0000
FORCE          1   18382       0 35.2070  0.0000-1.00000  0.0000
FORCE          1   18383       0 35.1176  0.0000-1.00000  0.0000
FORCE          1   18384       0 35.1160  0.0000-1.00000  0.0000
FORCE          1   18385       0 35.6903  0.0000-1.00000  0.0000
FORCE          1   18386       0 36.6818  0.0000-1.00000  0.0000
FORCE          1   18387       0 35.6487  0.0000-1.00000  0.0000
FORCE          1   18388       0 33.8841  0.0000-1.00000  0.0000
FORCE          1   18389       0 31.8717  0.0000-1.00000  0.0000
FORCE          1   18390       0 31.9391  0.0000-1.00000  0.0000
FORCE          1   18391       0 35.0999  0.0000-1.00000  0.0000
FORCE          1   18392       0 34.0500  0.0000-1.00000  0.0000
FORCE          1   18393       0 36.1184  0.0000-1.00000  0.0000
FORCE          1   18394       0 32.3976  0.0000-1.00000  0.0000
FORCE          1   18395       0 32.7715  0.0000-1.00000  0.0000
FORCE          1   18396       0 32.1696  0.0000-1.00000  0.0000
FORCE          1   18397       0 30.1334  0.0000-1.00000  0.0000
FORCE          1   18398       0 28.3883  0.0000-1.00000  0.0000
FORCE          1   18399       0 31.2745  0.0000-1.00000  0.0000
FORCE          1   18400       0 35.5282  0.0000-1.00000  0.0000
FORCE          1   18401       0 35.1777  0.0000-1.00000  0.0000
FORCE          1   18402       0 35.5856  0.0000-1.00000  0.0000
FORCE          1   18403       0 36.3386  0.0000-1.00000  0.0000
FORCE          1   18404       0 34.6441  0.0000-1.00000  0.0000
FORCE          1   18405       0 35.1377  0.0000-1.00000  0.0000
FORCE          1   18406       0 34.1620  0.0000-1.00000  0.0000
FORCE          1   18407       0 33.5710  0.0000-1.00000  0.0000
FORCE          1   18408       0 31.7489  0.0000-1.00000  0.0000
FORCE          1   18409       0 33.2960  0.0000-1.00000  0.0000
FORCE          1   18410       0 31.2925  0.0000-1.00000  0.0000
FORCE          1   18411       0 31.2613  0.0000-1.00000  0.0000
FORCE          1   18412       0 32.2139  0.0000-1.00000  0.0000
FORCE          1   18413       0 33.0141  0.0000-1.00000  0.0000
FORCE          1   18414       0 34.5817  0.0000-1.00000  0.0000
FORCE          1   18415       0 35.5106  0.0000-1.00000  0.0000
FORCE          1   18416       0 31.8484  0.0000-1.00000  0.0000
FORCE          1   18417       0 28.2311  0.0000-1.00000  0.0000
FORCE          1   18418       0 29.9089  0.0000-1.00000  0.0000
FORCE          1   18419       0 26.1940  0.0000-1.00000  0.0000
FORCE          1   18420       0 27.3637  0.0000-1.00000  0.0000
FORCE          1   18421       0 27.8347  0.0000-1.00000  0.0000
FORCE          1   18422       0 35.3611  0.0000-1.00000  0.0000
FORCE          1   18423       0 34.1298  0.0000-1.00000  0.0000
FORCE          1   18424       0 34.2178  0.0000-1.00000  0.0000
FORCE          1   18425       0 31.9125  0.0000-1.00000  0.0000
FORCE          1   18426       0 32.6947  0.0000-1.00000  0.0000
FORCE          1   18427       0 47.6990  0.0000-1.00000  0.0000
FORCE          1   18428       0 52.6092  0.0000-1.00000  0.0000
FORCE          1   18429       0 45.1980  0.0000-1.00000  0.0000
FORCE          1   18430       0 45.7771  0.0000-1.00000  0.0000
FORCE          1   18431       0 42.5685  0.0000-1.00000  0.0000
FORCE          1   18432       0 45.7311  0.0000-1.00000  0.0000
FORCE          1   18433       0 40.0295  0.0000-1.00000  0.0000
FORCE          1   18434       0 41.9718  0.0000-1.00000  0.0000
FORCE          1   18435       0 32.5717  0.0000-1.00000  0.0000
FORCE          1   18436       0 29.7027  0.0000-1.00000  0.0000
FORCE          1   18437       0 53.4799  0.0000-1.00000  0.0000
FORCE          1   18438       0 47.7435  0.0000-1.00000  0.0000
FORCE          1   18439       0 45.9732  0.0000-1.00000  0.0000
FORCE          1   18440       0 38.2499  0.0000-1.00000  0.0000
FORCE          1   18441       0 34.2779  0.0000-1.00000  0.0000
FORCE          1   18442       0 39.0335  0.0000-1.00000  0.0000
FORCE          1   18443       0 41.2107  0.0000-1.00000  0.0000
FORCE          1   18444       0 37.3285  0.0000-1.00000  0.0000
FORCE          1   18445       0 36.9144  0.0000-1.00000  0.0000
FORCE          1   18446       0 39.7057  0.0000-1.00000  0.0000
FORCE          1   18447       0 28.2220  0.0000-1.00000  0.0000
FORCE          1   18448       0 35.0399  0.0000-1.00000  0.0000
FORCE          1   18449       0 33.9588  0.0000-1.00000  0.0000
FORCE          1   18450       0 35.1783  0.0000-1.00000  0.0000
FORCE          1   18451       0 37.1317  0.0000-1.00000  0.0000
FORCE          1   18452       0 38.3343  0.0000-1.00000  0.0000
FORCE          1   18453       0 35.7671  0.0000-1.00000  0.0000
FORCE          1   18454       0 37.6391  0.0000-1.00000  0.0000
FORCE          1   18455       0 35.2970  0.0000-1.00000  0.0000
FORCE          1   18456       0 37.1032  0.0000-1.00000  0.0000
FORCE          1   18457       0 29.7018  0.0000-1.00000  0.0000
FORCE          1   18458       0 24.8301  0.0000-1.00000  0.0000
FORCE          1   18459       0 26.6424  0.0000-1.00000  0.0000
FORCE          1   18460       0 22.8754  0.0000-1.00000  0.0000
FORCE          1   18461       0 27.0468  0.0000-1.00000  0.0000
FORCE          1   18462       0 25.3173  0.0000-1.00000  0.0000
FORCE          1   18463       0 20.4458  0.0000-1.00000  0.0000
FORCE          1   18464       0 19.9243  0.0000-1.00000  0.0000
FORCE          1   18465       0 21.6924  0.0000-1.00000  0.0000
FORCE          1   18466       0 26.5068  0.0000-1.00000  0.0000
FORCE          1   18467       0 27.3109  0.0000-1.00000  0.0000
FORCE          1   18468       0 22.3041  0.0000-1.00000  0.0000
FORCE          1   18469       0 30.4895  0.0000-1.00000  0.0000
FORCE          1   18470       0 30.9816  0.0000-1.00000  0.0000
FORCE          1   18471       0 34.7058  0.0000-1.00000  0.0000
FORCE          1   18472       0 31.6435  0.0000-1.00000  0.0000
FORCE          1   18473       0 39.2115  0.0000-1.00000  0.0000
FORCE          1   18474       0 42.0600  0.0000-1.00000  0.0000
FORCE          1   18475       0 37.0481  0.0000-1.00000  0.0000
FORCE          1   18476       0 39.6887  0.0000-1.00000  0.0000
FORCE          1   18477       0 37.2537  0.0000-1.00000  0.0000
FORCE          1   18478       0 38.4448  0.0000-1.00000  0.0000
FORCE          1   18479       0 27.4599  0.0000-1.00000  0.0000
FORCE          1   18480       0 20.7478  0.0000-1.00000  0.0000
FORCE          1   18481       0 22.6739  0.0000-1.00000  0.0000
FORCE          1   18482       0 36.3956  0.0000-1.00000  0.0000
FORCE          1   18483       0 40.4851  0.0000-1.00000  0.0000
FORCE          1   18484       0 37.7034  0.0000-1.00000  0.0000
FORCE          1   18485       0 28.8280  0.0000-1.00000  0.0000
FORCE          1   18486       0 22.5686  0.0000-1.00000  0.0000
FORCE          1   18487       0 19.3408  0.0000-1.00000  0.0000
FORCE          1   18488       0 20.6588  0.0000-1.00000  0.0000
FORCE          1   18489       0 33.7780  0.0000-1.00000  0.0000
FORCE          1   18490       0 26.3275  0.0000-1.00000  0.0000
FORCE          1   18491       0 30.5977  0.0000-1.00000  0.0000
FORCE          1   18492       0 26.6610  0.0000-1.00000  0.0000
FORCE          1   18493       0 24.1528  0.0000-1.00000  0.0000
FORCE          1   18494       0 35.6490  0.0000-1.00000  0.0000
FORCE          1   18495       0 32.8145  0.0000-1.00000  0.0000
FORCE          1   18496       0 31.2362  0.0000-1.00000  0.0000
FORCE          1   18497       0 29.7872  0.0000-1.00000  0.0000
FORCE          1   18498       0 24.9412  0.0000-1.00000  0.0000
FORCE          1   18499       0 29.4383  0.0000-1.00000  0.0000
FORCE          1   18500       0 29.5741  0.0000-1.00000  0.0000
FORCE          1   18501       0 30.2170  0.0000-1.00000  0.0000
FORCE          1   18502       0 33.3733  0.0000-1.00000  0.0000
FORCE          1   18503       0 33.6651  0.0000-1.00000  0.0000
FORCE          1   18504       0 31.6575  0.0000-1.00000  0.0000
$*  Constraint: Fixed(1)
SPC            2       1  123456  0.0000
SPC            2       5  123456  0.0000
SPC            2       6  123456  0.0000
SPC            2       8  123456  0.0000
SPC            2       9  123456  0.0000
SPC            2      10  123456  0.0000
SPC            2      11  123456  0.0000
SPC            2      12  123456  0.0000
SPC            2      13  123456  0.0000
SPC            2      14  123456  0.0000
SPC            2      15  123456  0.0000
SPC            2      16  123456  0.0000
SPC            2      17  123456  0.0000
SPC            2      18  123456  0.0000
SPC            2      19  123456  0.0000
SPC            2      77  123456  0.0000
SPC            2      78  123456  0.0000
SPC            2      79  123456  0.0000
SPC            2      80  123456  0.0000
SPC            2      81  123456  0.0000
SPC            2      82  123456  0.0000
SPC            2      83  123456  0.0000
SPC            2      84  123456  0.0000
SPC            2      85  123456  0.0000
SPC            2      86  123456  0.0000
SPC            2      87  123456  0.0000
SPC            2      88  123456  0.0000
SPC            2      89  123456  0.0000
SPC            2      90  123456  0.0000
SPC            2      91  123456  0.0000
SPC            2      92  123456  0.0000
SPC            2      93  123456  0.0000
SPC            2      94  123456  0.0000
SPC            2      95  123456  0.0000
SPC            2      96  123456  0.0000
SPC            2      97  123456  0.0000
SPC            2      98  123456  0.0000
SPC            2      99  123456  0.0000
SPC            2     100  123456  0.0000
SPC            2     101  123456  0.0000
SPC            2     102  123456  0.0000
SPC            2     103  123456  0.0000
SPC            2     104  123456  0.0000
SPC            2     105  123456  0.0000
SPC            2     106  123456  0.0000
SPC            2     107  123456  0.0000
SPC            2     108  123456  0.0000
SPC            2     109  123456  0.0000
SPC            2     110  123456  0.0000
SPC            2     111  123456  0.0000
SPC            2     112  123456  0.0000
SPC            2     113  123456  0.0000
SPC            2     114  123456  0.0000
SPC            2     115  123456  0.0000
SPC            2     116  123456  0.0000
SPC            2     117  123456  0.0000
SPC            2     118  123456  0.0000
SPC            2     119  123456  0.0000
SPC            2     120  123456  0.0000
SPC            2     121  123456  0.0000
SPC            2     122  123456  0.0000
SPC            2     123  123456  0.0000
SPC            2     124  123456  0.0000
SPC            2     125  123456  0.0000
SPC            2     126  123456  0.0000
SPC            2     127  123456  0.0000
SPC            2     128  123456  0.0000
SPC            2     129  123456  0.0000
SPC            2     130  123456  0.0000
SPC            2     142  123456  0.0000
SPC            2     143  123456  0.0000
SPC            2     144  123456  0.0000
SPC            2     145  123456  0.0000
SPC            2     146  123456  0.0000
SPC            2     147  123456  0.0000
SPC            2     148  123456  0.0000
SPC            2     149  123456  0.0000
SPC            2     150  123456  0.0000
SPC            2     151  123456  0.0000
SPC            2     152  123456  0.0000
SPC            2     155  123456  0.0000
SPC            2     156  123456  0.0000
SPC            2     157  123456  0.0000
SPC            2     158  123456  0.0000
SPC            2     159  123456  0.0000
SPC            2     160  123456  0.0000
SPC            2     161  123456  0.0000
SPC            2     162  123456  0.0000
SPC            2     163  123456  0.0000
SPC            2     164  123456  0.0000
SPC            2     165  123456  0.0000
SPC            2     166  123456  0.0000
SPC            2     167  123456  0.0000
SPC            2     168  123456  0.0000
SPC            2     169  123456  0.0000
SPC            2     170  123456  0.0000
SPC            2     171  123456  0.0000
SPC            2     172  123456  0.0000
SPC            2     173  123456  0.0000
SPC            2     174  123456  0.0000
SPC            2     175  123456  0.0000
SPC            2     176  123456  0.0000
SPC            2     177  123456  0.0000
SPC            2     178  123456  0.0000
SPC            2     179  123456  0.0000
SPC            2     180  123456  0.0000
SPC            2     181  123456  0.0000
SPC            2     182  123456  0.0000
SPC            2     183  123456  0.0000
SPC            2     184  123456  0.0000
SPC            2     185  123456  0.0000
SPC            2     186  123456  0.0000
SPC            2     187  123456  0.0000
SPC            2     188  123456  0.0000
SPC            2     189  123456  0.0000
SPC            2     190  123456  0.0000
SPC            2     191  123456  0.0000
SPC            2     192  123456  0.0000
SPC            2     193  123456  0.0000
SPC            2     194  123456  0.0000
SPC            2     195  123456  0.0000
SPC            2     196  123456  0.0000
SPC            2     197  123456  0.0000
SPC            2     198  123456  0.0000
SPC            2     199  123456  0.0000
SPC            2     200  123456  0.0000
SPC            2     201  123456  0.0000
SPC            2     202  123456  0.0000
SPC            2     203  123456  0.0000
SPC            2     204  123456  0.0000
SPC            2     205  123456  0.0000
SPC            2     206  123456  0.0000
SPC            2     207  123456  0.0000
SPC            2     208  123456  0.0000
SPC            2     209  123456  0.0000
SPC            2     210  123456  0.0000
SPC            2     211  123456  0.0000
SPC            2     212  123456  0.0000
SPC            2     213  123456  0.0000
SPC            2     214  123456  0.0000
SPC            2     215  123456  0.0000
SPC            2     216  123456  0.0000
SPC            2     217  123456  0.0000
SPC            2     218  123456  0.0000
SPC            2     219  123456  0.0000
SPC            2     220  123456  0.0000
SPC            2     221  123456  0.0000
SPC            2     222  123456  0.0000
SPC            2     223  123456  0.0000
SPC            2     224  123456  0.0000
SPC            2     225  123456  0.0000
SPC            2     226  123456  0.0000
SPC            2     227  123456  0.0000
SPC            2     228  123456  0.0000
SPC            2     229  123456  0.0000
SPC            2     230  123456  0.0000
SPC            2     231  123456  0.0000
SPC            2     232  123456  0.0000
SPC            2     233  123456  0.0000
SPC            2     234  123456  0.0000
SPC            2     235  123456  0.0000
SPC            2     236  123456  0.0000
SPC            2     237  123456  0.0000
SPC            2     238  123456  0.0000
SPC            2     239  123456  0.0000
SPC            2     240  123456  0.0000
SPC            2     241  123456  0.0000
SPC            2     242  123456  0.0000
SPC            2     243  123456  0.0000
SPC            2     244  123456  0.0000
SPC            2     245  123456  0.0000
SPC            2     246  123456  0.0000
SPC            2     247  123456  0.0000
SPC            2     248  123456  0.0000
SPC            2     249  123456  0.0000
SPC            2     250  123456  0.0000
SPC            2     251  123456  0.0000
SPC            2     252  123456  0.0000
SPC            2     253  123456  0.0000
SPC            2     254  123456  0.0000
SPC            2     255  123456  0.0000
SPC            2     256  123456  0.0000
SPC            2     257  123456  0.0000
SPC            2     258  123456  0.0000
SPC            2     259  123456  0.0000
SPC            2     260  123456  0.0000
SPC            2     261  123456  0.0000
SPC            2     262  123456  0.0000
SPC            2     263  123456  0.0000
SPC            2     264  123456  0.0000
SPC            2     265  123456  0.0000
SPC            2     266  123456  0.0000
SPC            2     267  123456  0.0000
SPC            2     268  123456  0.0000
SPC            2     269  123456  0.0000
SPC            2     270  123456  0.0000
SPC            2     271  123456  0.0000
SPC            2     272  123456  0.0000
SPC            2     273  123456  0.0000
SPC            2     274  123456  0.0000
SPC            2     275  123456  0.0000
SPC            2     276  123456  0.0000
SPC            2     277  123456  0.0000
SPC            2     278  123456  0.0000
SPC            2     279  123456  0.0000
SPC            2     280  123456  0.0000
SPC            2     281  123456  0.0000
SPC            2     282  123456  0.0000
SPC            2     283  123456  0.0000
SPC            2     284  123456  0.0000
SPC            2     285  123456  0.0000
SPC            2     286  123456  0.0000
SPC            2     287  123456  0.0000
SPC            2     288  123456  0.0000
SPC            2     289  123456  0.0000
SPC            2     290  123456  0.0000
SPC            2     291  123456  0.0000
SPC            2     292  123456  0.0000
SPC            2     293  123456  0.0000
SPC            2     294  123456  0.0000
SPC            2     295  123456  0.0000
SPC            2     296  123456  0.0000
SPC            2     297  123456  0.0000
SPC            2     298  123456  0.0000
SPC            2     299  123456  0.0000
SPC            2     300  123456  0.0000
SPC            2     301  123456  0.0000
SPC            2     302  123456  0.0000
SPC            2     303  123456  0.0000
SPC            2     304  123456  0.0000
SPC            2     305  123456  0.0000
SPC            2     306  123456  0.0000
SPC            2     307  123456  0.0000
SPC            2     308  123456  0.0000
SPC            2     309  123456  0.0000
SPC            2     310  123456  0.0000
SPC            2     311  123456  0.0000
SPC            2     312  123456  0.0000
SPC            2     313  123456  0.0000
SPC            2     314  123456  0.0000
SPC            2     315  123456  0.0000
SPC            2     316  123456  0.0000
SPC            2     317  123456  0.0000
SPC            2     318  123456  0.0000
SPC            2     319  123456  0.0000
SPC            2     320  123456  0.0000
SPC            2     321  123456  0.0000
SPC            2     322  123456  0.0000
SPC            2     323  123456  0.0000
SPC            2     324  123456  0.0000
SPC            2     325  123456  0.0000
SPC            2     326  123456  0.0000
SPC            2     327  123456  0.0000
SPC            2     328  123456  0.0000
SPC            2     329  123456  0.0000
SPC            2     330  123456  0.0000
SPC            2     331  123456  0.0000
SPC            2     332  123456  0.0000
SPC            2     333  123456  0.0000
SPC            2     334  123456  0.0000
SPC            2     335  123456  0.0000
SPC            2     336  123456  0.0000
SPC            2     337  123456  0.0000
SPC            2     338  123456  0.0000
SPC            2     339  123456  0.0000
SPC            2     340  123456  0.0000
SPC            2     341  123456  0.0000
SPC            2     342  123456  0.0000
SPC            2     343  123456  0.0000
SPC            2     344  123456  0.0000
SPC            2     345  123456  0.0000
SPC            2     346  123456  0.0000
SPC            2     347  123456  0.0000
SPC            2    5817  123456  0.0000
SPC            2    5818  123456  0.0000
SPC            2    5819  123456  0.0000
SPC            2    5820  123456  0.0000
SPC            2    5821  123456  0.0000
SPC            2    5822  123456  0.0000
SPC            2    5823  123456  0.0000
SPC            2    5824  123456  0.0000
SPC            2    5825  123456  0.0000
SPC            2    5826  123456  0.0000
SPC            2    5827  123456  0.0000
SPC            2    5828  123456  0.0000
SPC            2    5829  123456  0.0000
SPC            2    5830  123456  0.0000
SPC            2    5831  123456  0.0000
SPC            2    5832  123456  0.0000
SPC            2    5833  123456  0.0000
SPC            2    5834  123456  0.0000
SPC            2    5835  123456  0.0000
SPC            2    5836  123456  0.0000
SPC            2    5837  123456  0.0000
SPC            2    5838  123456  0.0000
SPC            2    5839  123456  0.0000
SPC            2    5840  123456  0.0000
SPC            2    5841  123456  0.0000
SPC            2    5842  123456  0.0000
SPC            2    5843  123456  0.0000
SPC            2    5844  123456  0.0000
SPC            2    5845  123456  0.0000
SPC            2    5846  123456  0.0000
SPC            2    5847  123456  0.0000
SPC            2    5848  123456  0.0000
SPC            2    5849  123456  0.0000
SPC            2    5850  123456  0.0000
SPC            2    5851  123456  0.0000
SPC            2    5852  123456  0.0000
SPC            2    5853  123456  0.0000
SPC            2    5854  123456  0.0000
SPC            2    5855  123456  0.0000
SPC            2    5856  123456  0.0000
SPC            2    5857  123456  0.0000
SPC            2    5858  123456  0.0000
SPC            2    5859  123456  0.0000
SPC            2    5860  123456  0.0000
SPC            2    5861  123456  0.0000
SPC            2    5862  123456  0.0000
SPC            2    5863  123456  0.0000
SPC            2    5864  123456  0.0000
SPC            2    5865  123456  0.0000
SPC            2    5866  123456  0.0000
SPC            2    5867  123456  0.0000
SPC            2    5868  123456  0.0000
SPC            2    5869  123456  0.0000
SPC            2    5870  123456  0.0000
SPC            2    5871  123456  0.0000
SPC            2    5872  123456  0.0000
SPC            2    5873  123456  0.0000
SPC            2    5874  123456  0.0000
SPC            2    5875  123456  0.0000
SPC            2    5876  123456  0.0000
SPC            2    5877  123456  0.0000
SPC            2    5878  123456  0.0000
SPC            2    5879  123456  0.0000
SPC            2    5880  123456  0.0000
SPC            2    5881  123456  0.0000
SPC            2    5882  123456  0.0000
SPC            2    5883  123456  0.0000
SPC            2    5884  123456  0.0000
SPC            2    5885  123456  0.0000
SPC            2    5886  123456  0.0000
SPC            2    5887  123456  0.0000
SPC            2    5888  123456  0.0000
SPC            2    5889  123456  0.0000
SPC            2    5890  123456  0.0000
SPC            2    5891  123456  0.0000
SPC            2    5892  123456  0.0000
SPC            2    5893  123456  0.0000
SPC            2    5894  123456  0.0000
SPC            2    5895  123456  0.0000
SPC            2    5896  123456  0.0000
SPC            2    5897  123456  0.0000
SPC            2    5898  123456  0.0000
SPC            2    5899  123456  0.0000
SPC            2    5900  123456  0.0000
SPC            2    5901  123456  0.0000
SPC            2    5902  123456  0.0000
SPC            2    5903  123456  0.0000
SPC            2    5904  123456  0.0000
SPC            2    5905  123456  0.0000
SPC            2    5906  123456  0.0000
SPC            2    5907  123456  0.0000
SPC            2    5908  123456  0.0000
SPC            2    5909  123456  0.0000
SPC            2    5910  123456  0.0000
SPC            2    5911  123456  0.0000
SPC            2    5912  123456  0.0000
SPC            2    5913  123456  0.0000
SPC            2    5914  123456  0.0000
SPC            2    5915  123456  0.0000
SPC            2    5916  123456  0.0000
SPC            2    5917  123456  0.0000
SPC            2    5918  123456  0.0000
SPC            2    5919  123456  0.0000
SPC            2    5920  123456  0.0000
SPC            2    5921  123456  0.0000
SPC            2    5922  123456  0.0000
SPC            2    5923  123456  0.0000
SPC            2    5924  123456  0.0000
SPC            2    5925  123456  0.0000
SPC            2    5926  123456  0.0000
SPC            2    5927  123456  0.0000
SPC            2    5928  123456  0.0000
SPC            2    5929  123456  0.0000
SPC            2    5930  123456  0.0000
SPC            2    5931  123456  0.0000
SPC            2    5932  123456  0.0000
SPC            2    5933  123456  0.0000
SPC            2    5934  123456  0.0000
SPC            2    5935  123456  0.0000
SPC            2    5936  123456  0.0000
SPC            2    5937  123456  0.0000
SPC            2    5938  123456  0.0000
SPC            2    5939  123456  0.0000
SPC            2    5940  123456  0.0000
SPC            2    5941  123456  0.0000
SPC            2    5942  123456  0.0000
SPC            2    5943  123456  0.0000
SPC            2    5944  123456  0.0000
SPC            2    5945  123456  0.0000
SPC            2    5946  123456  0.0000
SPC            2    5947  123456  0.0000
SPC            2    5948  123456  0.0000
SPC            2    5949  123456  0.0000
SPC            2    5950  123456  0.0000
SPC            2    5951  123456  0.0000
SPC            2    5952  123456  0.0000
SPC            2    5953  123456  0.0000
SPC            2    5954  123456  0.0000
SPC            2    5955  123456  0.0000
SPC            2    5956  123456  0.0000
SPC            2    5957  123456  0.0000
SPC            2    5958  123456  0.0000
SPC            2    5959  123456  0.0000
SPC            2    5960  123456  0.0000
SPC            2    5961  123456  0.0000
SPC            2    5962  123456  0.0000
SPC            2    5963  123456  0.0000
SPC            2    5964  123456  0.0000
SPC            2    5965  123456  0.0000
SPC            2    5966  123456  0.0000
SPC            2    5967  123456  0.0000
SPC            2    5968  123456  0.0000
SPC            2    5969  123456  0.0000
SPC            2    5970  123456  0.0000
SPC            2    5971  123456  0.0000
SPC            2    5972  123456  0.0000
SPC            2    5973  123456  0.0000
SPC            2    5974  123456  0.0000
SPC            2    5975  123456  0.0000
SPC            2    5976  123456  0.0000
SPC            2    5977  123456  0.0000
SPC            2    5978  123456  0.0000
SPC            2    5979  123456  0.0000
SPC            2    5980  123456  0.0000
SPC            2    5981  123456  0.0000
SPC            2    5982  123456  0.0000
SPC            2    5983  123456  0.0000
SPC            2    5984  123456  0.0000
SPC            2    5985  123456  0.0000
SPC            2    5986  123456  0.0000
SPC            2    5987  123456  0.0000
SPC            2    5988  123456  0.0000
SPC            2    5989  123456  0.0000
SPC            2    5990  123456  0.0000
SPC            2    5991  123456  0.0000
SPC            2    5992  123456  0.0000
SPC            2    5993  123456  0.0000
SPC            2    5994  123456  0.0000
SPC            2    5995  123456  0.0000
SPC            2    5996  123456  0.0000
SPC            2    5997  123456  0.0000
SPC            2    5998  123456  0.0000
SPC            2    5999  123456  0.0000
SPC            2    6000  123456  0.0000
SPC            2    6001  123456  0.0000
SPC            2    6002  123456  0.0000
SPC            2    6003  123456  0.0000
SPC            2    6004  123456  0.0000
SPC            2    6005  123456  0.0000
SPC            2    6006  123456  0.0000
SPC            2    6007  123456  0.0000
SPC            2    6008  123456  0.0000
SPC            2    6009  123456  0.0000
SPC            2    6010  123456  0.0000
SPC            2    6011  123456  0.0000
SPC            2    6012  123456  0.0000
SPC            2    6013  123456  0.0000
SPC            2    6014  123456  0.0000
SPC            2    6015  123456  0.0000
SPC            2    6016  123456  0.0000
SPC            2    6017  123456  0.0000
SPC            2    6018  123456  0.0000
SPC            2    6019  123456  0.0000
SPC            2    6020  123456  0.0000
SPC            2    6021  123456  0.0000
SPC            2    6022  123456  0.0000
SPC            2    6023  123456  0.0000
SPC            2    6024  123456  0.0000
SPC            2    6025  123456  0.0000
SPC            2    6026  123456  0.0000
SPC            2    6027  123456  0.0000
SPC            2    6028  123456  0.0000
SPC            2    6029  123456  0.0000
SPC            2    6030  123456  0.0000
SPC            2    6031  123456  0.0000
SPC            2    6032  123456  0.0000
SPC            2    6033  123456  0.0000
SPC            2    6034  123456  0.0000
SPC            2    6035  123456  0.0000
SPC            2    6036  123456  0.0000
SPC            2    6037  123456  0.0000
SPC            2    6038  123456  0.0000
SPC            2    6039  123456  0.0000
SPC            2    6040  123456  0.0000
SPC            2    6041  123456  0.0000
SPC            2    6042  123456  0.0000
SPC            2    6043  123456  0.0000
SPC            2    6044  123456  0.0000
SPC            2    6045  123456  0.0000
SPC            2    6046  123456  0.0000
SPC            2    6047  123456  0.0000
SPC            2    6048  123456  0.0000
SPC            2    6049  123456  0.0000
SPC            2    6050  123456  0.0000
SPC            2    6051  123456  0.0000
SPC            2    6052  123456  0.0000
SPC            2    6053  123456  0.0000
SPC            2    6054  123456  0.0000
SPC            2    6055  123456  0.0000
SPC            2    6056  123456  0.0000
SPC            2    6057  123456  0.0000
SPC            2    6058  123456  0.0000
SPC            2    6059  123456  0.0000
SPC            2    6060  123456  0.0000
SPC            2    6061  123456  0.0000
SPC            2    6062  123456  0.0000
SPC            2    6063  123456  0.0000
SPC            2    6064  123456  0.0000
SPC            2    6065  123456  0.0000
SPC            2    6066  123456  0.0000
SPC            2    6067  123456  0.0000
SPC            2    6068  123456  0.0000
SPC            2    6069  123456  0.0000
SPC            2    6070  123456  0.0000
SPC            2    6071  123456  0.0000
SPC            2    6072  123456  0.0000
SPC            2    6073  123456  0.0000
SPC            2    6074  123456  0.0000
SPC            2    6075  123456  0.0000
SPC            2    6076  123456  0.0000
SPC            2    6077  123456  0.0000
SPC            2    6078  123456  0.0000
SPC            2    6079  123456  0.0000
SPC            2    6080  123456  0.0000
SPC            2    6081  123456  0.0000
SPC            2    6082  123456  0.0000
SPC            2    6083  123456  0.0000
SPC            2    6084  123456  0.0000
SPC            2    6085  123456  0.0000
SPC            2    6086  123456  0.0000
SPC            2    6087  123456  0.0000
SPC            2    6088  123456  0.0000
SPC            2    6089  123456  0.0000
SPC            2    6090  123456  0.0000
SPC            2    6091  123456  0.0000
SPC            2    6092  123456  0.0000
SPC            2    6093  123456  0.0000
SPC            2    6094  123456  0.0000
SPC            2    6095  123456  0.0000
SPC            2    6096  123456  0.0000
SPC            2    6097  123456  0.0000
SPC            2    6098  123456  0.0000
SPC            2    6099  123456  0.0000
SPC            2    6100  123456  0.0000
SPC            2    6101  123456  0.0000
SPC            2    6102  123456  0.0000
SPC            2    6103  123456  0.0000
SPC            2    6104  123456  0.0000
SPC            2    6105  123456  0.0000
SPC            2    6106  123456  0.0000
SPC            2    6107  123456  0.0000
SPC            2    6108  123456  0.0000
SPC            2    6109  123456  0.0000
SPC            2    6110  123456  0.0000
SPC            2    6111  123456  0.0000
SPC            2    6112  123456  0.0000
SPC            2    6113  123456  0.0000
SPC            2    6114  123456  0.0000
SPC            2    6115  123456  0.0000
SPC            2    6116  123456  0.0000
SPC            2    6117  123456  0.0000
SPC            2    6118  123456  0.0000
SPC            2    6119  123456  0.0000
SPC            2    6120  123456  0.0000
SPC            2    6121  123456  0.0000
SPC            2    6122  123456  0.0000
SPC            2    6123  123456  0.0000
SPC            2    6124  123456  0.0000
SPC            2    6125  123456  0.0000
SPC            2    6126  123456  0.0000
SPC            2    6127  123456  0.0000
SPC            2    6128  123456  0.0000
SPC            2    6129  123456  0.0000
SPC            2    6130  123456  0.0000
SPC            2    6131  123456  0.0000
SPC            2    6132  123456  0.0000
SPC            2    6133  123456  0.0000
SPC            2    6134  123456  0.0000
SPC            2    6135  123456  0.0000
SPC            2    6136  123456  0.0000
SPC            2    6137  123456  0.0000
SPC            2    6138  123456  0.0000
SPC            2    6139  123456  0.0000
SPC            2    6140  123456  0.0000
SPC            2    6141  123456  0.0000
SPC            2    6142  123456  0.0000
SPC            2    6143  123456  0.0000
SPC            2    6144  123456  0.0000
SPC            2    6145  123456  0.0000
SPC            2    6146  123456  0.0000
SPC            2    6147  123456  0.0000
SPC            2    6148  123456  0.0000
SPC            2    6149  123456  0.0000
SPC            2    6150  123456  0.0000
SPC            2    6151  123456  0.0000
SPC            2    6152  123456  0.0000
SPC            2    6153  123456  0.0000
SPC            2    6154  123456  0.0000
SPC            2    6155  123456  0.0000
SPC            2    6156  123456  0.0000
SPC            2    6157  123456  0.0000
SPC            2    6158  123456  0.0000
SPC            2    6159  123456  0.0000
SPC            2    6160  123456  0.0000
SPC            2    6161  123456  0.0000
SPC            2    6162  123456  0.0000
SPC            2    6163  123456  0.0000
SPC            2    6164  123456  0.0000
SPC            2    6165  123456  0.0000
SPC            2    6166  123456  0.0000
SPC            2    6167  123456  0.0000
SPC            2    6168  123456  0.0000
SPC            2    6169  123456  0.0000
SPC            2    6170  123456  0.0000
SPC            2    6171  123456  0.0000
SPC            2    6172  123456  0.0000
SPC            2    6173  123456  0.0000
SPC            2    6174  123456  0.0000
SPC            2    6175  123456  0.0000
SPC            2    6176  123456  0.0000
SPC            2    6177  123456  0.0000
SPC            2    6178  123456  0.0000
SPC            2    6179  123456  0.0000
SPC            2    6180  123456  0.0000
SPC            2    6181  123456  0.0000
SPC            2    6182  123456  0.0000
SPC            2    6183  123456  0.0000
SPC            2    6184  123456  0.0000
SPC            2    6185  123456  0.0000
SPC            2    6186  123456  0.0000
SPC            2    6187  123456  0.0000
SPC            2    6188  123456  0.0000
SPC            2    6189  123456  0.0000
SPC            2    6190  123456  0.0000
SPC            2    6191  123456  0.0000
SPC            2    6192  123456  0.0000
SPC            2    6193  123456  0.0000
SPC            2    6194  123456  0.0000
SPC            2    6195  123456  0.0000
SPC            2    6196  123456  0.0000
SPC            2    6197  123456  0.0000
SPC            2    6198  123456  0.0000
SPC            2    6199  123456  0.0000
SPC            2    6200  123456  0.0000
SPC            2    6201  123456  0.0000
SPC            2    6202  123456  0.0000
SPC            2    6203  123456  0.0000
SPC            2    6204  123456  0.0000
SPC            2    6205  123456  0.0000
SPC            2    6206  123456  0.0000
SPC            2    6207  123456  0.0000
SPC            2    6208  123456  0.0000
SPC            2    6209  123456  0.0000
SPC            2    6210  123456  0.0000
SPC            2    6211  123456  0.0000
SPC            2    6212  123456  0.0000
SPC            2    6213  123456  0.0000
SPC            2    6214  123456  0.0000
SPC            2    6215  123456  0.0000
SPC            2    6216  123456  0.0000
SPC            2    6217  123456  0.0000
SPC            2    6218  123456  0.0000
SPC            2    6219  123456  0.0000
SPC            2    6220  123456  0.0000
SPC            2    6221  123456  0.0000
SPC            2    6222  123456  0.0000
SPC            2    6223  123456  0.0000
SPC            2    6224  123456  0.0000
SPC            2    6225  123456  0.0000
SPC            2    6226  123456  0.0000
SPC            2    6227  123456  0.0000
SPC            2    6228  123456  0.0000
SPC            2    6229  123456  0.0000
SPC            2    6230  123456  0.0000
SPC            2    6231  123456  0.0000
SPC            2    6232  123456  0.0000
SPC            2    6233  123456  0.0000
SPC            2    6234  123456  0.0000
SPC            2    6235  123456  0.0000
SPC            2    6236  123456  0.0000
SPC            2    6237  123456  0.0000
SPC            2    6238  123456  0.0000
SPC            2    6239  123456  0.0000
SPC            2    6240  123456  0.0000
SPC            2    6241  123456  0.0000
SPC            2    6242  123456  0.0000
SPC            2    6243  123456  0.0000
SPC            2    6244  123456  0.0000
SPC            2    6245  123456  0.0000
SPC            2    6246  123456  0.0000
SPC            2    6247  123456  0.0000
SPC            2    6248  123456  0.0000
SPC            2    6249  123456  0.0000
SPC            2    6250  123456  0.0000
SPC            2    6251  123456  0.0000
SPC            2    6252  123456  0.0000
SPC            2    6253  123456  0.0000
SPC            2    6254  123456  0.0000
SPC            2    6255  123456  0.0000
SPC            2    6256  123456  0.0000
SPC            2    6257  123456  0.0000
SPC            2    6258  123456  0.0000
SPC            2    6259  123456  0.0000
SPC            2    6260  123456  0.0000
SPC            2    6261  123456  0.0000
SPC            2    6262  123456  0.0000
SPC            2    6263  123456  0.0000
SPC            2    6264  123456  0.0000
SPC            2    6265  123456  0.0000
SPC            2    6266  123456  0.0000
SPC            2    6267  123456  0.0000
SPC            2    6268  123456  0.0000
SPC            2    6269  123456  0.0000
SPC            2    6270  123456  0.0000
SPC            2    6271  123456  0.0000
SPC            2    6272  123456  0.0000
SPC            2    6273  123456  0.0000
SPC            2    6274  123456  0.0000
SPC            2    6275  123456  0.0000
SPC            2    6276  123456  0.0000
SPC            2    6277  123456  0.0000
SPC            2    6278  123456  0.0000
SPC            2    6279  123456  0.0000
SPC            2    6280  123456  0.0000
SPC            2    6281  123456  0.0000
SPC            2    6282  123456  0.0000
SPC            2    6283  123456  0.0000
SPC            2    6284  123456  0.0000
SPC            2    6285  123456  0.0000
SPC            2    6286  123456  0.0000
SPC            2    6287  123456  0.0000
SPC            2    6288  123456  0.0000
SPC            2    6289  123456  0.0000
SPC            2    6290  123456  0.0000
SPC            2    6291  123456  0.0000
SPC            2    6292  123456  0.0000
SPC            2    6293  123456  0.0000
SPC            2    6294  123456  0.0000
SPC            2    6295  123456  0.0000
SPC            2    6296  123456  0.0000
SPC            2    6297  123456  0.0000
SPC            2    6298  123456  0.0000
SPC            2    6299  123456  0.0000
SPC            2    6300  123456  0.0000
SPC            2    6301  123456  0.0000
SPC            2    6302  123456  0.0000
SPC            2    6303  123456  0.0000
SPC            2    6304  123456  0.0000
SPC            2    6305  123456  0.0000
SPC            2    6306  123456  0.0000
SPC            2    6307  123456  0.0000
SPC            2    6308  123456  0.0000
SPC            2    6309  123456  0.0000
SPC            2    6310  123456  0.0000
SPC            2    6311  123456  0.0000
SPC            2    6312  123456  0.0000
SPC            2    6313  123456  0.0000
SPC            2    6314  123456  0.0000
SPC            2    6315  123456  0.0000
SPC            2    6316  123456  0.0000
SPC            2    6317  123456  0.0000
SPC            2    6318  123456  0.0000
SPC            2    6319  123456  0.0000
SPC            2    6320  123456  0.0000
SPC            2    6321  123456  0.0000
SPC            2    6322  123456  0.0000
SPC            2    6323  123456  0.0000
SPC            2    6324  123456  0.0000
SPC            2    6325  123456  0.0000
SPC            2    6326  123456  0.0000
SPC            2    6327  123456  0.0000
SPC            2    6328  123456  0.0000
SPC            2    6329  123456  0.0000
SPC            2    6330  123456  0.0000
SPC            2    6331  123456  0.0000
SPC            2    6332  123456  0.0000
SPC            2    6333  123456  0.0000
SPC            2    6334  123456  0.0000
SPC            2    6335  123456  0.0000
SPC            2    6336  123456  0.0000
SPC            2    6337  123456  0.0000
SPC            2    6338  123456  0.0000
SPC            2    6339  123456  0.0000
SPC            2    6340  123456  0.0000
SPC            2    6341  123456  0.0000
SPC            2    6342  123456  0.0000
SPC            2    6343  123456  0.0000
SPC            2    6344  123456  0.0000
SPC            2    6345  123456  0.0000
SPC            2    6346  123456  0.0000
SPC            2    6347  123456  0.0000
SPC            2    6348  123456  0.0000
SPC            2    6349  123456  0.0000
SPC            2    6350  123456  0.0000
SPC            2    6351  123456  0.0000
SPC            2    6352  123456  0.0000
SPC            2    6353  123456  0.0000
SPC            2    6354  123456  0.0000
SPC            2    6355  123456  0.0000
SPC            2    6356  123456  0.0000
SPC            2    6357  123456  0.0000
SPC            2    6358  123456  0.0000
SPC            2    6359  123456  0.0000
SPC            2    6360  123456  0.0000
SPC            2    6361  123456  0.0000
SPC            2    6362  123456  0.0000
SPC            2    6363  123456  0.0000
SPC            2    6364  123456  0.0000
SPC            2    6365  123456  0.0000
SPC            2    6366  123456  0.0000
SPC            2    6367  123456  0.0000
SPC            2    6368  123456  0.0000
SPC            2    6369  123456  0.0000
SPC            2    6370  123456  0.0000
SPC            2    6371  123456  0.0000
SPC            2    6372  123456  0.0000
SPC            2    6373  123456  0.0000
SPC            2    6374  123456  0.0000
SPC            2    6375  123456  0.0000
SPC            2    6376  123456  0.0000
SPC            2    6377  123456  0.0000
SPC            2    6378  123456  0.0000
SPC            2    6379  123456  0.0000
SPC            2    6380  123456  0.0000
SPC            2    6381  123456  0.0000
SPC            2    6382  123456  0.0000
SPC            2    6383  123456  0.0000
SPC            2    6384  123456  0.0000
SPC            2    6385  123456  0.0000
SPC            2    6386  123456  0.0000
SPC            2    6387  123456  0.0000
SPC            2    6388  123456  0.0000
SPC            2    6389  123456  0.0000
SPC            2    6390  123456  0.0000
SPC            2    6391  123456  0.0000
SPC            2    6392  123456  0.0000
SPC            2    6393  123456  0.0000
SPC            2    6394  123456  0.0000
SPC            2    6395  123456  0.0000
SPC            2    6396  123456  0.0000
SPC            2    6397  123456  0.0000
SPC            2    6398  123456  0.0000
SPC            2    6399  123456  0.0000
SPC            2    6400  123456  0.0000
SPC            2    6401  123456  0.0000
SPC            2    6402  123456  0.0000
SPC            2    6403  123456  0.0000
SPC            2    6404  123456  0.0000
SPC            2    6405  123456  0.0000
SPC            2    6406  123456  0.0000
SPC            2    6407  123456  0.0000
SPC            2    6408  123456  0.0000
SPC            2    6409  123456  0.0000
SPC            2    6410  123456  0.0000
SPC            2    6411  123456  0.0000
SPC            2    6412  123456  0.0000
SPC            2    6413  123456  0.0000
SPC            2    6414  123456  0.0000
SPC            2    6415  123456  0.0000
SPC            2    6416  123456  0.0000
SPC            2    6417  123456  0.0000
SPC            2    6418  123456  0.0000
SPC            2    6419  123456  0.0000
SPC            2    6420  123456  0.0000
SPC            2    6421  123456  0.0000
SPC            2    6422  123456  0.0000
SPC            2    6423  123456  0.0000
SPC            2    6424  123456  0.0000
SPC            2    6425  123456  0.0000
SPC            2    6426  123456  0.0000
SPC            2    6427  123456  0.0000
SPC            2    6428  123456  0.0000
SPC            2    6429  123456  0.0000
SPC            2    6430  123456  0.0000
SPC            2    6431  123456  0.0000
SPC            2    6432  123456  0.0000
SPC            2    6433  123456  0.0000
SPC            2    6434  123456  0.0000
SPC            2    6435  123456  0.0000
SPC            2    6436  123456  0.0000
SPC            2    6437  123456  0.0000
SPC            2    6438  123456  0.0000
SPC            2    6439  123456  0.0000
SPC            2    6440  123456  0.0000
SPC            2    6441  123456  0.0000
SPC            2    6442  123456  0.0000
SPC            2    6443  123456  0.0000
SPC            2    6444  123456  0.0000
SPC            2    6445  123456  0.0000
SPC            2    6446  123456  0.0000
SPC            2    6447  123456  0.0000
SPC            2    6448  123456  0.0000
SPC            2    6449  123456  0.0000
SPC            2    6450  123456  0.0000
SPC            2    6451  123456  0.0000
SPC            2    6452  123456  0.0000
SPC            2    6453  123456  0.0000
SPC            2    6454  123456  0.0000
SPC            2    6455  123456  0.0000
SPC            2    6456  123456  0.0000
SPC            2    6457  123456  0.0000
SPC            2    6458  123456  0.0000
SPC            2    6459  123456  0.0000
SPC            2    6460  123456  0.0000
SPC            2    6461  123456  0.0000
SPC            2    6462  123456  0.0000
SPC            2    6463  123456  0.0000
SPC            2    6464  123456  0.0000
SPC            2    6465  123456  0.0000
SPC            2    6466  123456  0.0000
SPC            2    6467  123456  0.0000
SPC            2    6468  123456  0.0000
SPC            2    6469  123456  0.0000
SPC            2    6470  123456  0.0000
SPC            2    6471  123456  0.0000
SPC            2    6472  123456  0.0000
SPC            2    6473  123456  0.0000
SPC            2    6474  123456  0.0000
SPC            2    6475  123456  0.0000
SPC            2    6476  123456  0.0000
SPC            2    6477  123456  0.0000
SPC            2    6478  123456  0.0000
SPC            2    6479  123456  0.0000
SPC            2    6480  123456  0.0000
SPC            2    6481  123456  0.0000
SPC            2    6482  123456  0.0000
SPC            2    6483  123456  0.0000
SPC            2    6484  123456  0.0000
SPC            2    6485  123456  0.0000
SPC            2    6486  123456  0.0000
SPC            2    6487  123456  0.0000
SPC            2    6488  123456  0.0000
SPC            2    6489  123456  0.0000
SPC            2    6490  123456  0.0000
SPC            2    6491  123456  0.0000
SPC            2    6492  123456  0.0000
SPC            2    6493  123456  0.0000
SPC            2    6494  123456  0.0000
SPC            2    6495  123456  0.0000
SPC            2    6496  123456  0.0000
SPC            2    6497  123456  0.0000
SPC            2    6498  123456  0.0000
SPC            2    6499  123456  0.0000
SPC            2    6500  123456  0.0000
SPC            2    6501  123456  0.0000
SPC            2    6502  123456  0.0000
SPC            2    6503  123456  0.0000
SPC            2    6504  123456  0.0000
SPC            2    6505  123456  0.0000
SPC            2    6506  123456  0.0000
SPC            2    6507  123456  0.0000
SPC            2    6508  123456  0.0000
SPC            2    6509  123456  0.0000
SPC            2    6510  123456  0.0000
SPC            2    6511  123456  0.0000
SPC            2    6512  123456  0.0000
SPC            2    6513  123456  0.0000
SPC            2    6514  123456  0.0000
SPC            2    6515  123456  0.0000
SPC            2    6516  123456  0.0000
SPC            2    6517  123456  0.0000
SPC            2    6518  123456  0.0000
SPC            2    6519  123456  0.0000
SPC            2    6520  123456  0.0000
SPC            2    6521  123456  0.0000
SPC            2    6522  123456  0.0000
SPC            2    6523  123456  0.0000
SPC            2    6524  123456  0.0000
SPC            2    6525  123456  0.0000
SPC            2    6526  123456  0.0000
SPC            2    6527  123456  0.0000
SPC            2    6528  123456  0.0000
SPC            2    6529  123456  0.0000
SPC            2    6530  123456  0.0000
SPC            2    6531  123456  0.0000
SPC            2    6532  123456  0.0000
SPC            2    6533  123456  0.0000
SPC            2    6534  123456  0.0000
SPC            2    6535  123456  0.0000
SPC            2    6536  123456  0.0000
SPC            2    6537  123456  0.0000
SPC            2    6538  123456  0.0000
SPC            2    6539  123456  0.0000
SPC            2    6540  123456  0.0000
SPC            2    6541  123456  0.0000
SPC            2    6542  123456  0.0000
SPC            2    6543  123456  0.0000
SPC            2    6544  123456  0.0000
SPC            2    6545  123456  0.0000
SPC            2    6546  123456  0.0000
SPC            2    6547  123456  0.0000
SPC            2    6548  123456  0.0000
SPC            2    6549  123456  0.0000
SPC            2    6550  123456  0.0000
SPC            2    6551  123456  0.0000
SPC            2    6552  123456  0.0000
SPC            2    6553  123456  0.0000
SPC            2    6554  123456  0.0000
SPC            2    6555  123456  0.0000
SPC            2    6556  123456  0.0000
SPC            2    6557  123456  0.0000
SPC            2    6558  123456  0.0000
SPC            2    6559  123456  0.0000
SPC            2    6560  123456  0.0000
SPC            2    6561  123456  0.0000
SPC            2    6562  123456  0.0000
SPC            2    6563  123456  0.0000
SPC            2    6564  123456  0.0000
SPC            2    6565  123456  0.0000
SPC            2    6566  123456  0.0000
SPC            2    6567  123456  0.0000
SPC            2    6568  123456  0.0000
SPC            2    6569  123456  0.0000
SPC            2    6570  123456  0.0000
SPC            2    6571  123456  0.0000
SPC            2    6572  123456  0.0000
SPC            2    6573  123456  0.0000
SPC            2    6574  123456  0.0000
SPC            2    6575  123456  0.0000
SPC            2    6576  123456  0.0000
SPC            2    6577  123456  0.0000
SPC            2    6578  123456  0.0000
SPC            2    6579  123456  0.0000
SPC            2    6580  123456  0.0000
SPC            2    6581  123456  0.0000
SPC            2    6582  123456  0.0000
SPC            2    6583  123456  0.0000
SPC            2    6584  123456  0.0000
SPC            2    6585  123456  0.0000
SPC            2    6586  123456  0.0000
SPC            2    6587  123456  0.0000
SPC            2    6588  123456  0.0000
SPC            2    6589  123456  0.0000
SPC            2    6590  123456  0.0000
SPC            2    6591  123456  0.0000
SPC            2    6592  123456  0.0000
SPC            2    6593  123456  0.0000
SPC            2    6594  123456  0.0000
SPC            2    6595  123456  0.0000
SPC            2    6596  123456  0.0000
SPC            2    6597  123456  0.0000
SPC            2    6598  123456  0.0000
SPC            2    6599  123456  0.0000
SPC            2    6600  123456  0.0000
SPC            2    6601  123456  0.0000
SPC            2    6602  123456  0.0000
SPC            2    6603  123456  0.0000
SPC            2    6604  123456  0.0000
SPC            2    6605  123456  0.0000
SPC            2    6606  123456  0.0000
SPC            2    6607  123456  0.0000
SPC            2    6608  123456  0.0000
SPC            2    6609  123456  0.0000
SPC            2    6610  123456  0.0000
SPC            2    6611  123456  0.0000
SPC            2    6612  123456  0.0000
SPC            2    6613  123456  0.0000
SPC            2    6614  123456  0.0000
SPC            2    6615  123456  0.0000
SPC            2    6616  123456  0.0000
SPC            2    6617  123456  0.0000
SPC            2    6618  123456  0.0000
SPC            2    6619  123456  0.0000
SPC            2    6620  123456  0.0000
SPC            2    6621  123456  0.0000
SPC            2    6622  123456  0.0000
SPC            2    6623  123456  0.0000
SPC            2    6624  123456  0.0000
SPC            2    6625  123456  0.0000
SPC            2    6626  123456  0.0000
SPC            2    6627  123456  0.0000
SPC            2    6628  123456  0.0000
SPC            2    6629  123456  0.0000
SPC            2    6630  123456  0.0000
SPC            2    6631  123456  0.0000
SPC            2    6632  123456  0.0000
SPC            2    6633  123456  0.0000
SPC            2    6634  123456  0.0000
SPC            2    6635  123456  0.0000
SPC            2    6636  123456  0.0000
SPC            2    6637  123456  0.0000
SPC            2    6638  123456  0.0000
SPC            2    6639  123456  0.0000
SPC            2    6640  123456  0.0000
SPC            2    6641  123456  0.0000
SPC            2    6642  123456  0.0000
SPC            2    6643  123456  0.0000
SPC            2    6644  123456  0.0000
SPC            2    6645  123456  0.0000
SPC            2    6646  123456  0.0000
SPC            2    6647  123456  0.0000
SPC            2    6648  123456  0.0000
SPC            2    6649  123456  0.0000
SPC            2    6650  123456  0.0000
SPC            2    6651  123456  0.0000
SPC            2    6652  123456  0.0000
SPC            2    6653  123456  0.0000
SPC            2    6654  123456  0.0000
SPC            2    6655  123456  0.0000
SPC            2    6656  123456  0.0000
SPC            2    6657  123456  0.0000
SPC            2    6658  123456  0.0000
SPC            2    6659  123456  0.0000
SPC            2    6660  123456  0.0000
SPC            2    6661  123456  0.0000
SPC            2    6662  123456  0.0000
SPC            2    6663  123456  0.0000
SPC            2    6664  123456  0.0000
SPC            2    6665  123456  0.0000
SPC            2    6666  123456  0.0000
SPC            2    6667  123456  0.0000
SPC            2    6668  123456  0.0000
SPC            2    6669  123456  0.0000
SPC            2    6670  123456  0.0000
SPC            2    6671  123456  0.0000
SPC            2    6672  123456  0.0000
SPC            2    6673  123456  0.0000
SPC            2    6674  123456  0.0000
SPC            2    6675  123456  0.0000
SPC            2    6676  123456  0.0000
SPC            2    6677  123456  0.0000
SPC            2    6678  123456  0.0000
SPC            2    6679  123456  0.0000
SPC            2    6680  123456  0.0000
SPC            2    6681  123456  0.0000
SPC            2    6682  123456  0.0000
SPC            2    6683  123456  0.0000
SPC            2    6684  123456  0.0000
SPC            2    6685  123456  0.0000
SPC            2    6686  123456  0.0000
SPC            2    6687  123456  0.0000
SPC            2    6688  123456  0.0000
SPC            2    6689  123456  0.0000
SPC            2    6690  123456  0.0000
SPC            2    6691  123456  0.0000
SPC            2    6692  123456  0.0000
SPC            2    6693  123456  0.0000
SPC            2    6694  123456  0.0000
SPC            2    6695  123456  0.0000
SPC            2    6696  123456  0.0000
SPC            2    6697  123456  0.0000
SPC            2    6698  123456  0.0000
SPC            2    6699  123456  0.0000
SPC            2    6700  123456  0.0000
SPC            2    6701  123456  0.0000
SPC            2    6702  123456  0.0000
SPC            2    6703  123456  0.0000
SPC            2    6704  123456  0.0000
SPC            2    6705  123456  0.0000
SPC            2    6706  123456  0.0000
SPC            2    6707  123456  0.0000
SPC            2    6708  123456  0.0000
SPC            2    6709  123456  0.0000
SPC            2    6710  123456  0.0000
SPC            2    6711  123456  0.0000
SPC            2    6712  123456  0.0000
SPC            2    6713  123456  0.0000
SPC            2    6714  123456  0.0000
SPC            2    6715  123456  0.0000
SPC            2    6716  123456  0.0000
SPC            2    6717  123456  0.0000
SPC            2    6718  123456  0.0000
SPC            2    6719  123456  0.0000
SPC            2    6720  123456  0.0000
SPC            2    6721  123456  0.0000
SPC            2    6722  123456  0.0000
SPC            2    6723  123456  0.0000
SPC            2    6724  123456  0.0000
SPC            2    6725  123456  0.0000
SPC            2    6726  123456  0.0000
SPC            2    6727  123456  0.0000
SPC            2    6728  123456  0.0000
SPC            2    6729  123456  0.0000
SPC            2    6730  123456  0.0000
SPC            2    6731  123456  0.0000
SPC            2    6732  123456  0.0000
SPC            2    6733  123456  0.0000
SPC            2    6734  123456  0.0000
SPC            2    6735  123456  0.0000
SPC            2    6736  123456  0.0000
SPC            2    6737  123456  0.0000
SPC            2    6738  123456  0.0000
SPC            2    6739  123456  0.0000
SPC            2    6740  123456  0.0000
SPC            2    6741  123456  0.0000
SPC            2    6742  123456  0.0000
SPC            2    6743  123456  0.0000
SPC            2    6744  123456  0.0000
SPC            2    6745  123456  0.0000
SPC            2    6746  123456  0.0000
SPC            2    6747  123456  0.0000
SPC            2    6748  123456  0.0000
SPC            2    6749  123456  0.0000
SPC            2    6750  123456  0.0000
SPC            2    6751  123456  0.0000
SPC            2    6752  123456  0.0000
SPC            2    6753  123456  0.0000
SPC            2    6754  123456  0.0000
SPC            2    6755  123456  0.0000
SPC            2    6756  123456  0.0000
SPC            2    6757  123456  0.0000
SPC            2    6758  123456  0.0000
SPC            2    6759  123456  0.0000
SPC            2    6760  123456  0.0000
SPC            2    6761  123456  0.0000
SPC            2    6762  123456  0.0000
SPC            2    6763  123456  0.0000
SPC            2    6764  123456  0.0000
SPC            2    6765  123456  0.0000
SPC            2    6766  123456  0.0000
SPC            2    6767  123456  0.0000
SPC            2    6768  123456  0.0000
SPC            2    6769  123456  0.0000
SPC            2    6770  123456  0.0000
SPC            2    6771  123456  0.0000
SPC            2    6772  123456  0.0000
SPC            2    6773  123456  0.0000
SPC            2    6774  123456  0.0000
SPC            2    6775  123456  0.0000
SPC            2    6776  123456  0.0000
SPC            2    6777  123456  0.0000
SPC            2    6778  123456  0.0000
SPC            2    6779  123456  0.0000
SPC            2    6780  123456  0.0000
SPC            2    6781  123456  0.0000
SPC            2    6782  123456  0.0000
SPC            2    6783  123456  0.0000
SPC            2    6784  123456  0.0000
SPC            2    6785  123456  0.0000
SPC            2    6786  123456  0.0000
SPC            2    6787  123456  0.0000
SPC            2    6788  123456  0.0000
SPC            2    6789  123456  0.0000
SPC            2    6790  123456  0.0000
SPC            2    6791  123456  0.0000
SPC            2    6792  123456  0.0000
SPC            2    6793  123456  0.0000
SPC            2    6794  123456  0.0000
SPC            2    6795  123456  0.0000
SPC            2    6796  123456  0.0000
SPC            2    6797  123456  0.0000
SPC            2    6798  123456  0.0000
SPC            2    6799  123456  0.0000
SPC            2    6800  123456  0.0000
SPC            2    6801  123456  0.0000
SPC            2    6802  123456  0.0000
SPC            2    6803  123456  0.0000
SPC            2    6804  123456  0.0000
SPC            2    6805  123456  0.0000
SPC            2    6806  123456  0.0000
SPC            2    6807  123456  0.0000
SPC            2    6808  123456  0.0000
SPC            2    6809  123456  0.0000
SPC            2    6810  123456  0.0000
SPC            2    6811  123456  0.0000
SPC            2    6812  123456  0.0000
SPC            2    6813  123456  0.0000
SPC            2    6814  123456  0.0000
SPC            2    6815  123456  0.0000
SPC            2    6816  123456  0.0000
SPC            2    6817  123456  0.0000
SPC            2    6818  123456  0.0000
SPC            2    6819  123456  0.0000
SPC            2    6820  123456  0.0000
SPC            2    6821  123456  0.0000
SPC            2    6822  123456  0.0000
SPC            2    6823  123456  0.0000
SPC            2    6824  123456  0.0000
SPC            2    6825  123456  0.0000
SPC            2    6826  123456  0.0000
SPC            2    6827  123456  0.0000
SPC            2    6828  123456  0.0000
SPC            2    6829  123456  0.0000
SPC            2    6830  123456  0.0000
SPC            2    6831  123456  0.0000
SPC            2    6832  123456  0.0000
SPC            2    6833  123456  0.0000
SPC            2    6834  123456  0.0000
SPC            2    6835  123456  0.0000
SPC            2    6836  123456  0.0000
SPC            2    6837  123456  0.0000
SPC            2    6838  123456  0.0000
SPC            2    6839  123456  0.0000
SPC            2    6840  123456  0.0000
SPC            2    6841  123456  0.0000
SPC            2    6842  123456  0.0000
SPC            2    6843  123456  0.0000
SPC            2    6844  123456  0.0000
SPC            2    6845  123456  0.0000
SPC            2    6846  123456  0.0000
SPC            2    6847  123456  0.0000
SPC            2    6848  123456  0.0000
SPC            2    6849  123456  0.0000
SPC            2    6850  123456  0.0000
SPC            2    6851  123456  0.0000
SPC            2    6852  123456  0.0000
SPC            2    6853  123456  0.0000
SPC            2    6854  123456  0.0000
SPC            2    6855  123456  0.0000
SPC            2    6856  123456  0.0000
SPC            2    6857  123456  0.0000
SPC            2    6858  123456  0.0000
SPC            2    6859  123456  0.0000
SPC            2    6860  123456  0.0000
SPC            2    6861  123456  0.0000
SPC            2    6862  123456  0.0000
SPC            2    6863  123456  0.0000
SPC            2    6864  123456  0.0000
SPC            2    6865  123456  0.0000
SPC            2    6866  123456  0.0000
SPC            2    6867  123456  0.0000
SPC            2    6868  123456  0.0000
SPC            2    6869  123456  0.0000
SPC            2    6870  123456  0.0000
SPC            2    6871  123456  0.0000
SPC            2    6872  123456  0.0000
SPC            2    6873  123456  0.0000
SPC            2    6874  123456  0.0000
SPC            2    6875  123456  0.0000
SPC            2    6876  123456  0.0000
SPC            2    6877  123456  0.0000
SPC            2    6878  123456  0.0000
SPC            2    6879  123456  0.0000
SPC            2    6880  123456  0.0000
SPC            2    6881  123456  0.0000
SPC            2    6882  123456  0.0000
SPC            2    6883  123456  0.0000
SPC            2    6884  123456  0.0000
SPC            2    6885  123456  0.0000
SPC            2    6886  123456  0.0000
SPC            2    6887  123456  0.0000
SPC            2    6888  123456  0.0000
SPC            2    6889  123456  0.0000
SPC            2    6890  123456  0.0000
SPC            2    6891  123456  0.0000
SPC            2    6892  123456  0.0000
SPC            2    6893  123456  0.0000
SPC            2    6894  123456  0.0000
SPC            2    6895  123456  0.0000
SPC            2    6896  123456  0.0000
SPC            2    6897  123456  0.0000
SPC            2    6898  123456  0.0000
SPC            2    6899  123456  0.0000
SPC            2    6900  123456  0.0000
SPC            2    6901  123456  0.0000
SPC            2    6902  123456  0.0000
SPC            2    6903  123456  0.0000
SPC            2    6904  123456  0.0000
SPC            2    6905  123456  0.0000
SPC            2    6906  123456  0.0000
SPC            2    6907  123456  0.0000
SPC            2    6908  123456  0.0000
SPC            2    6909  123456  0.0000
SPC            2    6910  123456  0.0000
SPC            2    6911  123456  0.0000
SPC            2    6912  123456  0.0000
SPC            2    6913  123456  0.0000
SPC            2    6914  123456  0.0000
SPC            2    6915  123456  0.0000
SPC            2    6916  123456  0.0000
SPC            2    6917  123456  0.0000
SPC            2    6918  123456  0.0000
SPC            2    6919  123456  0.0000
SPC            2    6920  123456  0.0000
SPC            2    6921  123456  0.0000
SPC            2    6922  123456  0.0000
SPC            2    6923  123456  0.0000
SPC            2    6924  123456  0.0000
SPC            2    6925  123456  0.0000
SPC            2    6926  123456  0.0000
SPC            2    6927  123456  0.0000
SPC            2    6928  123456  0.0000
SPC            2    6929  123456  0.0000
SPC            2    6930  123456  0.0000
SPC            2    6931  123456  0.0000
SPC            2    6932  123456  0.0000
SPC            2    6933  123456  0.0000
SPC            2    6934  123456  0.0000
SPC            2    6935  123456  0.0000
SPC            2    6936  123456  0.0000
SPC            2    6937  123456  0.0000
SPC            2    6938  123456  0.0000
SPC            2    6939  123456  0.0000
SPC            2    6940  123456  0.0000
SPC            2    6941  123456  0.0000
SPC            2    6942  123456  0.0000
SPC            2    6943  123456  0.0000
SPC            2    6944  123456  0.0000
SPC            2    6945  123456  0.0000
SPC            2    6946  123456  0.0000
SPC            2    6947  123456  0.0000
SPC            2    6948  123456  0.0000
SPC            2    6949  123456  0.0000
SPC            2    6950  123456  0.0000
SPC            2    6951  123456  0.0000
SPC            2    6952  123456  0.0000
SPC            2    6953  123456  0.0000
SPC            2    6954  123456  0.0000
SPC            2    6955  123456  0.0000
SPC            2    6956  123456  0.0000
SPC            2    6957  123456  0.0000
SPC            2    6958  123456  0.0000
SPC            2    6959  123456  0.0000
SPC            2    6960  123456  0.0000
SPC            2    6961  123456  0.0000
SPC            2    6962  123456  0.0000
SPC            2    6963  123456  0.0000
SPC            2    6964  123456  0.0000
SPC            2    6965  123456  0.0000
SPC            2    6966  123456  0.0000
SPC            2    6967  123456  0.0000
SPC            2    6968  123456  0.0000
SPC            2    6969  123456  0.0000
SPC            2    6970  123456  0.0000
SPC            2    6971  123456  0.0000
SPC            2    6972  123456  0.0000
SPC            2    6973  123456  0.0000
SPC            2    6974  123456  0.0000
SPC            2    6975  123456  0.0000
SPC            2    6976  123456  0.0000
SPC            2    6977  123456  0.0000
SPC            2    6978  123456  0.0000
SPC            2    6979  123456  0.0000
SPC            2    6980  123456  0.0000
SPC            2    6981  123456  0.0000
SPC            2    6982  123456  0.0000
SPC            2    6983  123456  0.0000
SPC            2    6984  123456  0.0000
SPC            2    6985  123456  0.0000
SPC            2    6986  123456  0.0000
SPC            2    6987  123456  0.0000
SPC            2    6988  123456  0.0000
SPC            2    6989  123456  0.0000
SPC            2    6990  123456  0.0000
SPC            2    6991  123456  0.0000
SPC            2    6992  123456  0.0000
SPC            2    6993  123456  0.0000
SPC            2    6994  123456  0.0000
SPC            2    6995  123456  0.0000
SPC            2    6996  123456  0.0000
SPC            2    6997  123456  0.0000
SPC            2    6998  123456  0.0000
SPC            2    6999  123456  0.0000
SPC            2    7000  123456  0.0000
SPC            2    7001  123456  0.0000
SPC            2    7002  123456  0.0000
SPC            2    7003  123456  0.0000
SPC            2    7004  123456  0.0000
SPC            2    7005  123456  0.0000
SPC            2    7006  123456  0.0000
SPC            2    7007  123456  0.0000
SPC            2    7008  123456  0.0000
SPC            2    7009  123456  0.0000
SPC            2    7010  123456  0.0000
SPC            2    7011  123456  0.0000
SPC            2    7012  123456  0.0000
SPC            2    7013  123456  0.0000
SPC            2    7014  123456  0.0000
SPC            2    7015  123456  0.0000
SPC            2    7016  123456  0.0000
SPC            2    7017  123456  0.0000
SPC            2    7018  123456  0.0000
SPC            2    7019  123456  0.0000
SPC            2    7020  123456  0.0000
SPC            2    7021  123456  0.0000
SPC            2    7022  123456  0.0000
SPC            2    7023  123456  0.0000
SPC            2    7024  123456  0.0000
SPC            2    7025  123456  0.0000
SPC            2    7026  123456  0.0000
SPC            2    7027  123456  0.0000
SPC            2    7028  123456  0.0000
SPC            2    7029  123456  0.0000
SPC            2    7030  123456  0.0000
SPC            2    7031  123456  0.0000
SPC            2    7032  123456  0.0000
SPC            2    7033  123456  0.0000
SPC            2    7034  123456  0.0000
SPC            2    7035  123456  0.0000
SPC            2    7036  123456  0.0000
SPC            2    7037  123456  0.0000
SPC            2    7038  123456  0.0000
SPC            2    7039  123456  0.0000
SPC            2    7040  123456  0.0000
SPC            2    7041  123456  0.0000
SPC            2    7042  123456  0.0000
SPC            2    7043  123456  0.0000
SPC            2    7044  123456  0.0000
SPC            2    7045  123456  0.0000
SPC            2    7046  123456  0.0000
SPC            2    7047  123456  0.0000
SPC            2    7048  123456  0.0000
SPC            2    7049  123456  0.0000
SPC            2    7050  123456  0.0000
SPC            2    7051  123456  0.0000
SPC            2    7052  123456  0.0000
SPC            2    7053  123456  0.0000
SPC            2    7054  123456  0.0000
SPC            2    7055  123456  0.0000
SPC            2    7056  123456  0.0000
SPC            2    7057  123456  0.0000
SPC            2    7058  123456  0.0000
SPC            2    7059  123456  0.0000
SPC            2    7060  123456  0.0000
SPC            2    7061  123456  0.0000
SPC            2    7062  123456  0.0000
SPC            2    7063  123456  0.0000
SPC            2    7064  123456  0.0000
SPC            2    7065  123456  0.0000
SPC            2    7066  123456  0.0000
SPC            2    7067  123456  0.0000
SPC            2    7068  123456  0.0000
SPC            2    7069  123456  0.0000
SPC            2    7070  123456  0.0000
SPC            2    7071  123456  0.0000
SPC            2    7072  123456  0.0000
SPC            2    7073  123456  0.0000
SPC            2    7074  123456  0.0000
SPC            2    7075  123456  0.0000
SPC            2    7076  123456  0.0000
SPC            2    7077  123456  0.0000
SPC            2    7078  123456  0.0000
SPC            2    7079  123456  0.0000
SPC            2    7080  123456  0.0000
SPC            2    7081  123456  0.0000
SPC            2    7082  123456  0.0000
SPC            2    7083  123456  0.0000
SPC            2    7084  123456  0.0000
SPC            2    7085  123456  0.0000
SPC            2    7086  123456  0.0000
SPC            2    7087  123456  0.0000
SPC            2    7088  123456  0.0000
SPC            2    7089  123456  0.0000
SPC            2    7090  123456  0.0000
SPC            2    7091  123456  0.0000
SPC            2    7092  123456  0.0000
SPC            2    7093  123456  0.0000
SPC            2    7094  123456  0.0000
SPC            2    7095  123456  0.0000
SPC            2    7096  123456  0.0000
SPC            2    7097  123456  0.0000
SPC            2    7098  123456  0.0000
SPC            2    7099  123456  0.0000
SPC            2    7100  123456  0.0000
SPC            2    7101  123456  0.0000
SPC            2    7102  123456  0.0000
SPC            2    7103  123456  0.0000
SPC            2    7104  123456  0.0000
SPC            2    7105  123456  0.0000
SPC            2    7106  123456  0.0000
SPC            2    7107  123456  0.0000
SPC            2    7108  123456  0.0000
SPC            2    7109  123456  0.0000
SPC            2    7110  123456  0.0000
SPC            2    7111  123456  0.0000
SPC            2    7112  123456  0.0000
SPC            2    7113  123456  0.0000
SPC            2    7114  123456  0.0000
SPC            2    7115  123456  0.0000
SPC            2    7116  123456  0.0000
SPC            2    7117  123456  0.0000
SPC            2    7118  123456  0.0000
SPC            2    7119  123456  0.0000
SPC            2    7120  123456  0.0000
SPC            2    7121  123456  0.0000
SPC            2    7122  123456  0.0000
SPC            2    7123  123456  0.0000
SPC            2    7124  123456  0.0000
SPC            2    7125  123456  0.0000
SPC            2    7126  123456  0.0000
SPC            2    7127  123456  0.0000
SPC            2    7128  123456  0.0000
SPC            2    7129  123456  0.0000
SPC            2    7130  123456  0.0000
SPC            2    7131  123456  0.0000
SPC            2    7132  123456  0.0000
SPC            2    7133  123456  0.0000
SPC            2    7134  123456  0.0000
SPC            2    7135  123456  0.0000
SPC            2    7136  123456  0.0000
SPC            2    7137  123456  0.0000
SPC            2    7138  123456  0.0000
SPC            2    7139  123456  0.0000
SPC            2    7140  123456  0.0000
SPC            2    7141  123456  0.0000
SPC            2    7142  123456  0.0000
SPC            2    7143  123456  0.0000
SPC            2    7144  123456  0.0000
SPC            2    7145  123456  0.0000
SPC            2    7146  123456  0.0000
SPC            2    7147  123456  0.0000
SPC            2    7148  123456  0.0000
SPC            2    7149  123456  0.0000
SPC            2    7150  123456  0.0000
SPC            2    7151  123456  0.0000
SPC            2    7152  123456  0.0000
SPC            2    7153  123456  0.0000
SPC            2    7154  123456  0.0000
SPC            2    7155  123456  0.0000
SPC            2    7156  123456  0.0000
SPC            2    7157  123456  0.0000
SPC            2    7158  123456  0.0000
SPC            2    7159  123456  0.0000
SPC            2    7160  123456  0.0000
SPC            2    7161  123456  0.0000
SPC            2    7162  123456  0.0000
SPC            2    7163  123456  0.0000
SPC            2    7164  123456  0.0000
SPC            2    7165  123456  0.0000
SPC            2    7166  123456  0.0000
SPC            2    7167  123456  0.0000
SPC            2    7168  123456  0.0000
SPC            2    7169  123456  0.0000
SPC            2    7170  123456  0.0000
SPC            2    7171  123456  0.0000
SPC            2    7172  123456  0.0000
SPC            2    7173  123456  0.0000
SPC            2    7174  123456  0.0000
SPC            2    7175  123456  0.0000
SPC            2    7176  123456  0.0000
SPC            2    7177  123456  0.0000
SPC            2    7178  123456  0.0000
SPC            2    7179  123456  0.0000
SPC            2    7180  123456  0.0000
SPC            2    7181  123456  0.0000
SPC            2    7182  123456  0.0000
SPC            2    7183  123456  0.0000
SPC            2    7184  123456  0.0000
SPC            2    7185  123456  0.0000
SPC            2    7186  123456  0.0000
SPC            2    7187  123456  0.0000
SPC            2    7188  123456  0.0000
SPC            2    7189  123456  0.0000
SPC            2    7190  123456  0.0000
SPC            2    7191  123456  0.0000
SPC            2    7192  123456  0.0000
SPC            2    7193  123456  0.0000
SPC            2    7194  123456  0.0000
SPC            2    7195  123456  0.0000
SPC            2    7196  123456  0.0000
SPC            2    7197  123456  0.0000
SPC            2    7198  123456  0.0000
SPC            2    7199  123456  0.0000
SPC            2    7200  123456  0.0000
SPC            2    7201  123456  0.0000
SPC            2    7202  123456  0.0000
SPC            2    7203  123456  0.0000
SPC            2    7204  123456  0.0000
SPC            2    7205  123456  0.0000
SPC            2    7206  123456  0.0000
SPC            2    7207  123456  0.0000
SPC            2    7208  123456  0.0000
SPC            2    7209  123456  0.0000
SPC            2    7210  123456  0.0000
SPC            2    7211  123456  0.0000
SPC            2    7212  123456  0.0000
SPC            2    7213  123456  0.0000
SPC            2    7214  123456  0.0000
SPC            2    7215  123456  0.0000
SPC            2    7216  123456  0.0000
SPC            2    7217  123456  0.0000
SPC            2    7218  123456  0.0000
SPC            2    7219  123456  0.0000
SPC            2    7220  123456  0.0000
SPC            2    7221  123456  0.0000
SPC            2    7222  123456  0.0000
SPC            2    7223  123456  0.0000
SPC            2    7224  123456  0.0000
SPC            2    7225  123456  0.0000
SPC            2    7226  123456  0.0000
SPC            2    7227  123456  0.0000
SPC            2    7228  123456  0.0000
SPC            2    7229  123456  0.0000
SPC            2    7230  123456  0.0000
SPC            2    7231  123456  0.0000
SPC            2    7232  123456  0.0000
SPC            2    7233  123456  0.0000
SPC            2    7234  123456  0.0000
SPC            2    7235  123456  0.0000
SPC            2    7236  123456  0.0000
SPC            2    7237  123456  0.0000
SPC            2    7238  123456  0.0000
SPC            2    7239  123456  0.0000
SPC            2    7240  123456  0.0000
SPC            2    7241  123456  0.0000
SPC            2    7242  123456  0.0000
SPC            2    7243  123456  0.0000
SPC            2    7244  123456  0.0000
SPC            2    7245  123456  0.0000
SPC            2    7246  123456  0.0000
SPC            2    7247  123456  0.0000
SPC            2    7248  123456  0.0000
SPC            2    7249  123456  0.0000
SPC            2    7250  123456  0.0000
SPC            2    7251  123456  0.0000
SPC            2    7252  123456  0.0000
SPC            2    7253  123456  0.0000
SPC            2    7254  123456  0.0000
SPC            2    7255  123456  0.0000
SPC            2    7256  123456  0.0000
SPC            2    7257  123456  0.0000
SPC            2    7258  123456  0.0000
SPC            2    7259  123456  0.0000
SPC            2    7260  123456  0.0000
SPC            2    7261  123456  0.0000
SPC            2    7262  123456  0.0000
SPC            2    7263  123456  0.0000
SPC            2    7264  123456  0.0000
SPC            2    7265  123456  0.0000
SPC            2    7266  123456  0.0000
SPC            2    7267  123456  0.0000
SPC            2    7268  123456  0.0000
SPC            2    7269  123456  0.0000
SPC            2    7270  123456  0.0000
SPC            2    7271  123456  0.0000
SPC            2    7272  123456  0.0000
SPC            2    7273  123456  0.0000
SPC            2    7274  123456  0.0000
SPC            2    7275  123456  0.0000
SPC            2    7276  123456  0.0000
SPC            2    7277  123456  0.0000
SPC            2    7278  123456  0.0000
SPC            2    7279  123456  0.0000
SPC            2    7280  123456  0.0000
SPC            2    7281  123456  0.0000
SPC            2    7282  123456  0.0000
SPC            2    7283  123456  0.0000
SPC            2    7284  123456  0.0000
SPC            2    7285  123456  0.0000
SPC            2    7286  123456  0.0000
SPC            2    7287  123456  0.0000
SPC            2    7288  123456  0.0000
SPC            2    7289  123456  0.0000
SPC            2    7290  123456  0.0000
SPC            2    7291  123456  0.0000
SPC            2    7292  123456  0.0000
SPC            2    7293  123456  0.0000
SPC            2    7294  123456  0.0000
SPC            2    7295  123456  0.0000
SPC            2    7296  123456  0.0000
SPC            2    7297  123456  0.0000
SPC            2    7298  123456  0.0000
SPC            2    7299  123456  0.0000
SPC            2    7300  123456  0.0000
SPC            2    7301  123456  0.0000
SPC            2    7302  123456  0.0000
SPC            2    7303  123456  0.0000
SPC            2    7304  123456  0.0000
SPC            2    7305  123456  0.0000
SPC            2    7306  123456  0.0000
SPC            2    7307  123456  0.0000
SPC            2    7308  123456  0.0000
SPC            2    7309  123456  0.0000
SPC            2    7310  123456  0.0000
SPC            2    7311  123456  0.0000
SPC            2    7312  123456  0.0000
SPC            2    7313  123456  0.0000
SPC            2    7314  123456  0.0000
SPC            2    7315  123456  0.0000
SPC            2    7316  123456  0.0000
SPC            2    7317  123456  0.0000
SPC            2    7318  123456  0.0000
SPC            2    7319  123456  0.0000
SPC            2    7320  123456  0.0000
SPC            2    7321  123456  0.0000
SPC            2    7322  123456  0.0000
SPC            2    7323  123456  0.0000
SPC            2    7324  123456  0.0000
SPC            2    7325  123456  0.0000
SPC            2    7326  123456  0.0000
SPC            2    7327  123456  0.0000
SPC            2    7328  123456  0.0000
SPC            2    7329  123456  0.0000
SPC            2    7330  123456  0.0000
SPC            2    7331  123456  0.0000
SPC            2    7332  123456  0.0000
SPC            2    7333  123456  0.0000
SPC            2    7334  123456  0.0000
SPC            2    7335  123456  0.0000
SPC            2    7336  123456  0.0000
SPC            2    7337  123456  0.0000
SPC            2    7338  123456  0.0000
SPC            2    7339  123456  0.0000
SPC            2    7340  123456  0.0000
SPC            2    7341  123456  0.0000
SPC            2    7342  123456  0.0000
SPC            2    7343  123456  0.0000
SPC            2    7344  123456  0.0000
SPC            2    7345  123456  0.0000
SPC            2    7346  123456  0.0000
SPC            2    7347  123456  0.0000
SPC            2    7348  123456  0.0000
SPC            2    7349  123456  0.0000
SPC            2    7350  123456  0.0000
SPC            2    7351  123456  0.0000
SPC            2    7352  123456  0.0000
SPC            2    7353  123456  0.0000
SPC            2    7354  123456  0.0000
SPC            2    7355  123456  0.0000
SPC            2    7356  123456  0.0000
SPC            2    7357  123456  0.0000
SPC            2    7358  123456  0.0000
SPC            2    7359  123456  0.0000
SPC            2    7360  123456  0.0000
SPC            2    7361  123456  0.0000
SPC            2    7362  123456  0.0000
SPC            2    7363  123456  0.0000
SPC            2    7364  123456  0.0000
SPC            2    7365  123456  0.0000
SPC            2    7366  123456  0.0000
SPC            2    7367  123456  0.0000
SPC            2    7368  123456  0.0000
SPC            2    7369  123456  0.0000
SPC            2    7370  123456  0.0000
SPC            2    7371  123456  0.0000
SPC            2    7372  123456  0.0000
SPC            2    7373  123456  0.0000
SPC            2    7374  123456  0.0000
SPC            2    7375  123456  0.0000
SPC            2    7376  123456  0.0000
SPC            2    7377  123456  0.0000
SPC            2    7378  123456  0.0000
SPC            2    7379  123456  0.0000
SPC            2    7380  123456  0.0000
SPC            2    7381  123456  0.0000
SPC            2    7382  123456  0.0000
SPC            2    7383  123456  0.0000
SPC            2    7384  123456  0.0000
SPC            2    7385  123456  0.0000
SPC            2    7386  123456  0.0000
SPC            2    7387  123456  0.0000
SPC            2    7388  123456  0.0000
SPC            2    7389  123456  0.0000
SPC            2    7390  123456  0.0000
SPC            2    7391  123456  0.0000
SPC            2    7392  123456  0.0000
SPC            2    7393  123456  0.0000
SPC            2    7394  123456  0.0000
SPC            2    7395  123456  0.0000
SPC            2    7396  123456  0.0000
SPC            2    7397  123456  0.0000
SPC            2    7398  123456  0.0000
SPC            2    7399  123456  0.0000
SPC            2    7400  123456  0.0000
SPC            2    7401  123456  0.0000
SPC            2    7402  123456  0.0000
SPC            2    7403  123456  0.0000
SPC            2    7404  123456  0.0000
SPC            2    7405  123456  0.0000
SPC            2    7406  123456  0.0000
SPC            2    7407  123456  0.0000
SPC            2    7408  123456  0.0000
SPC            2    7409  123456  0.0000
SPC            2    7410  123456  0.0000
SPC            2    7411  123456  0.0000
SPC            2    7412  123456  0.0000
SPC            2    7413  123456  0.0000
SPC            2    7414  123456  0.0000
SPC            2    7415  123456  0.0000
SPC            2    7416  123456  0.0000
SPC            2    7417  123456  0.0000
SPC            2    7418  123456  0.0000
SPC            2    7419  123456  0.0000
SPC            2    7420  123456  0.0000
SPC            2    7421  123456  0.0000
SPC            2    7422  123456  0.0000
SPC            2    7423  123456  0.0000
SPC            2    7424  123456  0.0000
SPC            2    7425  123456  0.0000
SPC            2    7426  123456  0.0000
SPC            2    7427  123456  0.0000
SPC            2    7428  123456  0.0000
SPC            2    7429  123456  0.0000
SPC            2    7430  123456  0.0000
SPC            2    7431  123456  0.0000
SPC            2    7432  123456  0.0000
SPC            2    7433  123456  0.0000
SPC            2    7434  123456  0.0000
SPC            2    7435  123456  0.0000
SPC            2    7436  123456  0.0000
SPC            2    7437  123456  0.0000
SPC            2    7438  123456  0.0000
SPC            2    7439  123456  0.0000
SPC            2    7440  123456  0.0000
SPC            2    7441  123456  0.0000
SPC            2    7442  123456  0.0000
SPC            2    7443  123456  0.0000
SPC            2    7444  123456  0.0000
SPC            2    7445  123456  0.0000
SPC            2    7446  123456  0.0000
SPC            2    7447  123456  0.0000
SPC            2    7448  123456  0.0000
SPC            2    7449  123456  0.0000
SPC            2    7450  123456  0.0000
SPC            2    7451  123456  0.0000
SPC            2    7452  123456  0.0000
SPC            2    7453  123456  0.0000
SPC            2    7454  123456  0.0000
SPC            2    7455  123456  0.0000
SPC            2    7456  123456  0.0000
SPC            2    7457  123456  0.0000
SPC            2    7458  123456  0.0000
SPC            2    7459  123456  0.0000
SPC            2    7460  123456  0.0000
SPC            2    7461  123456  0.0000
SPC            2    7462  123456  0.0000
SPC            2    7463  123456  0.0000
SPC            2    7464  123456  0.0000
SPC            2    7465  123456  0.0000
SPC            2    7466  123456  0.0000
SPC            2    7467  123456  0.0000
SPC            2    7468  123456  0.0000
SPC            2    7469  123456  0.0000
SPC            2    7470  123456  0.0000
SPC            2    7471  123456  0.0000
SPC            2    7472  123456  0.0000
SPC            2    7473  123456  0.0000
SPC            2    7474  123456  0.0000
SPC            2    7475  123456  0.0000
SPC            2    7476  123456  0.0000
SPC            2    7477  123456  0.0000
SPC            2    7478  123456  0.0000
SPC            2    7479  123456  0.0000
SPC            2    7480  123456  0.0000
SPC            2    7481  123456  0.0000
SPC            2    7482  123456  0.0000
SPC            2    7483  123456  0.0000
SPC            2    7484  123456  0.0000
SPC            2    7485  123456  0.0000
SPC            2    7486  123456  0.0000
SPC            2    7487  123456  0.0000
SPC            2    7488  123456  0.0000
SPC            2    7489  123456  0.0000
SPC            2    7490  123456  0.0000
SPC            2    7491  123456  0.0000
SPC            2    7492  123456  0.0000
SPC            2    7493  123456  0.0000
SPC            2    7494  123456  0.0000
SPC            2    7495  123456  0.0000
SPC            2    7496  123456  0.0000
SPC            2    7497  123456  0.0000
SPC            2    7498  123456  0.0000
SPC            2    7499  123456  0.0000
SPC            2    7500  123456  0.0000
SPC            2    7501  123456  0.0000
SPC            2    7502  123456  0.0000
SPC            2    7503  123456  0.0000
SPC            2    7504  123456  0.0000
SPC            2    7505  123456  0.0000
SPC            2    7506  123456  0.0000
SPC            2    7507  123456  0.0000
SPC            2    7508  123456  0.0000
SPC            2    7509  123456  0.0000
SPC            2    7510  123456  0.0000
SPC            2    7511  123456  0.0000
SPC            2    7512  123456  0.0000
SPC            2    7513  123456  0.0000
SPC            2    7514  123456  0.0000
SPC            2    7515  123456  0.0000
SPC            2    7516  123456  0.0000
SPC            2    7517  123456  0.0000
SPC            2    7518  123456  0.0000
SPC            2    7519  123456  0.0000
SPC            2    7520  123456  0.0000
SPC            2    7521  123456  0.0000
SPC            2    7522  123456  0.0000
SPC            2    7523  123456  0.0000
SPC            2    7524  123456  0.0000
SPC            2    7525  123456  0.0000
SPC            2    7526  123456  0.0000
SPC            2    7527  123456  0.0000
SPC            2    7528  123456  0.0000
SPC            2    7529  123456  0.0000
SPC            2    7530  123456  0.0000
SPC            2    7531  123456  0.0000
SPC            2    7532  123456  0.0000
SPC            2    7533  123456  0.0000
SPC            2    7534  123456  0.0000
SPC            2    7535  123456  0.0000
SPC            2    7536  123456  0.0000
SPC            2    7537  123456  0.0000
SPC            2    7538  123456  0.0000
SPC            2    7539  123456  0.0000
SPC            2    7540  123456  0.0000
SPC            2    7541  123456  0.0000
SPC            2    7542  123456  0.0000
SPC            2    7543  123456  0.0000
SPC            2    7544  123456  0.0000
SPC            2    7545  123456  0.0000
SPC            2    7546  123456  0.0000
SPC            2    7547  123456  0.0000
SPC            2    7548  123456  0.0000
SPC            2    7549  123456  0.0000
SPC            2    7550  123456  0.0000
SPC            2    7551  123456  0.0000
SPC            2    7552  123456  0.0000
SPC            2    7553  123456  0.0000
SPC            2    7554  123456  0.0000
SPC            2    7555  123456  0.0000
SPC            2    7556  123456  0.0000
SPC            2    7557  123456  0.0000
SPC            2    7558  123456  0.0000
SPC            2    7559  123456  0.0000
SPC            2    7560  123456  0.0000
SPC            2    7561  123456  0.0000
SPC            2    7562  123456  0.0000
SPC            2    7563  123456  0.0000
SPC            2    7564  123456  0.0000
SPC            2    7565  123456  0.0000
SPC            2    7566  123456  0.0000
SPC            2    7567  123456  0.0000
SPC            2    7568  123456  0.0000
SPC            2    7569  123456  0.0000
SPC            2    7570  123456  0.0000
SPC            2    7571  123456  0.0000
SPC            2    7572  123456  0.0000
SPC            2    7573  123456  0.0000
SPC            2    7574  123456  0.0000
SPC            2    7575  123456  0.0000
SPC            2    7576  123456  0.0000
SPC            2    7577  123456  0.0000
SPC            2    7578  123456  0.0000
SPC            2    7579  123456  0.0000
SPC            2    7580  123456  0.0000
SPC            2    7581  123456  0.0000
SPC            2    7582  123456  0.0000
SPC            2    7583  123456  0.0000
SPC            2    7584  123456  0.0000
SPC            2    7585  123456  0.0000
SPC            2    7586  123456  0.0000
SPC            2    7587  123456  0.0000
SPC            2    7588  123456  0.0000
SPC            2    7589  123456  0.0000
SPC            2    7590  123456  0.0000
SPC            2    7591  123456  0.0000
SPC            2    7592  123456  0.0000
SPC            2    7593  123456  0.0000
SPC            2    7594  123456  0.0000
SPC            2    7595  123456  0.0000
SPC            2    7596  123456  0.0000
SPC            2    7597  123456  0.0000
SPC            2    7598  123456  0.0000
SPC            2    7599  123456  0.0000
SPC            2    7600  123456  0.0000
SPC            2    7601  123456  0.0000
SPC            2    7602  123456  0.0000
SPC            2    7603  123456  0.0000
SPC            2    7604  123456  0.0000
SPC            2    7605  123456  0.0000
SPC            2    7606  123456  0.0000
SPC            2    7607  123456  0.0000
SPC            2    7608  123456  0.0000
SPC            2    7609  123456  0.0000
SPC            2    7610  123456  0.0000
SPC            2    7611  123456  0.0000
SPC            2    7612  123456  0.0000
SPC            2    7613  123456  0.0000
SPC            2    7614  123456  0.0000
SPC            2    7615  123456  0.0000
SPC            2    7616  123456  0.0000
SPC            2    7617  123456  0.0000
SPC            2    7618  123456  0.0000
SPC            2    7619  123456  0.0000
SPC            2    7620  123456  0.0000
SPC            2    7621  123456  0.0000
SPC            2    7622  123456  0.0000
SPC            2    7623  123456  0.0000
SPC            2    7624  123456  0.0000
SPC            2    7625  123456  0.0000
SPC            2    7626  123456  0.0000
SPC            2    7627  123456  0.0000
SPC            2    7628  123456  0.0000
SPC            2    7629  123456  0.0000
SPC            2    7630  123456  0.0000
SPC            2    7631  123456  0.0000
SPC            2    7632  123456  0.0000
SPC            2    7633  123456  0.0000
SPC            2    7634  123456  0.0000
SPC            2    7635  123456  0.0000
SPC            2    7636  123456  0.0000
SPC            2    7637  123456  0.0000
SPC            2    7638  123456  0.0000
SPC            2    7639  123456  0.0000
SPC            2    7640  123456  0.0000
SPC            2    7641  123456  0.0000
SPC            2    7642  123456  0.0000
SPC            2    7643  123456  0.0000
SPC            2    7644  123456  0.0000
SPC            2    7645  123456  0.0000
SPC            2    7646  123456  0.0000
SPC            2    7647  123456  0.0000
SPC            2    7648  123456  0.0000
SPC            2    7649  123456  0.0000
SPC            2    7650  123456  0.0000
SPC            2    7651  123456  0.0000
SPC            2    7652  123456  0.0000
SPC            2    7653  123456  0.0000
SPC            2    7654  123456  0.0000
SPC            2    7655  123456  0.0000
SPC            2    7656  123456  0.0000
SPC            2    7657  123456  0.0000
SPC            2    7658  123456  0.0000
SPC            2    7659  123456  0.0000
SPC            2    7660  123456  0.0000
SPC            2    7661  123456  0.0000
SPC            2    7662  123456  0.0000
SPC            2    7663  123456  0.0000
SPC            2    7664  123456  0.0000
SPC            2    7665  123456  0.0000
SPC            2    7666  123456  0.0000
SPC            2    7667  123456  0.0000
SPC            2    7668  123456  0.0000
SPC            2    7669  123456  0.0000
SPC            2    7670  123456  0.0000
SPC            2    7671  123456  0.0000
SPC            2    7672  123456  0.0000
SPC            2    7673  123456  0.0000
SPC            2    7674  123456  0.0000
SPC            2    7675  123456  0.0000
SPC            2    7676  123456  0.0000
SPC            2    7677  123456  0.0000
SPC            2    7678  123456  0.0000
SPC            2    7679  123456  0.0000
SPC            2    7680  123456  0.0000
SPC            2    7681  123456  0.0000
SPC            2    7682  123456  0.0000
SPC            2    7683  123456  0.0000
SPC            2    7684  123456  0.0000
SPC            2    7685  123456  0.0000
SPC            2    7686  123456  0.0000
SPC            2    7687  123456  0.0000
SPC            2    7688  123456  0.0000
SPC            2    7689  123456  0.0000
SPC            2    7690  123456  0.0000
SPC            2    7691  123456  0.0000
SPC            2    7692  123456  0.0000
SPC            2    7693  123456  0.0000
SPC            2    7694  123456  0.0000
SPC            2    7695  123456  0.0000
SPC            2    7696  123456  0.0000
SPC            2    7697  123456  0.0000
SPC            2    7698  123456  0.0000
SPC            2    7699  123456  0.0000
SPC            2    7700  123456  0.0000
SPC            2    7701  123456  0.0000
SPC            2    7702  123456  0.0000
SPC            2    7703  123456  0.0000
SPC            2    7704  123456  0.0000
SPC            2    7705  123456  0.0000
SPC            2    7706  123456  0.0000
SPC            2    7707  123456  0.0000
SPC            2    7708  123456  0.0000
SPC            2    7709  123456  0.0000
SPC            2    7710  123456  0.0000
SPC            2    7711  123456  0.0000
SPC            2    7712  123456  0.0000
SPC            2    7713  123456  0.0000
SPC            2    7714  123456  0.0000
SPC            2    7715  123456  0.0000
SPC            2    7716  123456  0.0000
SPC            2    7717  123456  0.0000
SPC            2    7718  123456  0.0000
SPC            2    7719  123456  0.0000
SPC            2    7720  123456  0.0000
SPC            2    7721  123456  0.0000
SPC            2    7722  123456  0.0000
SPC            2    7723  123456  0.0000
SPC            2    7724  123456  0.0000
SPC            2    7725  123456  0.0000
SPC            2    7726  123456  0.0000
SPC            2    7727  123456  0.0000
SPC            2    7728  123456  0.0000
SPC            2    7729  123456  0.0000
SPC            2    7730  123456  0.0000
SPC            2    7731  123456  0.0000
SPC            2    7732  123456  0.0000
SPC            2    7733  123456  0.0000
SPC            2    7734  123456  0.0000
SPC            2    7735  123456  0.0000
SPC            2    7736  123456  0.0000
SPC            2    7737  123456  0.0000
SPC            2    7738  123456  0.0000
SPC            2    7739  123456  0.0000
SPC            2    7740  123456  0.0000
SPC            2    7741  123456  0.0000
SPC            2    7742  123456  0.0000
SPC            2    7743  123456  0.0000
SPC            2    7744  123456  0.0000
SPC            2    7745  123456  0.0000
SPC            2    7746  123456  0.0000
SPC            2    7747  123456  0.0000
SPC            2    7748  123456  0.0000
SPC            2    7749  123456  0.0000
SPC            2    7750  123456  0.0000
SPC            2    7751  123456  0.0000
SPC            2    7752  123456  0.0000
SPC            2    7753  123456  0.0000
SPC            2    7754  123456  0.0000
SPC            2    7755  123456  0.0000
SPC            2    7756  123456  0.0000
SPC            2    7757  123456  0.0000
SPC            2    7758  123456  0.0000
SPC            2    7759  123456  0.0000
SPC            2    7760  123456  0.0000
SPC            2    7761  123456  0.0000
SPC            2    7762  123456  0.0000
SPC            2    7763  123456  0.0000
SPC            2    7764  123456  0.0000
SPC            2    7765  123456  0.0000
SPC            2    7766  123456  0.0000
SPC            2    7767  123456  0.0000
SPC            2    7768  123456  0.0000
SPC            2    7769  123456  0.0000
SPC            2    7770  123456  0.0000
SPC            2    7771  123456  0.0000
SPC            2    7772  123456  0.0000
SPC            2    7773  123456  0.0000
SPC            2    7774  123456  0.0000
SPC            2    7775  123456  0.0000
SPC            2    7776  123456  0.0000
SPC            2    7777  123456  0.0000
SPC            2    7778  123456  0.0000
SPC            2    7779  123456  0.0000
SPC            2    7780  123456  0.0000
SPC            2    7781  123456  0.0000
SPC            2    7782  123456  0.0000
SPC            2    7783  123456  0.0000
SPC            2    7784  123456  0.0000
SPC            2    7785  123456  0.0000
SPC            2    7786  123456  0.0000
SPC            2    7787  123456  0.0000
SPC            2    7788  123456  0.0000
SPC            2    7789  123456  0.0000
SPC            2    7790  123456  0.0000
SPC            2    7791  123456  0.0000
SPC            2    7792  123456  0.0000
SPC            2    7793  123456  0.0000
SPC            2    7794  123456  0.0000
SPC            2    7795  123456  0.0000
SPC            2    7796  123456  0.0000
SPC            2    7797  123456  0.0000
SPC            2    7798  123456  0.0000
SPC            2    7799  123456  0.0000
SPC            2    7800  123456  0.0000
SPC            2    7801  123456  0.0000
SPC            2    7802  123456  0.0000
SPC            2    7803  123456  0.0000
SPC            2    7804  123456  0.0000
SPC            2    7805  123456  0.0000
SPC            2    7806  123456  0.0000
SPC            2    7807  123456  0.0000
SPC            2    7808  123456  0.0000
SPC            2    7809  123456  0.0000
SPC            2    7810  123456  0.0000
SPC            2    7811  123456  0.0000
SPC            2    7812  123456  0.0000
SPC            2    7813  123456  0.0000
SPC            2    7814  123456  0.0000
SPC            2    7815  123456  0.0000
SPC            2    7816  123456  0.0000
SPC            2    7817  123456  0.0000
SPC            2    7818  123456  0.0000
SPC            2    7819  123456  0.0000
SPC            2    7820  123456  0.0000
SPC            2    7821  123456  0.0000
SPC            2    7822  123456  0.0000
SPC            2    7823  123456  0.0000
SPC            2    7824  123456  0.0000
SPC            2    7825  123456  0.0000
SPC            2    7826  123456  0.0000
SPC            2    7827  123456  0.0000
SPC            2    7828  123456  0.0000
SPC            2    7829  123456  0.0000
SPC            2    7830  123456  0.0000
SPC            2    7831  123456  0.0000
SPC            2    7832  123456  0.0000
SPC            2    7833  123456  0.0000
SPC            2    7834  123456  0.0000
SPC            2    7835  123456  0.0000
SPC            2    7836  123456  0.0000
SPC            2    7837  123456  0.0000
SPC            2    7838  123456  0.0000
SPC            2    7839  123456  0.0000
SPC            2    7840  123456  0.0000
SPC            2    7841  123456  0.0000
SPC            2    7842  123456  0.0000
SPC            2    7843  123456  0.0000
SPC            2    7844  123456  0.0000
SPC            2    7845  123456  0.0000
SPC            2    7846  123456  0.0000
SPC            2    7847  123456  0.0000
SPC            2    7848  123456  0.0000
SPC            2    7849  123456  0.0000
SPC            2    7850  123456  0.0000
SPC            2    7851  123456  0.0000
SPC            2    7852  123456  0.0000
SPC            2    7853  123456  0.0000
SPC            2    7854  123456  0.0000
SPC            2    7855  123456  0.0000
SPC            2    7856  123456  0.0000
SPC            2    7857  123456  0.0000
SPC            2    7858  123456  0.0000
SPC            2    7859  123456  0.0000
SPC            2    7860  123456  0.0000
SPC            2    7861  123456  0.0000
SPC            2    7862  123456  0.0000
SPC            2    7863  123456  0.0000
SPC            2    7864  123456  0.0000
SPC            2    7865  123456  0.0000
SPC            2    7866  123456  0.0000
SPC            2    7867  123456  0.0000
SPC            2    7868  123456  0.0000
SPC            2    7869  123456  0.0000
SPC            2    7870  123456  0.0000
SPC            2    7871  123456  0.0000
SPC            2    7872  123456  0.0000
SPC            2    7873  123456  0.0000
SPC            2    7874  123456  0.0000
SPC            2    7875  123456  0.0000
SPC            2    7876  123456  0.0000
SPC            2    7877  123456  0.0000
SPC            2    7878  123456  0.0000
SPC            2    7879  123456  0.0000
SPC            2    7880  123456  0.0000
SPC            2    7881  123456  0.0000
SPC            2    7882  123456  0.0000
SPC            2    7883  123456  0.0000
SPC            2    7884  123456  0.0000
SPC            2    7885  123456  0.0000
SPC            2    7886  123456  0.0000
SPC            2    7887  123456  0.0000
SPC            2    7888  123456  0.0000
SPC            2    7889  123456  0.0000
SPC            2    7890  123456  0.0000
SPC            2    7891  123456  0.0000
SPC            2    7892  123456  0.0000
SPC            2    7893  123456  0.0000
SPC            2    7894  123456  0.0000
SPC            2    7895  123456  0.0000
SPC            2    7896  123456  0.0000
SPC            2    7897  123456  0.0000
SPC            2    7898  123456  0.0000
SPC            2    7899  123456  0.0000
SPC            2    7900  123456  0.0000
SPC            2    7901  123456  0.0000
SPC            2    7902  123456  0.0000
SPC            2    7903  123456  0.0000
SPC            2    7904  123456  0.0000
SPC            2    7905  123456  0.0000
SPC            2    7906  123456  0.0000
SPC            2    7907  123456  0.0000
SPC            2    7908  123456  0.0000
SPC            2    7909  123456  0.0000
SPC            2    7910  123456  0.0000
SPC            2    7911  123456  0.0000
SPC            2    7912  123456  0.0000
SPC            2    7913  123456  0.0000
SPC            2    7914  123456  0.0000
SPC            2    7915  123456  0.0000
SPC            2    7916  123456  0.0000
SPC            2    7917  123456  0.0000
SPC            2    7918  123456  0.0000
SPC            2    7919  123456  0.0000
SPC            2    7920  123456  0.0000
SPC            2    7921  123456  0.0000
SPC            2    7922  123456  0.0000
SPC            2    7923  123456  0.0000
SPC            2    7924  123456  0.0000
SPC            2    7925  123456  0.0000
SPC            2    7926  123456  0.0000
SPC            2    7927  123456  0.0000
SPC            2    7928  123456  0.0000
SPC            2    7929  123456  0.0000
SPC            2    7930  123456  0.0000
SPC            2    7931  123456  0.0000
SPC            2    7932  123456  0.0000
SPC            2    7933  123456  0.0000
SPC            2    7934  123456  0.0000
SPC            2    7935  123456  0.0000
SPC            2    7936  123456  0.0000
SPC            2    7937  123456  0.0000
SPC            2    7938  123456  0.0000
SPC            2    7939  123456  0.0000
SPC            2    7940  123456  0.0000
SPC            2    7941  123456  0.0000
SPC            2    7942  123456  0.0000
SPC            2    7943  123456  0.0000
SPC            2    7944  123456  0.0000
SPC            2    7945  123456  0.0000
SPC            2    7946  123456  0.0000
SPC            2    7947  123456  0.0000
SPC            2    7948  123456  0.0000
SPC            2    7949  123456  0.0000
SPC            2    7950  123456  0.0000
SPC            2    7951  123456  0.0000
SPC            2    7952  123456  0.0000
SPC            2    7953  123456  0.0000
SPC            2    7954  123456  0.0000
SPC            2    7955  123456  0.0000
SPC            2    7956  123456  0.0000
SPC            2    7957  123456  0.0000
SPC            2    7958  123456  0.0000
SPC            2    7959  123456  0.0000
SPC            2    7960  123456  0.0000
SPC            2    7961  123456  0.0000
SPC            2    7962  123456  0.0000
SPC            2    7963  123456  0.0000
SPC            2    7964  123456  0.0000
SPC            2    7965  123456  0.0000
SPC            2    7966  123456  0.0000
SPC            2    7967  123456  0.0000
SPC            2    7968  123456  0.0000
SPC            2    7969  123456  0.0000
SPC            2    7970  123456  0.0000
SPC            2    7971  123456  0.0000
SPC            2    7972  123456  0.0000
SPC            2    7973  123456  0.0000
SPC            2    7974  123456  0.0000
SPC            2    7975  123456  0.0000
SPC            2    7976  123456  0.0000
SPC            2    7977  123456  0.0000
SPC            2    7978  123456  0.0000
SPC            2    7979  123456  0.0000
SPC            2    7980  123456  0.0000
SPC            2    7981  123456  0.0000
SPC            2    7982  123456  0.0000
SPC            2    7983  123456  0.0000
SPC            2    7984  123456  0.0000
SPC            2    7985  123456  0.0000
SPC            2    7986  123456  0.0000
SPC            2    7987  123456  0.0000
SPC            2    7988  123456  0.0000
SPC            2    7989  123456  0.0000
SPC            2    7990  123456  0.0000
SPC            2    7991  123456  0.0000
SPC            2    7992  123456  0.0000
SPC            2    7993  123456  0.0000
SPC            2    7994  123456  0.0000
SPC            2    7995  123456  0.0000
SPC            2    7996  123456  0.0000
SPC            2    7997  123456  0.0000
SPC            2    7998  123456  0.0000
SPC            2    7999  123456  0.0000
SPC            2    8000  123456  0.0000
SPC            2    8001  123456  0.0000
SPC            2    8002  123456  0.0000
SPC            2    8003  123456  0.0000
SPC            2    8004  123456  0.0000
SPC            2    8005  123456  0.0000
SPC            2    8006  123456  0.0000
SPC            2    8007  123456  0.0000
SPC            2    8008  123456  0.0000
SPC            2    8009  123456  0.0000
SPC            2    8010  123456  0.0000
SPC            2    8011  123456  0.0000
SPC            2    8012  123456  0.0000
SPC            2    8013  123456  0.0000
SPC            2    8014  123456  0.0000
SPC            2    8015  123456  0.0000
SPC            2    8016  123456  0.0000
SPC            2    8017  123456  0.0000
SPC            2    8018  123456  0.0000
SPC            2    8019  123456  0.0000
SPC            2    8020  123456  0.0000
SPC            2    8021  123456  0.0000
SPC            2    8022  123456  0.0000
SPC            2    8023  123456  0.0000
SPC            2    8024  123456  0.0000
SPC            2    8025  123456  0.0000
SPC            2    8026  123456  0.0000
SPC            2    8027  123456  0.0000
SPC            2    8028  123456  0.0000
SPC            2    8029  123456  0.0000
SPC            2    8030  123456  0.0000
SPC            2    8031  123456  0.0000
SPC            2    8032  123456  0.0000
SPC            2    8033  123456  0.0000
SPC            2    8034  123456  0.0000
SPC            2    8035  123456  0.0000
SPC            2    8036  123456  0.0000
SPC            2    8037  123456  0.0000
SPC            2    8038  123456  0.0000
SPC            2    8039  123456  0.0000
SPC            2    8040  123456  0.0000
SPC            2    8041  123456  0.0000
SPC            2    8042  123456  0.0000
SPC            2    8043  123456  0.0000
SPC            2    8044  123456  0.0000
SPC            2    8045  123456  0.0000
SPC            2    8046  123456  0.0000
SPC            2    8047  123456  0.0000
SPC            2    8048  123456  0.0000
SPC            2    8049  123456  0.0000
SPC            2    8050  123456  0.0000
SPC            2    8051  123456  0.0000
SPC            2    8052  123456  0.0000
SPC            2    8053  123456  0.0000
SPC            2    8054  123456  0.0000
SPC            2    8055  123456  0.0000
SPC            2    8056  123456  0.0000
SPC            2    8057  123456  0.0000
SPC            2    8058  123456  0.0000
SPC            2    8059  123456  0.0000
SPC            2    8060  123456  0.0000
SPC            2    8061  123456  0.0000
SPC            2    8062  123456  0.0000
SPC            2    8063  123456  0.0000
SPC            2    8064  123456  0.0000
SPC            2    8065  123456  0.0000
SPC            2    8066  123456  0.0000
SPC            2    8067  123456  0.0000
SPC            2    8068  123456  0.0000
SPC            2    8069  123456  0.0000
SPC            2    8070  123456  0.0000
SPC            2    8071  123456  0.0000
SPC            2    8072  123456  0.0000
SPC            2    8073  123456  0.0000
SPC            2    8074  123456  0.0000
SPC            2    8075  123456  0.0000
SPC            2    8076  123456  0.0000
SPC            2    8077  123456  0.0000
SPC            2    8078  123456  0.0000
SPC            2    8079  123456  0.0000
SPC            2    8080  123456  0.0000
SPC            2    8081  123456  0.0000
SPC            2    8082  123456  0.0000
SPC            2    8083  123456  0.0000
SPC            2    8084  123456  0.0000
SPC            2    8085  123456  0.0000
SPC            2    8086  123456  0.0000
SPC            2    8087  123456  0.0000
SPC            2    8088  123456  0.0000
SPC            2    8089  123456  0.0000
SPC            2    8090  123456  0.0000
SPC            2    8091  123456  0.0000
SPC            2    8092  123456  0.0000
SPC            2    8093  123456  0.0000
SPC            2    8094  123456  0.0000
SPC            2    8095  123456  0.0000
SPC            2    8096  123456  0.0000
SPC            2    8097  123456  0.0000
SPC            2    8098  123456  0.0000
SPC            2    8099  123456  0.0000
SPC            2    8100  123456  0.0000
SPC            2    8101  123456  0.0000
SPC            2    8102  123456  0.0000
SPC            2    8103  123456  0.0000
SPC            2    8104  123456  0.0000
SPC            2    8105  123456  0.0000
SPC            2    8106  123456  0.0000
SPC            2    8107  123456  0.0000
SPC            2    8108  123456  0.0000
SPC            2    8109  123456  0.0000
SPC            2    8110  123456  0.0000
SPC            2    8111  123456  0.0000
SPC            2    8112  123456  0.0000
SPC            2    8113  123456  0.0000
SPC            2    8114  123456  0.0000
SPC            2    8115  123456  0.0000
SPC            2    8116  123456  0.0000
SPC            2    8117  123456  0.0000
SPC            2    8118  123456  0.0000
SPC            2    8119  123456  0.0000
SPC            2    8120  123456  0.0000
SPC            2    8121  123456  0.0000
SPC            2    8122  123456  0.0000
SPC            2    8123  123456  0.0000
SPC            2    8124  123456  0.0000
SPC            2    8125  123456  0.0000
SPC            2    8126  123456  0.0000
SPC            2    8127  123456  0.0000
SPC            2    8128  123456  0.0000
SPC            2    8129  123456  0.0000
SPC            2    8130  123456  0.0000
SPC            2    8131  123456  0.0000
SPC            2    8132  123456  0.0000
SPC            2    8133  123456  0.0000
SPC            2    8134  123456  0.0000
SPC            2    8135  123456  0.0000
SPC            2    8136  123456  0.0000
SPC            2    8137  123456  0.0000
SPC            2    8138  123456  0.0000
SPC            2    8139  123456  0.0000
SPC            2    8140  123456  0.0000
SPC            2    8141  123456  0.0000
SPC            2    8142  123456  0.0000
SPC            2    8143  123456  0.0000
SPC            2    8144  123456  0.0000
SPC            2    8145  123456  0.0000
SPC            2    8146  123456  0.0000
SPC            2    8147  123456  0.0000
SPC            2    8148  123456  0.0000
SPC            2    8149  123456  0.0000
SPC            2    8150  123456  0.0000
SPC            2    8151  123456  0.0000
SPC            2    8152  123456  0.0000
SPC            2    8153  123456  0.0000
SPC            2    8154  123456  0.0000
SPC            2    8155  123456  0.0000
SPC            2    8156  123456  0.0000
SPC            2    8157  123456  0.0000
SPC            2    8158  123456  0.0000
SPC            2    8159  123456  0.0000
SPC            2    8160  123456  0.0000
SPC            2    8161  123456  0.0000
SPC            2    8162  123456  0.0000
SPC            2    8163  123456  0.0000
SPC            2    8164  123456  0.0000
SPC            2    8165  123456  0.0000
SPC            2    8166  123456  0.0000
SPC            2    8167  123456  0.0000
SPC            2    8168  123456  0.0000
SPC            2    8169  123456  0.0000
SPC            2    8170  123456  0.0000
SPC            2    8171  123456  0.0000
SPC            2    8172  123456  0.0000
SPC            2    8173  123456  0.0000
SPC            2    8174  123456  0.0000
SPC            2    8175  123456  0.0000
SPC            2    8176  123456  0.0000
SPC            2    8177  123456  0.0000
SPC            2    8178  123456  0.0000
SPC            2    8179  123456  0.0000
SPC            2    8180  123456  0.0000
SPC            2    8181  123456  0.0000
SPC            2    8182  123456  0.0000
SPC            2    8183  123456  0.0000
SPC            2    8184  123456  0.0000
SPC            2    8185  123456  0.0000
SPC            2    8186  123456  0.0000
SPC            2    8187  123456  0.0000
SPC            2    8188  123456  0.0000
SPC            2    8189  123456  0.0000
SPC            2    8190  123456  0.0000
SPC            2    8191  123456  0.0000
SPC            2    8192  123456  0.0000
SPC            2    8193  123456  0.0000
SPC            2    8194  123456  0.0000
SPC            2    8195  123456  0.0000
SPC            2    8196  123456  0.0000
SPC            2    8197  123456  0.0000
SPC            2    8198  123456  0.0000
SPC            2    8199  123456  0.0000
SPC            2    8200  123456  0.0000
SPC            2    8201  123456  0.0000
SPC            2    8202  123456  0.0000
SPC            2    8203  123456  0.0000
SPC            2    8204  123456  0.0000
SPC            2    8205  123456  0.0000
SPC            2    8206  123456  0.0000
SPC            2    8207  123456  0.0000
SPC            2    8208  123456  0.0000
SPC            2    8209  123456  0.0000
SPC            2    8210  123456  0.0000
SPC            2    8211  123456  0.0000
SPC            2    8212  123456  0.0000
SPC            2    8213  123456  0.0000
SPC            2    8214  123456  0.0000
SPC            2    8215  123456  0.0000
SPC            2    8216  123456  0.0000
SPC            2    8217  123456  0.0000
SPC            2    8218  123456  0.0000
SPC            2    8219  123456  0.0000
SPC            2    8220  123456  0.0000
SPC            2    8221  123456  0.0000
SPC            2    8222  123456  0.0000
SPC            2    8223  123456  0.0000
SPC            2    8224  123456  0.0000
SPC            2    8225  123456  0.0000
SPC            2    8226  123456  0.0000
SPC            2    8227  123456  0.0000
SPC            2    8228  123456  0.0000
SPC            2    8229  123456  0.0000
SPC            2    8230  123456  0.0000
SPC            2    8231  123456  0.0000
SPC            2    8232  123456  0.0000
SPC            2    8233  123456  0.0000
SPC            2    8234  123456  0.0000
SPC            2    8235  123456  0.0000
SPC            2    8236  123456  0.0000
SPC            2    8237  123456  0.0000
SPC            2    8238  123456  0.0000
SPC            2    8239  123456  0.0000
SPC            2    8240  123456  0.0000
SPC            2    8241  123456  0.0000
SPC            2    8242  123456  0.0000
SPC            2    8243  123456  0.0000
SPC            2    8244  123456  0.0000
SPC            2    8245  123456  0.0000
SPC            2    8246  123456  0.0000
SPC            2    8247  123456  0.0000
SPC            2    8248  123456  0.0000
SPC            2    8249  123456  0.0000
SPC            2    8250  123456  0.0000
SPC            2    8251  123456  0.0000
SPC            2    8252  123456  0.0000
SPC            2    8253  123456  0.0000
SPC            2    8254  123456  0.0000
SPC            2    8255  123456  0.0000
SPC            2    8256  123456  0.0000
SPC            2    8257  123456  0.0000
SPC            2    8258  123456  0.0000
SPC            2    8259  123456  0.0000
SPC            2    8260  123456  0.0000
SPC            2    8261  123456  0.0000
SPC            2    8262  123456  0.0000
SPC            2    8263  123456  0.0000
SPC            2    8264  123456  0.0000
SPC            2    8265  123456  0.0000
SPC            2    8266  123456  0.0000
SPC            2    8267  123456  0.0000
SPC            2    8268  123456  0.0000
SPC            2    8269  123456  0.0000
SPC            2    8270  123456  0.0000
SPC            2    8271  123456  0.0000
SPC            2    8272  123456  0.0000
SPC            2    8273  123456  0.0000
SPC            2    8274  123456  0.0000
SPC            2    8275  123456  0.0000
SPC            2    8276  123456  0.0000
SPC            2    8277  123456  0.0000
SPC            2    8278  123456  0.0000
SPC            2    8279  123456  0.0000
SPC            2    8280  123456  0.0000
SPC            2    8281  123456  0.0000
SPC            2    8282  123456  0.0000
SPC            2    8283  123456  0.0000
SPC            2    8284  123456  0.0000
SPC            2    8285  123456  0.0000
SPC            2    8286  123456  0.0000
SPC            2    8287  123456  0.0000
SPC            2    8288  123456  0.0000
SPC            2    8289  123456  0.0000
SPC            2    8290  123456  0.0000
SPC            2    8291  123456  0.0000
SPC            2    8292  123456  0.0000
SPC            2    8293  123456  0.0000
SPC            2    8294  123456  0.0000
SPC            2    8295  123456  0.0000
SPC            2    8296  123456  0.0000
SPC            2    8297  123456  0.0000
SPC            2    8298  123456  0.0000
SPC            2    8299  123456  0.0000
SPC            2    8300  123456  0.0000
SPC            2    8301  123456  0.0000
SPC            2    8302  123456  0.0000
SPC            2    8303  123456  0.0000
SPC            2    8304  123456  0.0000
SPC            2    8305  123456  0.0000
SPC            2    8306  123456  0.0000
SPC            2    8307  123456  0.0000
SPC            2    8308  123456  0.0000
SPC            2    8309  123456  0.0000
SPC            2    8310  123456  0.0000
SPC            2    8311  123456  0.0000
SPC            2    8312  123456  0.0000
SPC            2    8313  123456  0.0000
SPC            2    8314  123456  0.0000
SPC            2    8315  123456  0.0000
SPC            2    8316  123456  0.0000
SPC            2    8317  123456  0.0000
SPC            2    8318  123456  0.0000
SPC            2    8319  123456  0.0000
SPC            2    8320  123456  0.0000
SPC            2    8321  123456  0.0000
SPC            2    8322  123456  0.0000
SPC            2    8323  123456  0.0000
SPC            2    8324  123456  0.0000
SPC            2    8325  123456  0.0000
SPC            2    8326  123456  0.0000
SPC            2    8327  123456  0.0000
SPC            2    8328  123456  0.0000
SPC            2    8329  123456  0.0000
SPC            2    8330  123456  0.0000
SPC            2    8331  123456  0.0000
SPC            2    8332  123456  0.0000
SPC            2    8333  123456  0.0000
SPC            2    8334  123456  0.0000
SPC            2    8335  123456  0.0000
SPC            2    8336  123456  0.0000
SPC            2    8337  123456  0.0000
SPC            2    8338  123456  0.0000
SPC            2    8339  123456  0.0000
SPC            2    8340  123456  0.0000
SPC            2    8341  123456  0.0000
SPC            2    8342  123456  0.0000
SPC            2    8343  123456  0.0000
SPC            2    8344  123456  0.0000
SPC            2    8345  123456  0.0000
SPC            2    8346  123456  0.0000
SPC            2    8347  123456  0.0000
SPC            2    8348  123456  0.0000
SPC            2    8349  123456  0.0000
SPC            2    8350  123456  0.0000
SPC            2    8351  123456  0.0000
SPC            2    8352  123456  0.0000
SPC            2    8353  123456  0.0000
SPC            2    8354  123456  0.0000
SPC            2    8355  123456  0.0000
SPC            2    8356  123456  0.0000
SPC            2    8357  123456  0.0000
SPC            2    8358  123456  0.0000
SPC            2    8359  123456  0.0000
SPC            2    8360  123456  0.0000
SPC            2    8361  123456  0.0000
SPC            2    8362  123456  0.0000
SPC            2    8363  123456  0.0000
SPC            2    8364  123456  0.0000
SPC            2    8365  123456  0.0000
SPC            2    8366  123456  0.0000
SPC            2    8367  123456  0.0000
SPC            2    8368  123456  0.0000
SPC            2    8369  123456  0.0000
SPC            2    8370  123456  0.0000
SPC            2    8371  123456  0.0000
SPC            2    8372  123456  0.0000
SPC            2    8373  123456  0.0000
SPC            2    8374  123456  0.0000
SPC            2    8375  123456  0.0000
SPC            2    8376  123456  0.0000
SPC            2    8377  123456  0.0000
SPC            2    8378  123456  0.0000
SPC            2    8379  123456  0.0000
SPC            2    8380  123456  0.0000
SPC            2    8381  123456  0.0000
SPC            2    8382  123456  0.0000
SPC            2    8383  123456  0.0000
SPC            2    8384  123456  0.0000
SPC            2    8385  123456  0.0000
SPC            2    8386  123456  0.0000
SPC            2    8387  123456  0.0000
SPC            2    8388  123456  0.0000
SPC            2    8389  123456  0.0000
SPC            2    8390  123456  0.0000
SPC            2    8391  123456  0.0000
SPC            2    8392  123456  0.0000
SPC            2    8393  123456  0.0000
SPC            2    8394  123456  0.0000
SPC            2    8395  123456  0.0000
SPC            2    8396  123456  0.0000
SPC            2    8397  123456  0.0000
SPC            2    8398  123456  0.0000
SPC            2    8399  123456  0.0000
SPC            2    8400  123456  0.0000
SPC            2    8401  123456  0.0000
SPC            2    8402  123456  0.0000
SPC            2    8403  123456  0.0000
SPC            2    8404  123456  0.0000
SPC            2    8405  123456  0.0000
SPC            2    8406  123456  0.0000
SPC            2    8407  123456  0.0000
SPC            2    8408  123456  0.0000
SPC            2    8409  123456  0.0000
SPC            2    8410  123456  0.0000
SPC            2    8411  123456  0.0000
SPC            2    8412  123456  0.0000
SPC            2    8413  123456  0.0000
SPC            2    8414  123456  0.0000
SPC            2    8415  123456  0.0000
SPC            2    8416  123456  0.0000
SPC            2    8417  123456  0.0000
SPC            2    8418  123456  0.0000
SPC            2    8419  123456  0.0000
SPC            2    8420  123456  0.0000
SPC            2    8421  123456  0.0000
SPC            2    8422  123456  0.0000
SPC            2    8423  123456  0.0000
SPC            2    8424  123456  0.0000
SPC            2    8425  123456  0.0000
SPC            2    8426  123456  0.0000
SPC            2    8427  123456  0.0000
SPC            2    8428  123456  0.0000
SPC            2    8429  123456  0.0000
SPC            2    8430  123456  0.0000
SPC            2    8431  123456  0.0000
SPC            2    8432  123456  0.0000
SPC            2    8433  123456  0.0000
SPC            2    8434  123456  0.0000
SPC            2    8435  123456  0.0000
SPC            2    8436  123456  0.0000
SPC            2    8437  123456  0.0000
SPC            2    8438  123456  0.0000
SPC            2    8439  123456  0.0000
SPC            2    8440  123456  0.0000
SPC            2    8441  123456  0.0000
SPC            2    8442  123456  0.0000
SPC            2    8443  123456  0.0000
SPC            2    8444  123456  0.0000
SPC            2    8445  123456  0.0000
SPC            2    8446  123456  0.0000
SPC            2    8447  123456  0.0000
SPC            2    8448  123456  0.0000
SPC            2    8449  123456  0.0000
SPC            2    8450  123456  0.0000
SPC            2    8451  123456  0.0000
SPC            2    8452  123456  0.0000
SPC            2    8453  123456  0.0000
SPC            2    8454  123456  0.0000
SPC            2    8455  123456  0.0000
SPC            2    8456  123456  0.0000
SPC            2    8457  123456  0.0000
SPC            2    8458  123456  0.0000
SPC            2    8459  123456  0.0000
SPC            2    8460  123456  0.0000
SPC            2    8461  123456  0.0000
SPC            2    8462  123456  0.0000
SPC            2    8463  123456  0.0000
SPC            2    8464  123456  0.0000
SPC            2    8465  123456  0.0000
SPC            2    8466  123456  0.0000
SPC            2    8467  123456  0.0000
SPC            2    8468  123456  0.0000
SPC            2    8469  123456  0.0000
SPC            2    8470  123456  0.0000
SPC            2    8471  123456  0.0000
SPC            2    8472  123456  0.0000
SPC            2    8473  123456  0.0000
SPC            2    8474  123456  0.0000
SPC            2    8475  123456  0.0000
SPC            2    8476  123456  0.0000
SPC            2    8477  123456  0.0000
SPC            2    8478  123456  0.0000
SPC            2    8479  123456  0.0000
SPC            2    8480  123456  0.0000
SPC            2    8481  123456  0.0000
SPC            2    8482  123456  0.0000
SPC            2    8483  123456  0.0000
SPC            2    8484  123456  0.0000
SPC            2    8485  123456  0.0000
SPC            2    8486  123456  0.0000
SPC            2    8487  123456  0.0000
SPC            2    8488  123456  0.0000
SPC            2    8489  123456  0.0000
SPC            2    8490  123456  0.0000
SPC            2    8491  123456  0.0000
SPC            2    8492  123456  0.0000
SPC            2    8493  123456  0.0000
SPC            2    8494  123456  0.0000
SPC            2    8495  123456  0.0000
SPC            2    8496  123456  0.0000
SPC            2    8497  123456  0.0000
SPC            2    8498  123456  0.0000
SPC            2    8499  123456  0.0000
SPC            2    8500  123456  0.0000
SPC            2    8501  123456  0.0000
SPC            2    8502  123456  0.0000
SPC            2    8503  123456  0.0000
SPC            2    8504  123456  0.0000
SPC            2    8505  123456  0.0000
SPC            2    8506  123456  0.0000
SPC            2    8507  123456  0.0000
SPC            2    8508  123456  0.0000
SPC            2    8509  123456  0.0000
SPC            2    8510  123456  0.0000
SPC            2    8511  123456  0.0000
SPC            2    8512  123456  0.0000
SPC            2    8513  123456  0.0000
SPC            2    8514  123456  0.0000
SPC            2    8515  123456  0.0000
SPC            2    8516  123456  0.0000
SPC            2    8517  123456  0.0000
SPC            2    8518  123456  0.0000
SPC            2    8519  123456  0.0000
SPC            2    8520  123456  0.0000
SPC            2    8521  123456  0.0000
SPC            2    8522  123456  0.0000
SPC            2    8523  123456  0.0000
SPC            2    8524  123456  0.0000
SPC            2    8525  123456  0.0000
SPC            2    8526  123456  0.0000
SPC            2    8527  123456  0.0000
SPC            2    8528  123456  0.0000
SPC            2    8529  123456  0.0000
SPC            2    8530  123456  0.0000
SPC            2    8531  123456  0.0000
SPC            2    8532  123456  0.0000
SPC            2    8533  123456  0.0000
SPC            2    8534  123456  0.0000
SPC            2    8535  123456  0.0000
SPC            2    8536  123456  0.0000
SPC            2    8537  123456  0.0000
SPC            2    8538  123456  0.0000
SPC            2    8539  123456  0.0000
SPC            2    8540  123456  0.0000
SPC            2    8541  123456  0.0000
SPC            2    8542  123456  0.0000
SPC            2    8543  123456  0.0000
SPC            2    8544  123456  0.0000
SPC            2    8545  123456  0.0000
SPC            2    8546  123456  0.0000
SPC            2    8547  123456  0.0000
SPC            2    8548  123456  0.0000
SPC            2    8549  123456  0.0000
SPC            2    8550  123456  0.0000
SPC            2    8551  123456  0.0000
SPC            2    8552  123456  0.0000
SPC            2    8553  123456  0.0000
SPC            2    8554  123456  0.0000
SPC            2    8555  123456  0.0000
SPC            2    8556  123456  0.0000
SPC            2    8557  123456  0.0000
SPC            2    8558  123456  0.0000
SPC            2    8559  123456  0.0000
SPC            2    8560  123456  0.0000
SPC            2    8561  123456  0.0000
SPC            2    8562  123456  0.0000
SPC            2    8563  123456  0.0000
SPC            2    8564  123456  0.0000
SPC            2    8565  123456  0.0000
SPC            2    8566  123456  0.0000
SPC            2    8567  123456  0.0000
SPC            2    8568  123456  0.0000
SPC            2    8569  123456  0.0000
SPC            2    8570  123456  0.0000
SPC            2    8571  123456  0.0000
SPC            2    8572  123456  0.0000
SPC            2    8573  123456  0.0000
SPC            2    8574  123456  0.0000
SPC            2    8575  123456  0.0000
SPC            2    8576  123456  0.0000
SPC            2    8577  123456  0.0000
SPC            2    8578  123456  0.0000
SPC            2    8579  123456  0.0000
SPC            2    8580  123456  0.0000
SPC            2    8581  123456  0.0000
SPC            2    8582  123456  0.0000
SPC            2    8583  123456  0.0000
SPC            2    8584  123456  0.0000
SPC            2    8585  123456  0.0000
SPC            2    8586  123456  0.0000
SPC            2    8587  123456  0.0000
SPC            2    8588  123456  0.0000
SPC            2    8589  123456  0.0000
SPC            2    8590  123456  0.0000
SPC            2    8591  123456  0.0000
SPC            2    8592  123456  0.0000
SPC            2    8593  123456  0.0000
SPC            2    8594  123456  0.0000
SPC            2    8595  123456  0.0000
SPC            2    8596  123456  0.0000
SPC            2    8597  123456  0.0000
SPC            2    8598  123456  0.0000
SPC            2    8599  123456  0.0000
SPC            2    8600  123456  0.0000
SPC            2    8601  123456  0.0000
SPC            2    8602  123456  0.0000
SPC            2    8603  123456  0.0000
SPC            2    8604  123456  0.0000
SPC            2    8605  123456  0.0000
SPC            2    8606  123456  0.0000
SPC            2    8607  123456  0.0000
SPC            2    8608  123456  0.0000
SPC            2    8609  123456  0.0000
SPC            2    8610  123456  0.0000
SPC            2    8611  123456  0.0000
SPC            2    8612  123456  0.0000
SPC            2    8613  123456  0.0000
SPC            2    8614  123456  0.0000
SPC            2    8615  123456  0.0000
SPC            2    8616  123456  0.0000
SPC            2    8617  123456  0.0000
SPC            2    8618  123456  0.0000
SPC            2    8619  123456  0.0000
SPC            2    8620  123456  0.0000
SPC            2    8621  123456  0.0000
SPC            2    8622  123456  0.0000
SPC            2    8623  123456  0.0000
SPC            2    8624  123456  0.0000
SPC            2    8625  123456  0.0000
SPC            2    8626  123456  0.0000
SPC            2    8627  123456  0.0000
SPC            2    8628  123456  0.0000
SPC            2    8629  123456  0.0000
SPC            2    8630  123456  0.0000
SPC            2    8631  123456  0.0000
SPC            2    8632  123456  0.0000
SPC            2    8633  123456  0.0000
SPC            2    8634  123456  0.0000
SPC            2    8635  123456  0.0000
SPC            2    8636  123456  0.0000
SPC            2    8637  123456  0.0000
SPC            2    8638  123456  0.0000
SPC            2    8639  123456  0.0000
SPC            2    8640  123456  0.0000
SPC            2    8641  123456  0.0000
SPC            2    8642  123456  0.0000
SPC            2    8643  123456  0.0000
SPC            2    8644  123456  0.0000
SPC            2    8645  123456  0.0000
SPC            2    8646  123456  0.0000
SPC            2    8647  123456  0.0000
SPC            2    8648  123456  0.0000
SPC            2    8649  123456  0.0000
SPC            2    8650  123456  0.0000
SPC            2    8651  123456  0.0000
SPC            2    8652  123456  0.0000
SPC            2    8653  123456  0.0000
SPC            2    8654  123456  0.0000
SPC            2    8655  123456  0.0000
SPC            2    8656  123456  0.0000
SPC            2    8657  123456  0.0000
SPC            2    8658  123456  0.0000
SPC            2    8659  123456  0.0000
SPC            2    8660  123456  0.0000
SPC            2    8661  123456  0.0000
SPC            2    8662  123456  0.0000
SPC            2    8663  123456  0.0000
SPC            2    8664  123456  0.0000
SPC            2    8665  123456  0.0000
SPC            2    8666  123456  0.0000
SPC            2    8667  123456  0.0000
SPC            2    8668  123456  0.0000
SPC            2    8669  123456  0.0000
SPC            2    8670  123456  0.0000
SPC            2    8671  123456  0.0000
SPC            2    8672  123456  0.0000
SPC            2    8673  123456  0.0000
SPC            2    8674  123456  0.0000
SPC            2    8675  123456  0.0000
SPC            2    8676  123456  0.0000
SPC            2    8677  123456  0.0000
SPC            2    8678  123456  0.0000
SPC            2    8679  123456  0.0000
SPC            2    8680  123456  0.0000
SPC            2    8681  123456  0.0000
SPC            2    8682  123456  0.0000
SPC            2    8683  123456  0.0000
SPC            2    8684  123456  0.0000
SPC            2    8685  123456  0.0000
SPC            2    8686  123456  0.0000
SPC            2    8687  123456  0.0000
SPC            2    8688  123456  0.0000
SPC            2    8689  123456  0.0000
SPC            2    8690  123456  0.0000
SPC            2    8691  123456  0.0000
SPC            2    8692  123456  0.0000
SPC            2    8693  123456  0.0000
SPC            2    8694  123456  0.0000
SPC            2    8695  123456  0.0000
SPC            2    8696  123456  0.0000
SPC            2    8697  123456  0.0000
SPC            2    8698  123456  0.0000
SPC            2    8699  123456  0.0000
SPC            2    8700  123456  0.0000
SPC            2    8701  123456  0.0000
SPC            2    8702  123456  0.0000
SPC            2    8703  123456  0.0000
SPC            2    8704  123456  0.0000
SPC            2    8705  123456  0.0000
SPC            2    8706  123456  0.0000
SPC            2    8707  123456  0.0000
SPC            2    8708  123456  0.0000
SPC            2    8709  123456  0.0000
SPC            2    8710  123456  0.0000
SPC            2    8711  123456  0.0000
SPC            2    8712  123456  0.0000
SPC            2    8713  123456  0.0000
SPC            2    8714  123456  0.0000
SPC            2    8715  123456  0.0000
SPC            2    8716  123456  0.0000
SPC            2    8717  123456  0.0000
SPC            2    8718  123456  0.0000
SPC            2    8719  123456  0.0000
SPC            2    8720  123456  0.0000
SPC            2    8721  123456  0.0000
SPC            2    8722  123456  0.0000
SPC            2    8723  123456  0.0000
SPC            2    8724  123456  0.0000
SPC            2    8725  123456  0.0000
SPC            2    8726  123456  0.0000
SPC            2    8727  123456  0.0000
SPC            2    8728  123456  0.0000
SPC            2    8729  123456  0.0000
SPC            2    8730  123456  0.0000
SPC            2    8731  123456  0.0000
SPC            2    8732  123456  0.0000
SPC            2    8733  123456  0.0000
SPC            2    8734  123456  0.0000
SPC            2    8735  123456  0.0000
SPC            2    8736  123456  0.0000
SPC            2    8737  123456  0.0000
SPC            2    8738  123456  0.0000
SPC            2    8739  123456  0.0000
SPC            2    8740  123456  0.0000
SPC            2    8741  123456  0.0000
SPC            2    8742  123456  0.0000
SPC            2    8743  123456  0.0000
SPC            2    8744  123456  0.0000
SPC            2    8745  123456  0.0000
SPC            2    8746  123456  0.0000
SPC            2    8747  123456  0.0000
SPC            2    8748  123456  0.0000
SPC            2    8749  123456  0.0000
SPC            2    8750  123456  0.0000
SPC            2    8751  123456  0.0000
SPC            2    8752  123456  0.0000
SPC            2    8753  123456  0.0000
SPC            2    8754  123456  0.0000
SPC            2    8755  123456  0.0000
SPC            2    8756  123456  0.0000
SPC            2    8757  123456  0.0000
SPC            2    8758  123456  0.0000
SPC            2    8759  123456  0.0000
SPC            2    8760  123456  0.0000
SPC            2    8761  123456  0.0000
SPC            2    8762  123456  0.0000
SPC            2    8763  123456  0.0000
SPC            2    8764  123456  0.0000
SPC            2    8765  123456  0.0000
SPC            2    8766  123456  0.0000
SPC            2    8767  123456  0.0000
SPC            2    8768  123456  0.0000
SPC            2    8769  123456  0.0000
SPC            2    8770  123456  0.0000
SPC            2    8771  123456  0.0000
SPC            2    8772  123456  0.0000
SPC            2    8773  123456  0.0000
SPC            2    8774  123456  0.0000
SPC            2    8775  123456  0.0000
SPC            2    8776  123456  0.0000
SPC            2    8777  123456  0.0000
SPC            2    8778  123456  0.0000
SPC            2    8779  123456  0.0000
SPC            2    8780  123456  0.0000
SPC            2    8781  123456  0.0000
SPC            2    8782  123456  0.0000
SPC            2    8783  123456  0.0000
SPC            2    8784  123456  0.0000
SPC            2    8785  123456  0.0000
SPC            2    8786  123456  0.0000
SPC            2    8787  123456  0.0000
SPC            2    8788  123456  0.0000
SPC            2    8789  123456  0.0000
SPC            2    8790  123456  0.0000
SPC            2    8791  123456  0.0000
SPC            2    8792  123456  0.0000
SPC            2    8793  123456  0.0000
SPC            2    8794  123456  0.0000
SPC            2    8795  123456  0.0000
SPC            2    8796  123456  0.0000
SPC            2    8797  123456  0.0000
SPC            2    8798  123456  0.0000
SPC            2    8799  123456  0.0000
SPC            2    8800  123456  0.0000
SPC            2    8801  123456  0.0000
SPC            2    8802  123456  0.0000
SPC            2    8803  123456  0.0000
SPC            2    8804  123456  0.0000
SPC            2    8805  123456  0.0000
SPC            2    8806  123456  0.0000
SPC            2    8807  123456  0.0000
SPC            2    8808  123456  0.0000
SPC            2    8809  123456  0.0000
SPC            2    8810  123456  0.0000
SPC            2    8811  123456  0.0000
SPC            2    8812  123456  0.0000
SPC            2    8813  123456  0.0000
SPC            2    8814  123456  0.0000
SPC            2    8815  123456  0.0000
SPC            2    8816  123456  0.0000
SPC            2    8817  123456  0.0000
SPC            2    8818  123456  0.0000
SPC            2    8819  123456  0.0000
SPC            2    8820  123456  0.0000
SPC            2    8821  123456  0.0000
SPC            2    8822  123456  0.0000
SPC            2    8823  123456  0.0000
SPC            2    8824  123456  0.0000
SPC            2    8825  123456  0.0000
SPC            2    8826  123456  0.0000
SPC            2    8827  123456  0.0000
SPC            2    8828  123456  0.0000
SPC            2    8829  123456  0.0000
SPC            2    8830  123456  0.0000
SPC            2    8831  123456  0.0000
SPC            2    8832  123456  0.0000
SPC            2    8833  123456  0.0000
SPC            2    8834  123456  0.0000
SPC            2    8835  123456  0.0000
SPC            2    8836  123456  0.0000
SPC            2    8837  123456  0.0000
SPC            2    8838  123456  0.0000
SPC            2    8839  123456  0.0000
SPC            2    8840  123456  0.0000
SPC            2    8841  123456  0.0000
SPC            2    8842  123456  0.0000
SPC            2    8843  123456  0.0000
SPC            2    8844  123456  0.0000
SPC            2    8845  123456  0.0000
SPC            2    8846  123456  0.0000
SPC            2    8847  123456  0.0000
SPC            2    8848  123456  0.0000
SPC            2    8849  123456  0.0000
SPC            2    8850  123456  0.0000
SPC            2    8851  123456  0.0000
SPC            2    8852  123456  0.0000
SPC            2    8853  123456  0.0000
SPC            2    8854  123456  0.0000
SPC            2    8855  123456  0.0000
SPC            2    8856  123456  0.0000
SPC            2    8857  123456  0.0000
SPC            2    8858  123456  0.0000
SPC            2    8859  123456  0.0000
SPC            2    8860  123456  0.0000
SPC            2    8861  123456  0.0000
SPC            2    8862  123456  0.0000
SPC            2    8863  123456  0.0000
SPC            2    8864  123456  0.0000
SPC            2    8865  123456  0.0000
SPC            2    8866  123456  0.0000
SPC            2    8867  123456  0.0000
SPC            2    8868  123456  0.0000
SPC            2    8869  123456  0.0000
SPC            2    8870  123456  0.0000
SPC            2    8871  123456  0.0000
SPC            2    8872  123456  0.0000
SPC            2    8873  123456  0.0000
SPC            2    8874  123456  0.0000
SPC            2    8875  123456  0.0000
SPC            2    8876  123456  0.0000
SPC            2    8877  123456  0.0000
SPC            2    8878  123456  0.0000
SPC            2    8879  123456  0.0000
SPC            2    8880  123456  0.0000
SPC            2    8881  123456  0.0000
SPC            2    8882  123456  0.0000
SPC            2    8883  123456  0.0000
SPC            2    8884  123456  0.0000
SPC            2    8885  123456  0.0000
SPC            2    8886  123456  0.0000
SPC            2    8887  123456  0.0000
SPC            2    8888  123456  0.0000
SPC            2    8889  123456  0.0000
SPC            2    8890  123456  0.0000
SPC            2    8891  123456  0.0000
SPC            2    8892  123456  0.0000
SPC            2    8893  123456  0.0000
SPC            2    8894  123456  0.0000
SPC            2    8895  123456  0.0000
SPC            2    8896  123456  0.0000
SPC            2    8897  123456  0.0000
SPC            2    8898  123456  0.0000
SPC            2    8899  123456  0.0000
SPC            2    8900  123456  0.0000
SPC            2    8901  123456  0.0000
SPC            2    8902  123456  0.0000
SPC            2    8903  123456  0.0000
SPC            2    8904  123456  0.0000
SPC            2    8905  123456  0.0000
SPC            2    8906  123456  0.0000
SPC            2    8907  123456  0.0000
SPC            2    8908  123456  0.0000
SPC            2    8909  123456  0.0000
SPC            2    8910  123456  0.0000
SPC            2    8911  123456  0.0000
SPC            2    8912  123456  0.0000
SPC            2    8913  123456  0.0000
SPC            2    8914  123456  0.0000
SPC            2    8915  123456  0.0000
SPC            2    8916  123456  0.0000
SPC            2    8917  123456  0.0000
SPC            2    8918  123456  0.0000
SPC            2    8919  123456  0.0000
SPC            2    8920  123456  0.0000
SPC            2    8921  123456  0.0000
SPC            2    8922  123456  0.0000
SPC            2    8923  123456  0.0000
SPC            2    8924  123456  0.0000
SPC            2    8925  123456  0.0000
SPC            2    8926  123456  0.0000
SPC            2    8927  123456  0.0000
SPC            2    8928  123456  0.0000
SPC            2    8929  123456  0.0000
SPC            2    8930  123456  0.0000
SPC            2    8931  123456  0.0000
SPC            2    8932  123456  0.0000
SPC            2    8933  123456  0.0000
SPC            2    8934  123456  0.0000
SPC            2    8935  123456  0.0000
SPC            2    8936  123456  0.0000
SPC            2    8937  123456  0.0000
SPC            2    8938  123456  0.0000
SPC            2    8939  123456  0.0000
SPC            2    8940  123456  0.0000
SPC            2    8941  123456  0.0000
SPC            2    8942  123456  0.0000
SPC            2    8943  123456  0.0000
SPC            2    8944  123456  0.0000
SPC            2    8945  123456  0.0000
SPC            2    8946  123456  0.0000
SPC            2    8947  123456  0.0000
SPC            2    8948  123456  0.0000
SPC            2    8949  123456  0.0000
SPC            2    8950  123456  0.0000
SPC            2    8951  123456  0.0000
SPC            2    8952  123456  0.0000
SPC            2    8953  123456  0.0000
SPC            2    8954  123456  0.0000
SPC            2    8955  123456  0.0000
SPC            2    8956  123456  0.0000
SPC            2    8957  123456  0.0000
SPC            2    8958  123456  0.0000
SPC            2    8959  123456  0.0000
SPC            2    8960  123456  0.0000
SPC            2    8961  123456  0.0000
SPC            2    8962  123456  0.0000
SPC            2    8963  123456  0.0000
SPC            2    8964  123456  0.0000
SPC            2    8965  123456  0.0000
SPC            2    8966  123456  0.0000
SPC            2    8967  123456  0.0000
SPC            2    8968  123456  0.0000
SPC            2    8969  123456  0.0000
SPC            2    8970  123456  0.0000
SPC            2    8971  123456  0.0000
SPC            2    8972  123456  0.0000
SPC            2    8973  123456  0.0000
SPC            2    8974  123456  0.0000
SPC            2    8975  123456  0.0000
SPC            2    8976  123456  0.0000
SPC            2    8977  123456  0.0000
SPC            2    8978  123456  0.0000
SPC            2    8979  123456  0.0000
SPC            2    8980  123456  0.0000
SPC            2    8981  123456  0.0000
SPC            2    8982  123456  0.0000
SPC            2    8983  123456  0.0000
SPC            2    8984  123456  0.0000
SPC            2    8985  123456  0.0000
SPC            2    8986  123456  0.0000
SPC            2    8987  123456  0.0000
SPC            2    8988  123456  0.0000
SPC            2    8989  123456  0.0000
SPC            2    8990  123456  0.0000
SPC            2    8991  123456  0.0000
SPC            2    8992  123456  0.0000
SPC            2    8993  123456  0.0000
SPC            2    8994  123456  0.0000
SPC            2    8995  123456  0.0000
SPC            2    8996  123456  0.0000
SPC            2    8997  123456  0.0000
SPC            2    8998  123456  0.0000
SPC            2    8999  123456  0.0000
SPC            2    9000  123456  0.0000
SPC            2    9001  123456  0.0000
SPC            2    9002  123456  0.0000
SPC            2    9003  123456  0.0000
SPC            2    9004  123456  0.0000
SPC            2    9005  123456  0.0000
SPC            2    9006  123456  0.0000
SPC            2    9007  123456  0.0000
SPC            2    9008  123456  0.0000
SPC            2    9009  123456  0.0000
SPC            2    9010  123456  0.0000
SPC            2    9011  123456  0.0000
SPC            2    9012  123456  0.0000
SPC            2    9013  123456  0.0000
SPC            2    9014  123456  0.0000
SPC            2    9015  123456  0.0000
SPC            2    9016  123456  0.0000
SPC            2    9017  123456  0.0000
SPC            2    9018  123456  0.0000
SPC            2    9019  123456  0.0000
SPC            2    9020  123456  0.0000
SPC            2    9021  123456  0.0000
SPC            2    9022  123456  0.0000
SPC            2    9023  123456  0.0000
SPC            2    9024  123456  0.0000
SPC            2    9025  123456  0.0000
SPC            2    9026  123456  0.0000
SPC            2    9027  123456  0.0000
SPC            2    9028  123456  0.0000
SPC            2    9029  123456  0.0000
SPC            2    9030  123456  0.0000
SPC            2    9031  123456  0.0000
SPC            2    9032  123456  0.0000
SPC            2    9033  123456  0.0000
SPC            2    9034  123456  0.0000
SPC            2    9035  123456  0.0000
SPC            2    9036  123456  0.0000
SPC            2    9037  123456  0.0000
SPC            2    9038  123456  0.0000
SPC            2    9039  123456  0.0000
SPC            2    9040  123456  0.0000
SPC            2    9041  123456  0.0000
SPC            2    9042  123456  0.0000
SPC            2    9043  123456  0.0000
SPC            2    9044  123456  0.0000
SPC            2    9045  123456  0.0000
SPC            2    9046  123456  0.0000
SPC            2    9047  123456  0.0000
SPC            2    9048  123456  0.0000
SPC            2    9049  123456  0.0000
SPC            2    9050  123456  0.0000
SPC            2    9051  123456  0.0000
SPC            2    9052  123456  0.0000
SPC            2    9053  123456  0.0000
SPC            2    9054  123456  0.0000
SPC            2    9055  123456  0.0000
SPC            2    9056  123456  0.0000
SPC            2    9057  123456  0.0000
SPC            2    9058  123456  0.0000
SPC            2    9059  123456  0.0000
SPC            2    9060  123456  0.0000
SPC            2    9061  123456  0.0000
SPC            2    9062  123456  0.0000
SPC            2    9063  123456  0.0000
SPC            2    9064  123456  0.0000
SPC            2    9065  123456  0.0000
SPC            2    9066  123456  0.0000
SPC            2    9067  123456  0.0000
SPC            2    9068  123456  0.0000
SPC            2    9069  123456  0.0000
SPC            2    9070  123456  0.0000
SPC            2    9071  123456  0.0000
SPC            2    9072  123456  0.0000
SPC            2    9073  123456  0.0000
SPC            2    9074  123456  0.0000
SPC            2    9075  123456  0.0000
SPC            2    9076  123456  0.0000
SPC            2    9077  123456  0.0000
SPC            2    9078  123456  0.0000
SPC            2    9079  123456  0.0000
SPC            2    9080  123456  0.0000
SPC            2    9081  123456  0.0000
SPC            2    9082  123456  0.0000
SPC            2    9083  123456  0.0000
SPC            2    9084  123456  0.0000
SPC            2    9085  123456  0.0000
SPC            2    9086  123456  0.0000
SPC            2    9087  123456  0.0000
SPC            2    9088  123456  0.0000
SPC            2    9089  123456  0.0000
SPC            2    9090  123456  0.0000
SPC            2    9091  123456  0.0000
SPC            2    9092  123456  0.0000
SPC            2    9093  123456  0.0000
SPC            2    9094  123456  0.0000
SPC            2    9095  123456  0.0000
SPC            2    9096  123456  0.0000
SPC            2    9097  123456  0.0000
SPC            2    9098  123456  0.0000
SPC            2    9099  123456  0.0000
SPC            2    9100  123456  0.0000
SPC            2    9101  123456  0.0000
SPC            2    9102  123456  0.0000
SPC            2    9103  123456  0.0000
SPC            2    9104  123456  0.0000
SPC            2    9105  123456  0.0000
SPC            2    9106  123456  0.0000
SPC            2    9107  123456  0.0000
SPC            2    9108  123456  0.0000
SPC            2    9109  123456  0.0000
SPC            2    9110  123456  0.0000
SPC            2    9111  123456  0.0000
SPC            2    9112  123456  0.0000
SPC            2    9113  123456  0.0000
SPC            2    9114  123456  0.0000
SPC            2    9115  123456  0.0000
SPC            2    9116  123456  0.0000
SPC            2    9117  123456  0.0000
SPC            2    9118  123456  0.0000
SPC            2    9119  123456  0.0000
SPC            2    9120  123456  0.0000
SPC            2    9121  123456  0.0000
SPC            2    9122  123456  0.0000
SPC            2    9123  123456  0.0000
SPC            2    9124  123456  0.0000
SPC            2    9125  123456  0.0000
SPC            2    9126  123456  0.0000
SPC            2    9127  123456  0.0000
SPC            2    9128  123456  0.0000
SPC            2    9129  123456  0.0000
SPC            2    9130  123456  0.0000
SPC            2    9131  123456  0.0000
SPC            2    9132  123456  0.0000
SPC            2    9133  123456  0.0000
SPC            2    9134  123456  0.0000
SPC            2    9135  123456  0.0000
SPC            2    9136  123456  0.0000
SPC            2    9137  123456  0.0000
SPC            2    9138  123456  0.0000
SPC            2    9139  123456  0.0000
SPC            2    9140  123456  0.0000
SPC            2    9141  123456  0.0000
SPC            2    9142  123456  0.0000
SPC            2    9143  123456  0.0000
SPC            2    9144  123456  0.0000
SPC            2    9145  123456  0.0000
SPC            2    9146  123456  0.0000
SPC            2    9147  123456  0.0000
SPC            2    9148  123456  0.0000
SPC            2    9149  123456  0.0000
SPC            2    9150  123456  0.0000
SPC            2    9151  123456  0.0000
SPC            2    9152  123456  0.0000
SPC            2    9153  123456  0.0000
SPC            2    9154  123456  0.0000
SPC            2    9155  123456  0.0000
SPC            2    9156  123456  0.0000
SPC            2    9157  123456  0.0000
SPC            2    9158  123456  0.0000
SPC            2    9159  123456  0.0000
SPC            2    9160  123456  0.0000
SPC            2    9161  123456  0.0000
SPC            2    9162  123456  0.0000
SPC            2    9163  123456  0.0000
SPC            2    9164  123456  0.0000
SPC            2    9165  123456  0.0000
SPC            2    9166  123456  0.0000
SPC            2    9167  123456  0.0000
SPC            2    9168  123456  0.0000
SPC            2    9169  123456  0.0000
SPC            2    9170  123456  0.0000
SPC            2    9171  123456  0.0000
SPC            2    9172  123456  0.0000
SPC            2    9173  123456  0.0000
SPC            2    9174  123456  0.0000
SPC            2    9175  123456  0.0000
SPC            2    9176  123456  0.0000
SPC            2    9177  123456  0.0000
SPC            2    9178  123456  0.0000
SPC            2    9179  123456  0.0000
SPC            2    9180  123456  0.0000
SPC            2    9181  123456  0.0000
SPC            2    9182  123456  0.0000
SPC            2    9183  123456  0.0000
SPC            2    9184  123456  0.0000
SPC            2    9185  123456  0.0000
SPC            2    9186  123456  0.0000
SPC            2    9187  123456  0.0000
SPC            2    9188  123456  0.0000
SPC            2    9189  123456  0.0000
SPC            2    9190  123456  0.0000
SPC            2    9191  123456  0.0000
SPC            2    9192  123456  0.0000
SPC            2    9193  123456  0.0000
SPC            2    9194  123456  0.0000
SPC            2    9195  123456  0.0000
SPC            2    9196  123456  0.0000
SPC            2    9197  123456  0.0000
SPC            2    9198  123456  0.0000
SPC            2    9199  123456  0.0000
SPC            2    9200  123456  0.0000
SPC            2    9201  123456  0.0000
SPC            2    9202  123456  0.0000
SPC            2    9203  123456  0.0000
SPC            2    9204  123456  0.0000
SPC            2    9205  123456  0.0000
SPC            2    9206  123456  0.0000
SPC            2    9207  123456  0.0000
SPC            2    9208  123456  0.0000
SPC            2    9209  123456  0.0000
SPC            2    9210  123456  0.0000
SPC            2    9211  123456  0.0000
SPC            2    9212  123456  0.0000
SPC            2    9213  123456  0.0000
SPC            2    9214  123456  0.0000
SPC            2    9215  123456  0.0000
SPC            2    9216  123456  0.0000
SPC            2    9217  123456  0.0000
SPC            2    9218  123456  0.0000
SPC            2    9219  123456  0.0000
SPC            2    9220  123456  0.0000
SPC            2    9221  123456  0.0000
SPC            2    9222  123456  0.0000
SPC            2    9223  123456  0.0000
SPC            2    9224  123456  0.0000
SPC            2    9225  123456  0.0000
SPC            2    9226  123456  0.0000
SPC            2    9227  123456  0.0000
SPC            2    9228  123456  0.0000
SPC            2    9229  123456  0.0000
SPC            2    9230  123456  0.0000
SPC            2    9231  123456  0.0000
SPC            2    9232  123456  0.0000
SPC            2    9233  123456  0.0000
SPC            2    9234  123456  0.0000
SPC            2    9235  123456  0.0000
SPC            2    9236  123456  0.0000
SPC            2    9237  123456  0.0000
SPC            2    9238  123456  0.0000
SPC            2    9239  123456  0.0000
SPC            2    9240  123456  0.0000
SPC            2    9241  123456  0.0000
SPC            2    9242  123456  0.0000
SPC            2    9243  123456  0.0000
SPC            2    9244  123456  0.0000
SPC            2    9245  123456  0.0000
SPC            2    9246  123456  0.0000
SPC            2    9247  123456  0.0000
SPC            2    9248  123456  0.0000
SPC            2    9249  123456  0.0000
SPC            2    9250  123456  0.0000
SPC            2    9251  123456  0.0000
SPC            2    9252  123456  0.0000
SPC            2    9253  123456  0.0000
SPC            2    9254  123456  0.0000
SPC            2    9255  123456  0.0000
SPC            2    9256  123456  0.0000
SPC            2    9257  123456  0.0000
SPC            2    9258  123456  0.0000
SPC            2    9259  123456  0.0000
SPC            2    9260  123456  0.0000
SPC            2    9261  123456  0.0000
SPC            2    9262  123456  0.0000
SPC            2    9263  123456  0.0000
SPC            2    9264  123456  0.0000
SPC            2    9265  123456  0.0000
SPC            2    9266  123456  0.0000
SPC            2    9267  123456  0.0000
SPC            2    9268  123456  0.0000
SPC            2    9269  123456  0.0000
SPC            2    9270  123456  0.0000
SPC            2    9271  123456  0.0000
SPC            2    9272  123456  0.0000
SPC            2    9273  123456  0.0000
SPC            2    9274  123456  0.0000
SPC            2    9275  123456  0.0000
SPC            2    9276  123456  0.0000
SPC            2    9277  123456  0.0000
SPC            2    9278  123456  0.0000
SPC            2    9279  123456  0.0000
SPC            2    9280  123456  0.0000
SPC            2    9281  123456  0.0000
SPC            2    9282  123456  0.0000
SPC            2    9283  123456  0.0000
SPC            2    9284  123456  0.0000
SPC            2    9285  123456  0.0000
SPC            2    9286  123456  0.0000
SPC            2    9287  123456  0.0000
SPC            2    9288  123456  0.0000
SPC            2    9289  123456  0.0000
SPC            2    9290  123456  0.0000
SPC            2    9291  123456  0.0000
SPC            2    9292  123456  0.0000
SPC            2    9293  123456  0.0000
SPC            2    9294  123456  0.0000
SPC            2    9295  123456  0.0000
SPC            2    9296  123456  0.0000
SPC            2    9297  123456  0.0000
SPC            2    9298  123456  0.0000
SPC            2    9299  123456  0.0000
SPC            2    9300  123456  0.0000
SPC            2    9301  123456  0.0000
SPC            2    9302  123456  0.0000
SPC            2    9303  123456  0.0000
SPC            2    9304  123456  0.0000
SPC            2    9305  123456  0.0000
SPC            2    9306  123456  0.0000
SPC            2    9307  123456  0.0000
SPC            2    9308  123456  0.0000
SPC            2    9309  123456  0.0000
SPC            2    9310  123456  0.0000
SPC            2    9311  123456  0.0000
SPC            2    9312  123456  0.0000
SPC            2    9313  123456  0.0000
SPC            2    9314  123456  0.0000
SPC            2    9315  123456  0.0000
SPC            2    9316  123456  0.0000
SPC            2    9317  123456  0.0000
SPC            2    9318  123456  0.0000
SPC            2    9319  123456  0.0000
SPC            2    9320  123456  0.0000
SPC            2    9321  123456  0.0000
SPC            2    9322  123456  0.0000
SPC            2    9323  123456  0.0000
SPC            2    9324  123456  0.0000
SPC            2    9325  123456  0.0000
SPC            2    9326  123456  0.0000
SPC            2    9327  123456  0.0000
SPC            2    9328  123456  0.0000
SPC            2    9329  123456  0.0000
SPC            2    9330  123456  0.0000
SPC            2    9331  123456  0.0000
SPC            2    9332  123456  0.0000
SPC            2    9333  123456  0.0000
SPC            2    9334  123456  0.0000
SPC            2    9335  123456  0.0000
SPC            2    9336  123456  0.0000
SPC            2    9337  123456  0.0000
SPC            2    9338  123456  0.0000
SPC            2    9339  123456  0.0000
SPC            2    9340  123456  0.0000
SPC            2    9341  123456  0.0000
SPC            2    9342  123456  0.0000
SPC            2    9343  123456  0.0000
SPC            2    9344  123456  0.0000
SPC            2    9345  123456  0.0000
SPC            2    9346  123456  0.0000
SPC            2    9347  123456  0.0000
SPC            2    9348  123456  0.0000
SPC            2    9349  123456  0.0000
SPC            2    9350  123456  0.0000
SPC            2    9351  123456  0.0000
SPC            2    9352  123456  0.0000
SPC            2    9353  123456  0.0000
SPC            2    9354  123456  0.0000
SPC            2    9355  123456  0.0000
SPC            2    9356  123456  0.0000
SPC            2    9357  123456  0.0000
SPC            2    9358  123456  0.0000
SPC            2    9359  123456  0.0000
SPC            2    9360  123456  0.0000
SPC            2    9361  123456  0.0000
SPC            2    9362  123456  0.0000
SPC            2    9363  123456  0.0000
SPC            2    9364  123456  0.0000
SPC            2    9365  123456  0.0000
SPC            2    9366  123456  0.0000
SPC            2    9367  123456  0.0000
SPC            2    9368  123456  0.0000
SPC            2    9369  123456  0.0000
SPC            2    9370  123456  0.0000
SPC            2    9371  123456  0.0000
SPC            2    9372  123456  0.0000
SPC            2    9373  123456  0.0000
SPC            2    9374  123456  0.0000
SPC            2    9375  123456  0.0000
SPC            2    9376  123456  0.0000
SPC            2    9377  123456  0.0000
SPC            2    9378  123456  0.0000
SPC            2    9379  123456  0.0000
SPC            2    9380  123456  0.0000
SPC            2    9381  123456  0.0000
SPC            2    9382  123456  0.0000
SPC            2    9383  123456  0.0000
SPC            2    9384  123456  0.0000
SPC            2    9385  123456  0.0000
SPC            2    9386  123456  0.0000
SPC            2    9387  123456  0.0000
SPC            2    9388  123456  0.0000
SPC            2    9389  123456  0.0000
SPC            2    9390  123456  0.0000
SPC            2    9391  123456  0.0000
SPC            2    9392  123456  0.0000
SPC            2    9393  123456  0.0000
SPC            2    9394  123456  0.0000
SPC            2    9395  123456  0.0000
SPC            2    9396  123456  0.0000
SPC            2    9397  123456  0.0000
SPC            2    9398  123456  0.0000
SPC            2    9399  123456  0.0000
SPC            2    9400  123456  0.0000
SPC            2    9401  123456  0.0000
SPC            2    9402  123456  0.0000
SPC            2    9403  123456  0.0000
SPC            2    9404  123456  0.0000
SPC            2    9405  123456  0.0000
SPC            2    9406  123456  0.0000
SPC            2    9407  123456  0.0000
SPC            2    9408  123456  0.0000
SPC            2    9409  123456  0.0000
SPC            2    9410  123456  0.0000
SPC            2    9411  123456  0.0000
SPC            2    9412  123456  0.0000
SPC            2    9413  123456  0.0000
SPC            2    9414  123456  0.0000
SPC            2    9415  123456  0.0000
SPC            2    9416  123456  0.0000
SPC            2    9417  123456  0.0000
SPC            2    9418  123456  0.0000
SPC            2    9419  123456  0.0000
SPC            2    9420  123456  0.0000
SPC            2    9421  123456  0.0000
SPC            2    9422  123456  0.0000
SPC            2    9423  123456  0.0000
SPC            2    9424  123456  0.0000
SPC            2    9425  123456  0.0000
SPC            2    9426  123456  0.0000
SPC            2    9427  123456  0.0000
SPC            2    9428  123456  0.0000
SPC            2    9429  123456  0.0000
SPC            2    9430  123456  0.0000
SPC            2    9431  123456  0.0000
SPC            2    9432  123456  0.0000
SPC            2    9433  123456  0.0000
SPC            2    9434  123456  0.0000
SPC            2    9435  123456  0.0000
SPC            2    9436  123456  0.0000
SPC            2    9437  123456  0.0000
SPC            2    9438  123456  0.0000
SPC            2    9439  123456  0.0000
SPC            2    9440  123456  0.0000
SPC            2    9441  123456  0.0000
SPC            2    9442  123456  0.0000
SPC            2    9443  123456  0.0000
SPC            2    9444  123456  0.0000
SPC            2    9445  123456  0.0000
SPC            2    9446  123456  0.0000
SPC            2    9447  123456  0.0000
SPC            2    9448  123456  0.0000
SPC            2    9449  123456  0.0000
SPC            2    9450  123456  0.0000
SPC            2    9451  123456  0.0000
SPC            2    9452  123456  0.0000
SPC            2    9453  123456  0.0000
SPC            2    9454  123456  0.0000
SPC            2    9455  123456  0.0000
SPC            2    9456  123456  0.0000
SPC            2    9457  123456  0.0000
SPC            2    9458  123456  0.0000
SPC            2    9459  123456  0.0000
SPC            2    9460  123456  0.0000
SPC            2    9461  123456  0.0000
SPC            2    9462  123456  0.0000
SPC            2    9463  123456  0.0000
SPC            2    9464  123456  0.0000
SPC            2    9465  123456  0.0000
SPC            2    9466  123456  0.0000
SPC            2    9467  123456  0.0000
SPC            2    9468  123456  0.0000
SPC            2    9469  123456  0.0000
SPC            2    9470  123456  0.0000
SPC            2    9471  123456  0.0000
SPC            2    9472  123456  0.0000
SPC            2    9473  123456  0.0000
SPC            2    9474  123456  0.0000
SPC            2    9475  123456  0.0000
SPC            2    9476  123456  0.0000
SPC            2    9477  123456  0.0000
SPC            2    9478  123456  0.0000
SPC            2    9479  123456  0.0000
SPC            2    9480  123456  0.0000
SPC            2    9481  123456  0.0000
SPC            2    9482  123456  0.0000
SPC            2    9483  123456  0.0000
SPC            2    9484  123456  0.0000
SPC            2    9485  123456  0.0000
SPC            2    9486  123456  0.0000
SPC            2    9487  123456  0.0000
SPC            2    9488  123456  0.0000
SPC            2    9489  123456  0.0000
SPC            2    9490  123456  0.0000
SPC            2    9491  123456  0.0000
SPC            2    9492  123456  0.0000
SPC            2    9493  123456  0.0000
SPC            2    9494  123456  0.0000
SPC            2    9495  123456  0.0000
SPC            2    9496  123456  0.0000
SPC            2    9497  123456  0.0000
SPC            2    9498  123456  0.0000
SPC            2    9499  123456  0.0000
SPC            2    9500  123456  0.0000
SPC            2    9501  123456  0.0000
SPC            2    9502  123456  0.0000
SPC            2    9503  123456  0.0000
SPC            2    9504  123456  0.0000
SPC            2    9505  123456  0.0000
SPC            2    9506  123456  0.0000
SPC            2    9507  123456  0.0000
SPC            2    9508  123456  0.0000
SPC            2    9509  123456  0.0000
SPC            2    9510  123456  0.0000
SPC            2    9511  123456  0.0000
SPC            2    9512  123456  0.0000
SPC            2    9513  123456  0.0000
SPC            2    9514  123456  0.0000
SPC            2    9515  123456  0.0000
SPC            2    9516  123456  0.0000
SPC            2    9517  123456  0.0000
SPC            2    9518  123456  0.0000
SPC            2    9519  123456  0.0000
SPC            2    9520  123456  0.0000
SPC            2    9521  123456  0.0000
SPC            2    9522  123456  0.0000
SPC            2    9523  123456  0.0000
SPC            2    9524  123456  0.0000
SPC            2    9525  123456  0.0000
SPC            2    9526  123456  0.0000
SPC            2    9527  123456  0.0000
SPC            2    9528  123456  0.0000
SPC            2    9529  123456  0.0000
SPC            2    9530  123456  0.0000
SPC            2    9531  123456  0.0000
SPC            2    9532  123456  0.0000
SPC            2    9533  123456  0.0000
SPC            2    9534  123456  0.0000
SPC            2    9535  123456  0.0000
SPC            2    9536  123456  0.0000
SPC            2    9537  123456  0.0000
SPC            2    9538  123456  0.0000
SPC            2    9539  123456  0.0000
SPC            2    9540  123456  0.0000
SPC            2    9541  123456  0.0000
SPC            2    9542  123456  0.0000
SPC            2    9543  123456  0.0000
SPC            2    9544  123456  0.0000
SPC            2    9545  123456  0.0000
SPC            2    9546  123456  0.0000
SPC            2    9547  123456  0.0000
SPC            2    9548  123456  0.0000
SPC            2    9549  123456  0.0000
SPC            2    9550  123456  0.0000
SPC            2    9551  123456  0.0000
SPC            2    9552  123456  0.0000
SPC            2    9553  123456  0.0000
SPC            2    9554  123456  0.0000
SPC            2    9555  123456  0.0000
SPC            2    9556  123456  0.0000
SPC            2    9557  123456  0.0000
SPC            2    9558  123456  0.0000
SPC            2    9559  123456  0.0000
SPC            2    9560  123456  0.0000
SPC            2    9561  123456  0.0000
SPC            2    9562  123456  0.0000
SPC            2    9563  123456  0.0000
SPC            2    9564  123456  0.0000
SPC            2    9565  123456  0.0000
SPC            2    9566  123456  0.0000
SPC            2    9567  123456  0.0000
SPC            2    9568  123456  0.0000
SPC            2    9569  123456  0.0000
SPC            2    9570  123456  0.0000
SPC            2    9571  123456  0.0000
SPC            2    9572  123456  0.0000
SPC            2    9573  123456  0.0000
SPC            2    9574  123456  0.0000
SPC            2    9575  123456  0.0000
SPC            2    9576  123456  0.0000
SPC            2    9577  123456  0.0000
SPC            2    9578  123456  0.0000
SPC            2    9579  123456  0.0000
SPC            2    9580  123456  0.0000
SPC            2    9581  123456  0.0000
SPC            2    9582  123456  0.0000
SPC            2    9583  123456  0.0000
SPC            2    9584  123456  0.0000
SPC            2    9585  123456  0.0000
SPC            2    9586  123456  0.0000
SPC            2    9587  123456  0.0000
SPC            2    9588  123456  0.0000
SPC            2    9589  123456  0.0000
SPC            2    9590  123456  0.0000
SPC            2    9591  123456  0.0000
SPC            2    9592  123456  0.0000
SPC            2    9593  123456  0.0000
SPC            2    9594  123456  0.0000
SPC            2    9595  123456  0.0000
SPC            2    9596  123456  0.0000
SPC            2    9597  123456  0.0000
SPC            2    9598  123456  0.0000
SPC            2    9599  123456  0.0000
SPC            2    9600  123456  0.0000
SPC            2    9601  123456  0.0000
SPC            2    9602  123456  0.0000
SPC            2    9603  123456  0.0000
SPC            2    9604  123456  0.0000
SPC            2    9605  123456  0.0000
SPC            2    9606  123456  0.0000
SPC            2    9607  123456  0.0000
SPC            2    9608  123456  0.0000
SPC            2    9609  123456  0.0000
SPC            2    9610  123456  0.0000
SPC            2    9611  123456  0.0000
SPC            2    9612  123456  0.0000
SPC            2    9613  123456  0.0000
SPC            2    9614  123456  0.0000
SPC            2    9615  123456  0.0000
SPC            2    9616  123456  0.0000
SPC            2    9617  123456  0.0000
SPC            2    9618  123456  0.0000
SPC            2    9619  123456  0.0000
SPC            2    9620  123456  0.0000
SPC            2    9621  123456  0.0000
SPC            2    9622  123456  0.0000
SPC            2    9623  123456  0.0000
SPC            2    9624  123456  0.0000
SPC            2    9625  123456  0.0000
SPC            2    9626  123456  0.0000
SPC            2    9627  123456  0.0000
SPC            2    9628  123456  0.0000
SPC            2    9629  123456  0.0000
SPC            2    9630  123456  0.0000
SPC            2    9631  123456  0.0000
SPC            2    9632  123456  0.0000
SPC            2    9633  123456  0.0000
SPC            2    9634  123456  0.0000
SPC            2    9635  123456  0.0000
SPC            2    9636  123456  0.0000
SPC            2    9637  123456  0.0000
SPC            2    9638  123456  0.0000
SPC            2    9639  123456  0.0000
SPC            2    9640  123456  0.0000
SPC            2    9641  123456  0.0000
SPC            2    9642  123456  0.0000
SPC            2    9643  123456  0.0000
SPC            2    9644  123456  0.0000
SPC            2    9645  123456  0.0000
SPC            2    9646  123456  0.0000
SPC            2    9647  123456  0.0000
SPC            2    9648  123456  0.0000
SPC            2    9649  123456  0.0000
SPC            2    9650  123456  0.0000
SPC            2    9651  123456  0.0000
SPC            2    9652  123456  0.0000
SPC            2    9653  123456  0.0000
SPC            2    9654  123456  0.0000
SPC            2    9655  123456  0.0000
SPC            2    9656  123456  0.0000
SPC            2    9657  123456  0.0000
SPC            2    9658  123456  0.0000
SPC            2    9659  123456  0.0000
SPC            2    9660  123456  0.0000
SPC            2    9661  123456  0.0000
SPC            2    9662  123456  0.0000
SPC            2    9663  123456  0.0000
SPC            2    9664  123456  0.0000
SPC            2    9665  123456  0.0000
SPC            2    9666  123456  0.0000
SPC            2    9667  123456  0.0000
SPC            2    9668  123456  0.0000
SPC            2    9669  123456  0.0000
SPC            2    9670  123456  0.0000
SPC            2    9671  123456  0.0000
SPC            2    9672  123456  0.0000
SPC            2    9673  123456  0.0000
SPC            2    9674  123456  0.0000
SPC            2    9675  123456  0.0000
SPC            2    9676  123456  0.0000
SPC            2    9677  123456  0.0000
SPC            2    9678  123456  0.0000
SPC            2    9679  123456  0.0000
SPC            2    9680  123456  0.0000
SPC            2    9681  123456  0.0000
SPC            2    9682  123456  0.0000
SPC            2    9683  123456  0.0000
SPC            2    9684  123456  0.0000
SPC            2    9685  123456  0.0000
SPC            2    9686  123456  0.0000
SPC            2    9687  123456  0.0000
SPC            2    9688  123456  0.0000
SPC            2    9689  123456  0.0000
SPC            2    9690  123456  0.0000
SPC            2    9691  123456  0.0000
SPC            2    9692  123456  0.0000
SPC            2    9693  123456  0.0000
SPC            2    9694  123456  0.0000
SPC            2    9695  123456  0.0000
SPC            2    9696  123456  0.0000
SPC            2    9697  123456  0.0000
SPC            2    9698  123456  0.0000
SPC            2    9699  123456  0.0000
SPC            2    9700  123456  0.0000
SPC            2    9701  123456  0.0000
SPC            2    9702  123456  0.0000
SPC            2    9703  123456  0.0000
SPC            2    9704  123456  0.0000
SPC            2    9705  123456  0.0000
SPC            2    9706  123456  0.0000
SPC            2    9707  123456  0.0000
SPC            2    9708  123456  0.0000
SPC            2    9709  123456  0.0000
SPC            2    9710  123456  0.0000
SPC            2    9711  123456  0.0000
SPC            2    9712  123456  0.0000
SPC            2    9713  123456  0.0000
SPC            2    9714  123456  0.0000
SPC            2    9715  123456  0.0000
SPC            2    9716  123456  0.0000
SPC            2    9717  123456  0.0000
SPC            2    9718  123456  0.0000
SPC            2    9719  123456  0.0000
SPC            2    9720  123456  0.0000
SPC            2    9721  123456  0.0000
SPC            2    9722  123456  0.0000
SPC            2    9723  123456  0.0000
SPC            2    9724  123456  0.0000
SPC            2    9725  123456  0.0000
SPC            2    9726  123456  0.0000
SPC            2    9727  123456  0.0000
SPC            2    9728  123456  0.0000
SPC            2    9729  123456  0.0000
SPC            2    9730  123456  0.0000
SPC            2    9731  123456  0.0000
SPC            2    9732  123456  0.0000
SPC            2    9733  123456  0.0000
SPC            2    9734  123456  0.0000
SPC            2    9735  123456  0.0000
SPC            2    9736  123456  0.0000
SPC            2    9737  123456  0.0000
SPC            2    9738  123456  0.0000
SPC            2    9739  123456  0.0000
SPC            2    9740  123456  0.0000
SPC            2    9741  123456  0.0000
SPC            2    9742  123456  0.0000
SPC            2    9743  123456  0.0000
SPC            2    9744  123456  0.0000
SPC            2    9745  123456  0.0000
SPC            2    9746  123456  0.0000
SPC            2    9747  123456  0.0000
SPC            2    9748  123456  0.0000
SPC            2    9749  123456  0.0000
SPC            2    9750  123456  0.0000
SPC            2    9751  123456  0.0000
SPC            2    9752  123456  0.0000
SPC            2    9753  123456  0.0000
SPC            2    9754  123456  0.0000
SPC            2    9755  123456  0.0000
SPC            2    9756  123456  0.0000
SPC            2    9757  123456  0.0000
SPC            2    9758  123456  0.0000
SPC            2    9759  123456  0.0000
SPC            2    9760  123456  0.0000
SPC            2    9761  123456  0.0000
SPC            2    9762  123456  0.0000
SPC            2    9763  123456  0.0000
SPC            2    9764  123456  0.0000
SPC            2    9765  123456  0.0000
SPC            2    9766  123456  0.0000
SPC            2    9767  123456  0.0000
SPC            2    9768  123456  0.0000
SPC            2    9769  123456  0.0000
SPC            2    9770  123456  0.0000
SPC            2    9771  123456  0.0000
SPC            2    9772  123456  0.0000
SPC            2    9773  123456  0.0000
SPC            2    9774  123456  0.0000
SPC            2    9775  123456  0.0000
SPC            2    9776  123456  0.0000
SPC            2    9777  123456  0.0000
SPC            2    9778  123456  0.0000
SPC            2    9779  123456  0.0000
SPC            2    9780  123456  0.0000
SPC            2    9781  123456  0.0000
SPC            2    9782  123456  0.0000
SPC            2    9783  123456  0.0000
SPC            2    9784  123456  0.0000
SPC            2    9785  123456  0.0000
SPC            2    9786  123456  0.0000
SPC            2    9787  123456  0.0000
SPC            2    9788  123456  0.0000
SPC            2    9789  123456  0.0000
SPC            2    9790  123456  0.0000
SPC            2    9791  123456  0.0000
SPC            2    9792  123456  0.0000
SPC            2    9793  123456  0.0000
SPC            2    9794  123456  0.0000
SPC            2    9795  123456  0.0000
SPC            2    9796  123456  0.0000
SPC            2    9797  123456  0.0000
SPC            2    9798  123456  0.0000
SPC            2    9799  123456  0.0000
SPC            2    9800  123456  0.0000
SPC            2    9801  123456  0.0000
SPC            2    9802  123456  0.0000
SPC            2    9803  123456  0.0000
SPC            2    9804  123456  0.0000
SPC            2    9805  123456  0.0000
SPC            2    9806  123456  0.0000
SPC            2    9807  123456  0.0000
SPC            2    9808  123456  0.0000
SPC            2    9809  123456  0.0000
SPC            2    9810  123456  0.0000
SPC            2    9811  123456  0.0000
SPC            2    9812  123456  0.0000
SPC            2    9813  123456  0.0000
SPC            2    9814  123456  0.0000
SPC            2    9815  123456  0.0000
SPC            2    9816  123456  0.0000
SPC            2    9817  123456  0.0000
SPC            2    9818  123456  0.0000
SPC            2    9819  123456  0.0000
SPC            2    9820  123456  0.0000
SPC            2    9821  123456  0.0000
SPC            2    9822  123456  0.0000
SPC            2    9823  123456  0.0000
SPC            2    9824  123456  0.0000
SPC            2    9825  123456  0.0000
SPC            2    9826  123456  0.0000
SPC            2    9827  123456  0.0000
SPC            2    9828  123456  0.0000
SPC            2    9829  123456  0.0000
SPC            2    9830  123456  0.0000
SPC            2    9831  123456  0.0000
SPC            2    9832  123456  0.0000
SPC            2    9833  123456  0.0000
SPC            2    9834  123456  0.0000
SPC            2    9835  123456  0.0000
SPC            2    9836  123456  0.0000
SPC            2    9837  123456  0.0000
SPC            2    9838  123456  0.0000
SPC            2    9839  123456  0.0000
SPC            2    9840  123456  0.0000
SPC            2    9841  123456  0.0000
SPC            2    9842  123456  0.0000
SPC            2    9843  123456  0.0000
SPC            2    9844  123456  0.0000
SPC            2    9845  123456  0.0000
SPC            2    9846  123456  0.0000
SPC            2    9847  123456  0.0000
SPC            2    9848  123456  0.0000
SPC            2    9849  123456  0.0000
SPC            2    9850  123456  0.0000
SPC            2    9851  123456  0.0000
SPC            2    9852  123456  0.0000
SPC            2    9853  123456  0.0000
SPC            2    9854  123456  0.0000
SPC            2    9855  123456  0.0000
SPC            2    9856  123456  0.0000
SPC            2    9857  123456  0.0000
SPC            2    9858  123456  0.0000
SPC            2    9859  123456  0.0000
SPC            2    9860  123456  0.0000
SPC            2    9861  123456  0.0000
SPC            2    9862  123456  0.0000
SPC            2    9863  123456  0.0000
SPC            2    9864  123456  0.0000
SPC            2    9865  123456  0.0000
SPC            2    9866  123456  0.0000
SPC            2    9867  123456  0.0000
SPC            2    9868  123456  0.0000
SPC            2    9869  123456  0.0000
SPC            2    9870  123456  0.0000
SPC            2    9871  123456  0.0000
SPC            2    9872  123456  0.0000
SPC            2    9873  123456  0.0000
SPC            2    9874  123456  0.0000
SPC            2    9875  123456  0.0000
SPC            2    9876  123456  0.0000
SPC            2    9877  123456  0.0000
SPC            2    9878  123456  0.0000
SPC            2    9879  123456  0.0000
SPC            2    9880  123456  0.0000
SPC            2    9881  123456  0.0000
SPC            2    9882  123456  0.0000
SPC            2    9883  123456  0.0000
SPC            2    9884  123456  0.0000
SPC            2    9885  123456  0.0000
SPC            2    9886  123456  0.0000
SPC            2    9887  123456  0.0000
SPC            2    9888  123456  0.0000
SPC            2    9889  123456  0.0000
SPC            2    9890  123456  0.0000
SPC            2    9891  123456  0.0000
SPC            2    9892  123456  0.0000
SPC            2    9893  123456  0.0000
SPC            2    9894  123456  0.0000
SPC            2    9895  123456  0.0000
SPC            2    9896  123456  0.0000
SPC            2    9897  123456  0.0000
SPC            2    9898  123456  0.0000
SPC            2    9899  123456  0.0000
SPC            2    9900  123456  0.0000
SPC            2    9901  123456  0.0000
SPC            2    9902  123456  0.0000
SPC            2    9903  123456  0.0000
SPC            2    9904  123456  0.0000
SPC            2    9905  123456  0.0000
SPC            2    9906  123456  0.0000
SPC            2    9907  123456  0.0000
SPC            2    9908  123456  0.0000
SPC            2    9909  123456  0.0000
SPC            2    9910  123456  0.0000
SPC            2    9911  123456  0.0000
SPC            2    9912  123456  0.0000
SPC            2    9913  123456  0.0000
SPC            2    9914  123456  0.0000
SPC            2    9915  123456  0.0000
SPC            2    9916  123456  0.0000
SPC            2    9917  123456  0.0000
SPC            2    9918  123456  0.0000
SPC            2    9919  123456  0.0000
SPC            2    9920  123456  0.0000
SPC            2    9921  123456  0.0000
SPC            2    9922  123456  0.0000
SPC            2    9923  123456  0.0000
SPC            2    9924  123456  0.0000
SPC            2    9925  123456  0.0000
SPC            2    9926  123456  0.0000
SPC            2    9927  123456  0.0000
SPC            2    9928  123456  0.0000
SPC            2    9929  123456  0.0000
SPC            2    9930  123456  0.0000
SPC            2    9931  123456  0.0000
SPC            2    9932  123456  0.0000
SPC            2    9933  123456  0.0000
SPC            2    9934  123456  0.0000
SPC            2    9935  123456  0.0000
SPC            2    9936  123456  0.0000
SPC            2    9937  123456  0.0000
SPC            2    9938  123456  0.0000
SPC            2    9939  123456  0.0000
SPC            2    9940  123456  0.0000
SPC            2    9941  123456  0.0000
SPC            2    9942  123456  0.0000
SPC            2    9943  123456  0.0000
SPC            2    9944  123456  0.0000
SPC            2    9945  123456  0.0000
SPC            2    9946  123456  0.0000
SPC            2    9947  123456  0.0000
SPC            2    9948  123456  0.0000
SPC            2    9949  123456  0.0000
SPC            2    9950  123456  0.0000
SPC            2    9951  123456  0.0000
SPC            2    9952  123456  0.0000
SPC            2    9953  123456  0.0000
SPC            2    9954  123456  0.0000
SPC            2    9955  123456  0.0000
SPC            2    9956  123456  0.0000
SPC            2    9957  123456  0.0000
SPC            2    9958  123456  0.0000
SPC            2    9959  123456  0.0000
SPC            2    9960  123456  0.0000
SPC            2    9961  123456  0.0000
SPC            2    9962  123456  0.0000
SPC            2    9963  123456  0.0000
SPC            2    9964  123456  0.0000
SPC            2    9965  123456  0.0000
SPC            2    9966  123456  0.0000
SPC            2    9967  123456  0.0000
SPC            2    9968  123456  0.0000
SPC            2    9969  123456  0.0000
SPC            2    9970  123456  0.0000
SPC            2    9971  123456  0.0000
SPC            2    9972  123456  0.0000
SPC            2    9973  123456  0.0000
SPC            2    9974  123456  0.0000
SPC            2    9975  123456  0.0000
SPC            2    9976  123456  0.0000
SPC            2    9977  123456  0.0000
SPC            2    9978  123456  0.0000
SPC            2    9979  123456  0.0000
SPC            2    9980  123456  0.0000
SPC            2    9981  123456  0.0000
SPC            2    9982  123456  0.0000
SPC            2    9983  123456  0.0000
SPC            2    9984  123456  0.0000
SPC            2    9985  123456  0.0000
SPC            2    9986  123456  0.0000
SPC            2    9987  123456  0.0000
SPC            2    9988  123456  0.0000
SPC            2    9989  123456  0.0000
SPC            2    9990  123456  0.0000
SPC            2    9991  123456  0.0000
SPC            2    9992  123456  0.0000
SPC            2    9993  123456  0.0000
SPC            2    9994  123456  0.0000
SPC            2    9995  123456  0.0000
SPC            2    9996  123456  0.0000
SPC            2    9997  123456  0.0000
SPC            2    9998  123456  0.0000
SPC            2    9999  123456  0.0000
SPC            2   10000  123456  0.0000
SPC            2   10001  123456  0.0000
SPC            2   10002  123456  0.0000
SPC            2   10003  123456  0.0000
SPC            2   10004  123456  0.0000
SPC            2   10005  123456  0.0000
SPC            2   10006  123456  0.0000
SPC            2   10007  123456  0.0000
SPC            2   10008  123456  0.0000
SPC            2   10009  123456  0.0000
SPC            2   10010  123456  0.0000
SPC            2   10011  123456  0.0000
SPC            2   10012  123456  0.0000
SPC            2   10013  123456  0.0000
SPC            2   10014  123456  0.0000
SPC            2   10015  123456  0.0000
SPC            2   10016  123456  0.0000
SPC            2   10017  123456  0.0000
SPC            2   10018  123456  0.0000
SPC            2   10019  123456  0.0000
SPC            2   10020  123456  0.0000
SPC            2   10021  123456  0.0000
SPC            2   10022  123456  0.0000
SPC            2   10023  123456  0.0000
SPC            2   10024  123456  0.0000
SPC            2   10025  123456  0.0000
SPC            2   10026  123456  0.0000
SPC            2   10027  123456  0.0000
SPC            2   10028  123456  0.0000
SPC            2   10029  123456  0.0000
SPC            2   10030  123456  0.0000
SPC            2   10031  123456  0.0000
SPC            2   10032  123456  0.0000
SPC            2   10033  123456  0.0000
SPC            2   10034  123456  0.0000
SPC            2   10035  123456  0.0000
SPC            2   10036  123456  0.0000
SPC            2   10037  123456  0.0000
SPC            2   10038  123456  0.0000
SPC            2   10039  123456  0.0000
SPC            2   10040  123456  0.0000
SPC            2   10041  123456  0.0000
SPC            2   10042  123456  0.0000
SPC            2   10043  123456  0.0000
SPC            2   10044  123456  0.0000
SPC            2   10045  123456  0.0000
SPC            2   10046  123456  0.0000
SPC            2   10047  123456  0.0000
SPC            2   10048  123456  0.0000
SPC            2   10049  123456  0.0000
SPC            2   10050  123456  0.0000
SPC            2   10051  123456  0.0000
SPC            2   10052  123456  0.0000
SPC            2   10053  123456  0.0000
SPC            2   10054  123456  0.0000
SPC            2   10055  123456  0.0000
SPC            2   10056  123456  0.0000
SPC            2   10057  123456  0.0000
SPC            2   10058  123456  0.0000
SPC            2   10059  123456  0.0000
SPC            2   10060  123456  0.0000
SPC            2   10061  123456  0.0000
SPC            2   10062  123456  0.0000
SPC            2   10063  123456  0.0000
SPC            2   10064  123456  0.0000
SPC            2   10065  123456  0.0000
SPC            2   10066  123456  0.0000
SPC            2   10067  123456  0.0000
SPC            2   10068  123456  0.0000
SPC            2   10069  123456  0.0000
SPC            2   10070  123456  0.0000
SPC            2   10071  123456  0.0000
SPC            2   10072  123456  0.0000
SPC            2   10073  123456  0.0000
SPC            2   10074  123456  0.0000
SPC            2   10075  123456  0.0000
SPC            2   10076  123456  0.0000
SPC            2   10077  123456  0.0000
SPC            2   10078  123456  0.0000
SPC            2   10079  123456  0.0000
SPC            2   10080  123456  0.0000
SPC            2   10081  123456  0.0000
SPC            2   10082  123456  0.0000
SPC            2   10083  123456  0.0000
SPC            2   10084  123456  0.0000
SPC            2   10085  123456  0.0000
SPC            2   10086  123456  0.0000
SPC            2   10087  123456  0.0000
SPC            2   10088  123456  0.0000
SPC            2   10089  123456  0.0000
SPC            2   10090  123456  0.0000
SPC            2   10091  123456  0.0000
SPC            2   10092  123456  0.0000
SPC            2   10093  123456  0.0000
SPC            2   10094  123456  0.0000
SPC            2   10095  123456  0.0000
SPC            2   10096  123456  0.0000
SPC            2   10097  123456  0.0000
SPC            2   10098  123456  0.0000
SPC            2   10099  123456  0.0000
SPC            2   10100  123456  0.0000
SPC            2   10101  123456  0.0000
SPC            2   10102  123456  0.0000
SPC            2   10103  123456  0.0000
SPC            2   10104  123456  0.0000
SPC            2   10105  123456  0.0000
SPC            2   10106  123456  0.0000
SPC            2   10107  123456  0.0000
SPC            2   10108  123456  0.0000
SPC            2   10109  123456  0.0000
SPC            2   10110  123456  0.0000
SPC            2   10111  123456  0.0000
SPC            2   10112  123456  0.0000
SPC            2   10113  123456  0.0000
SPC            2   10114  123456  0.0000
SPC            2   10115  123456  0.0000
SPC            2   10116  123456  0.0000
SPC            2   10117  123456  0.0000
SPC            2   10118  123456  0.0000
SPC            2   10119  123456  0.0000
SPC            2   10120  123456  0.0000
SPC            2   10121  123456  0.0000
SPC            2   10122  123456  0.0000
SPC            2   10123  123456  0.0000
SPC            2   10124  123456  0.0000
SPC            2   10125  123456  0.0000
SPC            2   10126  123456  0.0000
SPC            2   10127  123456  0.0000
SPC            2   10128  123456  0.0000
SPC            2   10129  123456  0.0000
SPC            2   10130  123456  0.0000
SPC            2   10131  123456  0.0000
SPC            2   10132  123456  0.0000
SPC            2   10133  123456  0.0000
SPC            2   10134  123456  0.0000
SPC            2   10135  123456  0.0000
SPC            2   10136  123456  0.0000
SPC            2   10137  123456  0.0000
SPC            2   10138  123456  0.0000
SPC            2   10139  123456  0.0000
SPC            2   10140  123456  0.0000
SPC            2   10141  123456  0.0000
SPC            2   10142  123456  0.0000
SPC            2   10143  123456  0.0000
SPC            2   10144  123456  0.0000
SPC            2   10145  123456  0.0000
SPC            2   10146  123456  0.0000
SPC            2   10147  123456  0.0000
SPC            2   10148  123456  0.0000
SPC            2   10149  123456  0.0000
SPC            2   10150  123456  0.0000
SPC            2   10151  123456  0.0000
SPC            2   10152  123456  0.0000
SPC            2   10153  123456  0.0000
SPC            2   10154  123456  0.0000
SPC            2   10155  123456  0.0000
SPC            2   10156  123456  0.0000
SPC            2   10157  123456  0.0000
SPC            2   10158  123456  0.0000
SPC            2   10159  123456  0.0000
SPC            2   10160  123456  0.0000
SPC            2   10161  123456  0.0000
SPC            2   10162  123456  0.0000
SPC            2   10163  123456  0.0000
SPC            2   10164  123456  0.0000
SPC            2   10165  123456  0.0000
SPC            2   10166  123456  0.0000
SPC            2   10167  123456  0.0000
SPC            2   10168  123456  0.0000
SPC            2   10169  123456  0.0000
SPC            2   10170  123456  0.0000
SPC            2   10171  123456  0.0000
SPC            2   10172  123456  0.0000
SPC            2   10173  123456  0.0000
SPC            2   10174  123456  0.0000
SPC            2   10175  123456  0.0000
SPC            2   10176  123456  0.0000
SPC            2   10177  123456  0.0000
SPC            2   10178  123456  0.0000
SPC            2   10179  123456  0.0000
SPC            2   10180  123456  0.0000
SPC            2   10181  123456  0.0000
SPC            2   10182  123456  0.0000
SPC            2   10183  123456  0.0000
SPC            2   10184  123456  0.0000
SPC            2   10185  123456  0.0000
SPC            2   10186  123456  0.0000
SPC            2   10187  123456  0.0000
SPC            2   10188  123456  0.0000
SPC            2   10189  123456  0.0000
SPC            2   10190  123456  0.0000
SPC            2   10191  123456  0.0000
SPC            2   10192  123456  0.0000
SPC            2   10193  123456  0.0000
SPC            2   10194  123456  0.0000
SPC            2   10195  123456  0.0000
SPC            2   10196  123456  0.0000
SPC            2   10197  123456  0.0000
SPC            2   10198  123456  0.0000
SPC            2   10199  123456  0.0000
SPC            2   10200  123456  0.0000
SPC            2   10201  123456  0.0000
SPC            2   10202  123456  0.0000
SPC            2   10203  123456  0.0000
SPC            2   10204  123456  0.0000
SPC            2   10205  123456  0.0000
SPC            2   10206  123456  0.0000
SPC            2   10207  123456  0.0000
SPC            2   10208  123456  0.0000
SPC            2   10209  123456  0.0000
SPC            2   10210  123456  0.0000
SPC            2   10211  123456  0.0000
SPC            2   10212  123456  0.0000
SPC            2   10213  123456  0.0000
SPC            2   10214  123456  0.0000
SPC            2   10215  123456  0.0000
SPC            2   10216  123456  0.0000
SPC            2   10217  123456  0.0000
SPC            2   10218  123456  0.0000
SPC            2   10219  123456  0.0000
SPC            2   10220  123456  0.0000
SPC            2   10221  123456  0.0000
SPC            2   10222  123456  0.0000
SPC            2   10223  123456  0.0000
SPC            2   10224  123456  0.0000
SPC            2   10225  123456  0.0000
SPC            2   10226  123456  0.0000
SPC            2   10227  123456  0.0000
SPC            2   10228  123456  0.0000
SPC            2   10229  123456  0.0000
SPC            2   10230  123456  0.0000
SPC            2   10231  123456  0.0000
SPC            2   10232  123456  0.0000
SPC            2   10233  123456  0.0000
SPC            2   10234  123456  0.0000
SPC            2   10235  123456  0.0000
SPC            2   10236  123456  0.0000
SPC            2   10237  123456  0.0000
SPC            2   10238  123456  0.0000
SPC            2   10239  123456  0.0000
SPC            2   10240  123456  0.0000
SPC            2   10241  123456  0.0000
SPC            2   10242  123456  0.0000
SPC            2   10243  123456  0.0000
SPC            2   10244  123456  0.0000
SPC            2   10245  123456  0.0000
SPC            2   10246  123456  0.0000
SPC            2   10247  123456  0.0000
SPC            2   10248  123456  0.0000
SPC            2   10249  123456  0.0000
SPC            2   10250  123456  0.0000
SPC            2   10251  123456  0.0000
SPC            2   10252  123456  0.0000
SPC            2   10253  123456  0.0000
SPC            2   10254  123456  0.0000
SPC            2   10255  123456  0.0000
SPC            2   10256  123456  0.0000
SPC            2   10257  123456  0.0000
SPC            2   10258  123456  0.0000
SPC            2   10259  123456  0.0000
SPC            2   10260  123456  0.0000
SPC            2   10261  123456  0.0000
SPC            2   10262  123456  0.0000
SPC            2   10263  123456  0.0000
SPC            2   10264  123456  0.0000
SPC            2   10265  123456  0.0000
SPC            2   10266  123456  0.0000
SPC            2   10267  123456  0.0000
SPC            2   10268  123456  0.0000
SPC            2   10269  123456  0.0000
SPC            2   10270  123456  0.0000
SPC            2   10271  123456  0.0000
SPC            2   10272  123456  0.0000
SPC            2   10273  123456  0.0000
SPC            2   10274  123456  0.0000
SPC            2   10275  123456  0.0000
SPC            2   10276  123456  0.0000
SPC            2   10277  123456  0.0000
SPC            2   10278  123456  0.0000
SPC            2   10279  123456  0.0000
SPC            2   10280  123456  0.0000
SPC            2   10281  123456  0.0000
SPC            2   10282  123456  0.0000
SPC            2   10283  123456  0.0000
SPC            2   10284  123456  0.0000
SPC            2   10285  123456  0.0000
SPC            2   10286  123456  0.0000
SPC            2   10287  123456  0.0000
SPC            2   10288  123456  0.0000
SPC            2   10289  123456  0.0000
SPC            2   10290  123456  0.0000
SPC            2   10291  123456  0.0000
SPC            2   10292  123456  0.0000
SPC            2   10293  123456  0.0000
SPC            2   10294  123456  0.0000
SPC            2   10295  123456  0.0000
SPC            2   10296  123456  0.0000
SPC            2   10297  123456  0.0000
SPC            2   10298  123456  0.0000
SPC            2   10299  123456  0.0000
SPC            2   10300  123456  0.0000
SPC            2   10301  123456  0.0000
SPC            2   10302  123456  0.0000
SPC            2   10303  123456  0.0000
SPC            2   10304  123456  0.0000
SPC            2   10305  123456  0.0000
SPC            2   10306  123456  0.0000
SPC            2   10307  123456  0.0000
SPC            2   10308  123456  0.0000
SPC            2   10309  123456  0.0000
SPC            2   10310  123456  0.0000
SPC            2   10311  123456  0.0000
SPC            2   10312  123456  0.0000
SPC            2   10313  123456  0.0000
SPC            2   10314  123456  0.0000
SPC            2   10315  123456  0.0000
SPC            2   10316  123456  0.0000
SPC            2   10317  123456  0.0000
SPC            2   10318  123456  0.0000
SPC            2   10319  123456  0.0000
SPC            2   10320  123456  0.0000
SPC            2   10321  123456  0.0000
SPC            2   10322  123456  0.0000
SPC            2   10323  123456  0.0000
SPC            2   10324  123456  0.0000
SPC            2   10325  123456  0.0000
SPC            2   10326  123456  0.0000
SPC            2   10327  123456  0.0000
SPC            2   10328  123456  0.0000
SPC            2   10329  123456  0.0000
SPC            2   10330  123456  0.0000
SPC            2   10331  123456  0.0000
SPC            2   10332  123456  0.0000
SPC            2   10333  123456  0.0000
SPC            2   10334  123456  0.0000
SPC            2   10335  123456  0.0000
SPC            2   10336  123456  0.0000
SPC            2   10337  123456  0.0000
SPC            2   10338  123456  0.0000
SPC            2   10339  123456  0.0000
SPC            2   10340  123456  0.0000
SPC            2   10341  123456  0.0000
SPC            2   10342  123456  0.0000
SPC            2   10343  123456  0.0000
SPC            2   10344  123456  0.0000
SPC            2   10345  123456  0.0000
SPC            2   10346  123456  0.0000
SPC            2   10347  123456  0.0000
SPC            2   10348  123456  0.0000
SPC            2   10349  123456  0.0000
SPC            2   10350  123456  0.0000
SPC            2   10351  123456  0.0000
SPC            2   10352  123456  0.0000
SPC            2   10353  123456  0.0000
SPC            2   10354  123456  0.0000
SPC            2   10355  123456  0.0000
SPC            2   10356  123456  0.0000
SPC            2   10357  123456  0.0000
SPC            2   10358  123456  0.0000
SPC            2   10359  123456  0.0000
SPC            2   10360  123456  0.0000
SPC            2   10361  123456  0.0000
SPC            2   10362  123456  0.0000
SPC            2   10363  123456  0.0000
SPC            2   10364  123456  0.0000
SPC            2   10365  123456  0.0000
SPC            2   10366  123456  0.0000
SPC            2   10367  123456  0.0000
SPC            2   10368  123456  0.0000
SPC            2   10369  123456  0.0000
SPC            2   10370  123456  0.0000
SPC            2   10371  123456  0.0000
SPC            2   10372  123456  0.0000
SPC            2   10373  123456  0.0000
SPC            2   10374  123456  0.0000
SPC            2   10375  123456  0.0000
SPC            2   10376  123456  0.0000
SPC            2   10377  123456  0.0000
SPC            2   10378  123456  0.0000
SPC            2   10379  123456  0.0000
SPC            2   10380  123456  0.0000
SPC            2   10381  123456  0.0000
SPC            2   10382  123456  0.0000
SPC            2   10383  123456  0.0000
SPC            2   10384  123456  0.0000
SPC            2   10385  123456  0.0000
SPC            2   10386  123456  0.0000
SPC            2   10387  123456  0.0000
SPC            2   10388  123456  0.0000
SPC            2   10389  123456  0.0000
SPC            2   10390  123456  0.0000
SPC            2   10391  123456  0.0000
SPC            2   10392  123456  0.0000
SPC            2   10393  123456  0.0000
SPC            2   10394  123456  0.0000
SPC            2   10395  123456  0.0000
SPC            2   10396  123456  0.0000
SPC            2   10397  123456  0.0000
SPC            2   10398  123456  0.0000
SPC            2   10399  123456  0.0000
SPC            2   10400  123456  0.0000
SPC            2   10401  123456  0.0000
SPC            2   10402  123456  0.0000
SPC            2   10403  123456  0.0000
SPC            2   10404  123456  0.0000
SPC            2   10405  123456  0.0000
SPC            2   10406  123456  0.0000
SPC            2   10407  123456  0.0000
SPC            2   10408  123456  0.0000
SPC            2   10409  123456  0.0000
SPC            2   10410  123456  0.0000
SPC            2   10411  123456  0.0000
SPC            2   10412  123456  0.0000
SPC            2   10413  123456  0.0000
SPC            2   10414  123456  0.0000
SPC            2   10415  123456  0.0000
SPC            2   10416  123456  0.0000
SPC            2   10417  123456  0.0000
SPC            2   10418  123456  0.0000
SPC            2   10419  123456  0.0000
SPC            2   10420  123456  0.0000
SPC            2   10421  123456  0.0000
SPC            2   10422  123456  0.0000
SPC            2   10423  123456  0.0000
SPC            2   10424  123456  0.0000
SPC            2   10425  123456  0.0000
SPC            2   10426  123456  0.0000
SPC            2   10427  123456  0.0000
SPC            2   10428  123456  0.0000
SPC            2   10429  123456  0.0000
SPC            2   10430  123456  0.0000
SPC            2   10431  123456  0.0000
SPC            2   10432  123456  0.0000
SPC            2   10433  123456  0.0000
SPC            2   10434  123456  0.0000
SPC            2   10435  123456  0.0000
SPC            2   10436  123456  0.0000
SPC            2   10437  123456  0.0000
SPC            2   10438  123456  0.0000
SPC            2   10439  123456  0.0000
SPC            2   10440  123456  0.0000
SPC            2   10441  123456  0.0000
SPC            2   10442  123456  0.0000
SPC            2   10443  123456  0.0000
SPC            2   10444  123456  0.0000
SPC            2   10445  123456  0.0000
SPC            2   10446  123456  0.0000
SPC            2   10447  123456  0.0000
SPC            2   10448  123456  0.0000
SPC            2   10449  123456  0.0000
SPC            2   10450  123456  0.0000
SPC            2   10451  123456  0.0000
SPC            2   10452  123456  0.0000
SPC            2   10453  123456  0.0000
SPC            2   10454  123456  0.0000
SPC            2   10455  123456  0.0000
SPC            2   10456  123456  0.0000
SPC            2   10457  123456  0.0000
SPC            2   10458  123456  0.0000
SPC            2   10459  123456  0.0000
SPC            2   10460  123456  0.0000
SPC            2   10461  123456  0.0000
SPC            2   10462  123456  0.0000
SPC            2   10463  123456  0.0000
SPC            2   10464  123456  0.0000
SPC            2   10465  123456  0.0000
SPC            2   10466  123456  0.0000
SPC            2   10467  123456  0.0000
SPC            2   10468  123456  0.0000
SPC            2   10469  123456  0.0000
SPC            2   10470  123456  0.0000
SPC            2   10471  123456  0.0000
SPC            2   10472  123456  0.0000
SPC            2   10473  123456  0.0000
SPC            2   10474  123456  0.0000
SPC            2   10475  123456  0.0000
SPC            2   10476  123456  0.0000
SPC            2   10477  123456  0.0000
SPC            2   10478  123456  0.0000
SPC            2   10479  123456  0.0000
SPC            2   10480  123456  0.0000
SPC            2   10481  123456  0.0000
SPC            2   10482  123456  0.0000
SPC            2   10483  123456  0.0000
SPC            2   10484  123456  0.0000
SPC            2   10485  123456  0.0000
SPC            2   10486  123456  0.0000
SPC            2   10487  123456  0.0000
SPC            2   10488  123456  0.0000
SPC            2   10489  123456  0.0000
SPC            2   10490  123456  0.0000
SPC            2   10491  123456  0.0000
SPC            2   10492  123456  0.0000
SPC            2   10493  123456  0.0000
SPC            2   10494  123456  0.0000
SPC            2   10495  123456  0.0000
SPC            2   10496  123456  0.0000
SPC            2   10497  123456  0.0000
SPC            2   10498  123456  0.0000
SPC            2   10499  123456  0.0000
SPC            2   10500  123456  0.0000
SPC            2   10501  123456  0.0000
SPC            2   10502  123456  0.0000
SPC            2   10503  123456  0.0000
SPC            2   10504  123456  0.0000
SPC            2   10505  123456  0.0000
SPC            2   10506  123456  0.0000
SPC            2   10507  123456  0.0000
SPC            2   10508  123456  0.0000
SPC            2   10509  123456  0.0000
SPC            2   10510  123456  0.0000
SPC            2   10511  123456  0.0000
SPC            2   10512  123456  0.0000
SPC            2   10513  123456  0.0000
SPC            2   10514  123456  0.0000
SPC            2   10515  123456  0.0000
SPC            2   10516  123456  0.0000
SPC            2   10517  123456  0.0000
SPC            2   10518  123456  0.0000
SPC            2   10519  123456  0.0000
SPC            2   10520  123456  0.0000
SPC            2   10521  123456  0.0000
SPC            2   10522  123456  0.0000
SPC            2   10523  123456  0.0000
SPC            2   10524  123456  0.0000
SPC            2   10525  123456  0.0000
SPC            2   10526  123456  0.0000
SPC            2   10527  123456  0.0000
SPC            2   10528  123456  0.0000
SPC            2   10529  123456  0.0000
SPC            2   10530  123456  0.0000
SPC            2   10531  123456  0.0000
SPC            2   10532  123456  0.0000
SPC            2   10533  123456  0.0000
SPC            2   10534  123456  0.0000
SPC            2   10535  123456  0.0000
SPC            2   10536  123456  0.0000
SPC            2   10537  123456  0.0000
SPC            2   10538  123456  0.0000
SPC            2   10539  123456  0.0000
SPC            2   10540  123456  0.0000
SPC            2   10541  123456  0.0000
SPC            2   10542  123456  0.0000
SPC            2   10543  123456  0.0000
SPC            2   10544  123456  0.0000
SPC            2   10545  123456  0.0000
SPC            2   10546  123456  0.0000
SPC            2   10547  123456  0.0000
SPC            2   10548  123456  0.0000
SPC            2   10549  123456  0.0000
SPC            2   10550  123456  0.0000
SPC            2   10551  123456  0.0000
SPC            2   10552  123456  0.0000
SPC            2   10553  123456  0.0000
SPC            2   10554  123456  0.0000
SPC            2   10555  123456  0.0000
SPC            2   10556  123456  0.0000
SPC            2   10557  123456  0.0000
SPC            2   10558  123456  0.0000
SPC            2   10559  123456  0.0000
SPC            2   10560  123456  0.0000
SPC            2   10561  123456  0.0000
SPC            2   10562  123456  0.0000
SPC            2   10563  123456  0.0000
SPC            2   10564  123456  0.0000
SPC            2   10565  123456  0.0000
SPC            2   10566  123456  0.0000
SPC            2   10567  123456  0.0000
SPC            2   10568  123456  0.0000
SPC            2   10569  123456  0.0000
SPC            2   10570  123456  0.0000
SPC            2   10571  123456  0.0000
SPC            2   10572  123456  0.0000
SPC            2   10573  123456  0.0000
SPC            2   10574  123456  0.0000
SPC            2   10575  123456  0.0000
SPC            2   10576  123456  0.0000
SPC            2   10577  123456  0.0000
SPC            2   10578  123456  0.0000
SPC            2   10579  123456  0.0000
SPC            2   10580  123456  0.0000
SPC            2   10581  123456  0.0000
SPC            2   10582  123456  0.0000
SPC            2   10583  123456  0.0000
SPC            2   10584  123456  0.0000
SPC            2   10585  123456  0.0000
SPC            2   10586  123456  0.0000
SPC            2   10587  123456  0.0000
SPC            2   10588  123456  0.0000
SPC            2   10589  123456  0.0000
SPC            2   10590  123456  0.0000
SPC            2   10591  123456  0.0000
SPC            2   10592  123456  0.0000
SPC            2   10593  123456  0.0000
SPC            2   10594  123456  0.0000
SPC            2   10595  123456  0.0000
SPC            2   10596  123456  0.0000
SPC            2   10597  123456  0.0000
SPC            2   10598  123456  0.0000
SPC            2   10599  123456  0.0000
SPC            2   10600  123456  0.0000
SPC            2   10601  123456  0.0000
SPC            2   10602  123456  0.0000
SPC            2   10603  123456  0.0000
SPC            2   10604  123456  0.0000
SPC            2   10605  123456  0.0000
SPC            2   10606  123456  0.0000
SPC            2   10607  123456  0.0000
SPC            2   10608  123456  0.0000
SPC            2   10609  123456  0.0000
SPC            2   10610  123456  0.0000
SPC            2   10611  123456  0.0000
SPC            2   10612  123456  0.0000
SPC            2   10613  123456  0.0000
SPC            2   10614  123456  0.0000
SPC            2   10615  123456  0.0000
SPC            2   10616  123456  0.0000
SPC            2   10617  123456  0.0000
SPC            2   10618  123456  0.0000
SPC            2   10619  123456  0.0000
SPC            2   10620  123456  0.0000
SPC            2   10621  123456  0.0000
SPC            2   10622  123456  0.0000
SPC            2   10623  123456  0.0000
SPC            2   10624  123456  0.0000
SPC            2   10625  123456  0.0000
SPC            2   10626  123456  0.0000
SPC            2   10627  123456  0.0000
SPC            2   10628  123456  0.0000
SPC            2   10629  123456  0.0000
SPC            2   10630  123456  0.0000
SPC            2   10631  123456  0.0000
SPC            2   10632  123456  0.0000
SPC            2   10633  123456  0.0000
SPC            2   10634  123456  0.0000
SPC            2   10635  123456  0.0000
SPC            2   10636  123456  0.0000
SPC            2   10637  123456  0.0000
SPC            2   10638  123456  0.0000
SPC            2   10639  123456  0.0000
SPC            2   10640  123456  0.0000
SPC            2   10641  123456  0.0000
SPC            2   10642  123456  0.0000
SPC            2   10643  123456  0.0000
SPC            2   10644  123456  0.0000
SPC            2   10645  123456  0.0000
SPC            2   10646  123456  0.0000
SPC            2   10647  123456  0.0000
SPC            2   10648  123456  0.0000
SPC            2   10649  123456  0.0000
SPC            2   10650  123456  0.0000
SPC            2   10651  123456  0.0000
SPC            2   10652  123456  0.0000
SPC            2   10653  123456  0.0000
SPC            2   10654  123456  0.0000
SPC            2   10655  123456  0.0000
SPC            2   10656  123456  0.0000
SPC            2   10657  123456  0.0000
SPC            2   10658  123456  0.0000
SPC            2   10659  123456  0.0000
SPC            2   10660  123456  0.0000
SPC            2   10661  123456  0.0000
SPC            2   10662  123456  0.0000
SPC            2   10663  123456  0.0000
SPC            2   10664  123456  0.0000
SPC            2   10665  123456  0.0000
SPC            2   10666  123456  0.0000
SPC            2   10667  123456  0.0000
SPC            2   10668  123456  0.0000
SPC            2   10669  123456  0.0000
SPC            2   10670  123456  0.0000
SPC            2   10671  123456  0.0000
SPC            2   10672  123456  0.0000
SPC            2   10673  123456  0.0000
SPC            2   10674  123456  0.0000
SPC            2   10675  123456  0.0000
SPC            2   10676  123456  0.0000
SPC            2   10677  123456  0.0000
SPC            2   10678  123456  0.0000
SPC            2   10679  123456  0.0000
SPC            2   10680  123456  0.0000
SPC            2   10681  123456  0.0000
SPC            2   10682  123456  0.0000
SPC            2   10683  123456  0.0000
SPC            2   10684  123456  0.0000
SPC            2   10685  123456  0.0000
SPC            2   10686  123456  0.0000
SPC            2   10687  123456  0.0000
SPC            2   10688  123456  0.0000
SPC            2   10689  123456  0.0000
SPC            2   10690  123456  0.0000
SPC            2   10691  123456  0.0000
SPC            2   10692  123456  0.0000
SPC            2   10693  123456  0.0000
SPC            2   10694  123456  0.0000
SPC            2   10695  123456  0.0000
SPC            2   10696  123456  0.0000
SPC            2   10697  123456  0.0000
SPC            2   10698  123456  0.0000
SPC            2   10699  123456  0.0000
SPC            2   10700  123456  0.0000
SPC            2   10701  123456  0.0000
SPC            2   10702  123456  0.0000
SPC            2   10703  123456  0.0000
SPC            2   10704  123456  0.0000
SPC            2   10705  123456  0.0000
SPC            2   10706  123456  0.0000
SPC            2   10707  123456  0.0000
SPC            2   10708  123456  0.0000
SPC            2   10709  123456  0.0000
SPC            2   10710  123456  0.0000
SPC            2   10711  123456  0.0000
SPC            2   10712  123456  0.0000
SPC            2   10713  123456  0.0000
SPC            2   10714  123456  0.0000
SPC            2   10715  123456  0.0000
SPC            2   10716  123456  0.0000
SPC            2   10717  123456  0.0000
SPC            2   10718  123456  0.0000
SPC            2   10719  123456  0.0000
SPC            2   10720  123456  0.0000
SPC            2   10721  123456  0.0000
SPC            2   10722  123456  0.0000
SPC            2   10723  123456  0.0000
SPC            2   10724  123456  0.0000
SPC            2   10725  123456  0.0000
SPC            2   10726  123456  0.0000
SPC            2   10727  123456  0.0000
SPC            2   10728  123456  0.0000
SPC            2   10729  123456  0.0000
SPC            2   10730  123456  0.0000
SPC            2   10731  123456  0.0000
SPC            2   10732  123456  0.0000
SPC            2   10733  123456  0.0000
SPC            2   10734  123456  0.0000
SPC            2   10735  123456  0.0000
SPC            2   10736  123456  0.0000
SPC            2   10737  123456  0.0000
SPC            2   10738  123456  0.0000
SPC            2   10739  123456  0.0000
SPC            2   10740  123456  0.0000
SPC            2   10741  123456  0.0000
SPC            2   10742  123456  0.0000
SPC            2   10743  123456  0.0000
SPC            2   10744  123456  0.0000
SPC            2   10745  123456  0.0000
SPC            2   10746  123456  0.0000
SPC            2   10747  123456  0.0000
SPC            2   10748  123456  0.0000
SPC            2   10749  123456  0.0000
SPC            2   10750  123456  0.0000
SPC            2   10751  123456  0.0000
SPC            2   10752  123456  0.0000
SPC            2   10753  123456  0.0000
SPC            2   10754  123456  0.0000
SPC            2   10755  123456  0.0000
SPC            2   10756  123456  0.0000
SPC            2   10757  123456  0.0000
SPC            2   10758  123456  0.0000
SPC            2   10759  123456  0.0000
SPC            2   10760  123456  0.0000
SPC            2   10761  123456  0.0000
SPC            2   10762  123456  0.0000
SPC            2   10763  123456  0.0000
SPC            2   10764  123456  0.0000
SPC            2   10765  123456  0.0000
SPC            2   10766  123456  0.0000
SPC            2   10767  123456  0.0000
SPC            2   10768  123456  0.0000
SPC            2   10769  123456  0.0000
SPC            2   10770  123456  0.0000
SPC            2   10771  123456  0.0000
SPC            2   10772  123456  0.0000
SPC            2   10773  123456  0.0000
SPC            2   10774  123456  0.0000
SPC            2   10775  123456  0.0000
SPC            2   10776  123456  0.0000
SPC            2   10777  123456  0.0000
SPC            2   10778  123456  0.0000
SPC            2   10779  123456  0.0000
SPC            2   10780  123456  0.0000
SPC            2   10781  123456  0.0000
SPC            2   10782  123456  0.0000
SPC            2   10783  123456  0.0000
SPC            2   10784  123456  0.0000
SPC            2   10785  123456  0.0000
SPC            2   10786  123456  0.0000
SPC            2   10787  123456  0.0000
SPC            2   10788  123456  0.0000
SPC            2   10789  123456  0.0000
SPC            2   10790  123456  0.0000
SPC            2   10791  123456  0.0000
SPC            2   10792  123456  0.0000
SPC            2   10793  123456  0.0000
SPC            2   10794  123456  0.0000
SPC            2   10795  123456  0.0000
SPC            2   10796  123456  0.0000
SPC            2   10797  123456  0.0000
SPC            2   10798  123456  0.0000
SPC            2   10799  123456  0.0000
SPC            2   10800  123456  0.0000
SPC            2   10801  123456  0.0000
SPC            2   10802  123456  0.0000
SPC            2   10803  123456  0.0000
SPC            2   10804  123456  0.0000
SPC            2   10805  123456  0.0000
SPC            2   10806  123456  0.0000
SPC            2   10807  123456  0.0000
SPC            2   10808  123456  0.0000
SPC            2   10809  123456  0.0000
SPC            2   10810  123456  0.0000
SPC            2   10811  123456  0.0000
SPC            2   10812  123456  0.0000
SPC            2   10813  123456  0.0000
SPC            2   10814  123456  0.0000
SPC            2   10815  123456  0.0000
SPC            2   10816  123456  0.0000
SPC            2   10817  123456  0.0000
SPC            2   10818  123456  0.0000
SPC            2   10819  123456  0.0000
SPC            2   10820  123456  0.0000
SPC            2   10821  123456  0.0000
SPC            2   10822  123456  0.0000
SPC            2   10823  123456  0.0000
SPC            2   10824  123456  0.0000
SPC            2   10825  123456  0.0000
SPC            2   10826  123456  0.0000
SPC            2   10827  123456  0.0000
SPC            2   10828  123456  0.0000
SPC            2   10829  123456  0.0000
SPC            2   10830  123456  0.0000
SPC            2   10831  123456  0.0000
SPC            2   10832  123456  0.0000
SPC            2   10833  123456  0.0000
SPC            2   10834  123456  0.0000
SPC            2   10835  123456  0.0000
SPC            2   10836  123456  0.0000
SPC            2   10837  123456  0.0000
SPC            2   10838  123456  0.0000
SPC            2   10839  123456  0.0000
SPC            2   10840  123456  0.0000
SPC            2   10841  123456  0.0000
SPC            2   10842  123456  0.0000
SPC            2   10843  123456  0.0000
SPC            2   10844  123456  0.0000
SPC            2   10845  123456  0.0000
SPC            2   10846  123456  0.0000
SPC            2   10847  123456  0.0000
SPC            2   10848  123456  0.0000
SPC            2   10849  123456  0.0000
SPC            2   10850  123456  0.0000
SPC            2   10851  123456  0.0000
SPC            2   10852  123456  0.0000
SPC            2   10853  123456  0.0000
SPC            2   10854  123456  0.0000
SPC            2   10855  123456  0.0000
SPC            2   10856  123456  0.0000
SPC            2   10857  123456  0.0000
SPC            2   10858  123456  0.0000
SPC            2   10859  123456  0.0000
SPC            2   10860  123456  0.0000
SPC            2   10861  123456  0.0000
SPC            2   10862  123456  0.0000
SPC            2   10863  123456  0.0000
SPC            2   10864  123456  0.0000
SPC            2   10865  123456  0.0000
SPC            2   10866  123456  0.0000
SPC            2   10867  123456  0.0000
SPC            2   10868  123456  0.0000
SPC            2   10869  123456  0.0000
SPC            2   10870  123456  0.0000
SPC            2   10871  123456  0.0000
SPC            2   10872  123456  0.0000
SPC            2   10873  123456  0.0000
SPC            2   10874  123456  0.0000
SPC            2   10875  123456  0.0000
SPC            2   10876  123456  0.0000
SPC            2   10877  123456  0.0000
SPC            2   10878  123456  0.0000
SPC            2   10879  123456  0.0000
SPC            2   10880  123456  0.0000
SPC            2   10881  123456  0.0000
SPC            2   10882  123456  0.0000
SPC            2   10883  123456  0.0000
SPC            2   10884  123456  0.0000
SPC            2   10885  123456  0.0000
SPC            2   10886  123456  0.0000
SPC            2   10887  123456  0.0000
SPC            2   10888  123456  0.0000
SPC            2   10889  123456  0.0000
SPC            2   10890  123456  0.0000
SPC            2   10891  123456  0.0000
SPC            2   10892  123456  0.0000
SPC            2   10893  123456  0.0000
SPC            2   10894  123456  0.0000
SPC            2   10895  123456  0.0000
SPC            2   10896  123456  0.0000
SPC            2   10897  123456  0.0000
SPC            2   10898  123456  0.0000
SPC            2   10899  123456  0.0000
SPC            2   10900  123456  0.0000
SPC            2   10901  123456  0.0000
SPC            2   10902  123456  0.0000
SPC            2   10903  123456  0.0000
SPC            2   10904  123456  0.0000
SPC            2   10905  123456  0.0000
SPC            2   10906  123456  0.0000
SPC            2   10907  123456  0.0000
SPC            2   10908  123456  0.0000
SPC            2   10909  123456  0.0000
SPC            2   10910  123456  0.0000
SPC            2   10911  123456  0.0000
SPC            2   10912  123456  0.0000
SPC            2   10913  123456  0.0000
SPC            2   10914  123456  0.0000
SPC            2   10915  123456  0.0000
SPC            2   10916  123456  0.0000
SPC            2   10917  123456  0.0000
SPC            2   10918  123456  0.0000
SPC            2   10919  123456  0.0000
SPC            2   10920  123456  0.0000
SPC            2   10921  123456  0.0000
SPC            2   10922  123456  0.0000
SPC            2   10923  123456  0.0000
SPC            2   10924  123456  0.0000
SPC            2   10925  123456  0.0000
SPC            2   10926  123456  0.0000
SPC            2   10927  123456  0.0000
SPC            2   10928  123456  0.0000
SPC            2   10929  123456  0.0000
SPC            2   10930  123456  0.0000
SPC            2   10931  123456  0.0000
SPC            2   10932  123456  0.0000
SPC            2   10933  123456  0.0000
SPC            2   10934  123456  0.0000
SPC            2   10935  123456  0.0000
SPC            2   10936  123456  0.0000
SPC            2   10937  123456  0.0000
SPC            2   10938  123456  0.0000
SPC            2   10939  123456  0.0000
SPC            2   10940  123456  0.0000
SPC            2   10941  123456  0.0000
SPC            2   10942  123456  0.0000
SPC            2   10943  123456  0.0000
SPC            2   10944  123456  0.0000
SPC            2   10945  123456  0.0000
SPC            2   10946  123456  0.0000
SPC            2   10947  123456  0.0000
SPC            2   10948  123456  0.0000
SPC            2   10949  123456  0.0000
SPC            2   10950  123456  0.0000
SPC            2   10951  123456  0.0000
SPC            2   10952  123456  0.0000
SPC            2   10953  123456  0.0000
SPC            2   10954  123456  0.0000
SPC            2   10955  123456  0.0000
SPC            2   10956  123456  0.0000
SPC            2   10957  123456  0.0000
SPC            2   10958  123456  0.0000
SPC            2   10959  123456  0.0000
SPC            2   10960  123456  0.0000
SPC            2   10961  123456  0.0000
SPC            2   10962  123456  0.0000
SPC            2   10963  123456  0.0000
SPC            2   10964  123456  0.0000
SPC            2   10965  123456  0.0000
SPC            2   10966  123456  0.0000
SPC            2   10967  123456  0.0000
SPC            2   10968  123456  0.0000
SPC            2   10969  123456  0.0000
SPC            2   10970  123456  0.0000
SPC            2   10971  123456  0.0000
SPC            2   10972  123456  0.0000
SPC            2   10973  123456  0.0000
SPC            2   10974  123456  0.0000
SPC            2   10975  123456  0.0000
SPC            2   10976  123456  0.0000
SPC            2   10977  123456  0.0000
SPC            2   10978  123456  0.0000
SPC            2   10979  123456  0.0000
SPC            2   10980  123456  0.0000
SPC            2   10981  123456  0.0000
SPC            2   10982  123456  0.0000
SPC            2   10983  123456  0.0000
SPC            2   10984  123456  0.0000
SPC            2   10985  123456  0.0000
SPC            2   10986  123456  0.0000
SPC            2   10987  123456  0.0000
SPC            2   10988  123456  0.0000
SPC            2   10989  123456  0.0000
SPC            2   10990  123456  0.0000
SPC            2   10991  123456  0.0000
SPC            2   10992  123456  0.0000
SPC            2   10993  123456  0.0000
SPC            2   10994  123456  0.0000
SPC            2   10995  123456  0.0000
SPC            2   10996  123456  0.0000
SPC            2   10997  123456  0.0000
SPC            2   10998  123456  0.0000
SPC            2   10999  123456  0.0000
SPC            2   11000  123456  0.0000
SPC            2   11001  123456  0.0000
SPC            2   11002  123456  0.0000
SPC            2   11003  123456  0.0000
SPC            2   11004  123456  0.0000
SPC            2   11005  123456  0.0000
SPC            2   11006  123456  0.0000
SPC            2   11007  123456  0.0000
SPC            2   11008  123456  0.0000
SPC            2   11009  123456  0.0000
SPC            2   11010  123456  0.0000
SPC            2   11011  123456  0.0000
SPC            2   11012  123456  0.0000
SPC            2   11013  123456  0.0000
SPC            2   11014  123456  0.0000
SPC            2   11015  123456  0.0000
SPC            2   11016  123456  0.0000
SPC            2   11017  123456  0.0000
SPC            2   11018  123456  0.0000
SPC            2   11019  123456  0.0000
SPC            2   11020  123456  0.0000
SPC            2   11021  123456  0.0000
SPC            2   11022  123456  0.0000
SPC            2   11023  123456  0.0000
SPC            2   11024  123456  0.0000
SPC            2   11025  123456  0.0000
SPC            2   11026  123456  0.0000
SPC            2   11027  123456  0.0000
SPC            2   11028  123456  0.0000
SPC            2   11029  123456  0.0000
SPC            2   11030  123456  0.0000
SPC            2   11031  123456  0.0000
SPC            2   11032  123456  0.0000
SPC            2   11033  123456  0.0000
SPC            2   11034  123456  0.0000
SPC            2   11035  123456  0.0000
SPC            2   11036  123456  0.0000
SPC            2   11037  123456  0.0000
SPC            2   11038  123456  0.0000
SPC            2   11039  123456  0.0000
SPC            2   11040  123456  0.0000
SPC            2   11041  123456  0.0000
SPC            2   11042  123456  0.0000
SPC            2   11043  123456  0.0000
SPC            2   11044  123456  0.0000
SPC            2   11045  123456  0.0000
SPC            2   11046  123456  0.0000
SPC            2   11047  123456  0.0000
SPC            2   11048  123456  0.0000
SPC            2   11049  123456  0.0000
SPC            2   11050  123456  0.0000
SPC            2   11051  123456  0.0000
SPC            2   11052  123456  0.0000
SPC            2   11053  123456  0.0000
SPC            2   11054  123456  0.0000
SPC            2   11055  123456  0.0000
SPC            2   11056  123456  0.0000
SPC            2   11057  123456  0.0000
SPC            2   11058  123456  0.0000
SPC            2   11059  123456  0.0000
SPC            2   11060  123456  0.0000
SPC            2   11061  123456  0.0000
SPC            2   11062  123456  0.0000
SPC            2   11063  123456  0.0000
SPC            2   11064  123456  0.0000
SPC            2   11065  123456  0.0000
SPC            2   11066  123456  0.0000
SPC            2   11067  123456  0.0000
SPC            2   11068  123456  0.0000
SPC            2   11069  123456  0.0000
SPC            2   11070  123456  0.0000
SPC            2   11071  123456  0.0000
SPC            2   11072  123456  0.0000
SPC            2   11073  123456  0.0000
SPC            2   11074  123456  0.0000
SPC            2   11075  123456  0.0000
SPC            2   11076  123456  0.0000
SPC            2   11077  123456  0.0000
SPC            2   11078  123456  0.0000
SPC            2   11079  123456  0.0000
SPC            2   11080  123456  0.0000
SPC            2   11081  123456  0.0000
SPC            2   11082  123456  0.0000
SPC            2   11083  123456  0.0000
SPC            2   11084  123456  0.0000
SPC            2   11085  123456  0.0000
SPC            2   11086  123456  0.0000
SPC            2   11087  123456  0.0000
SPC            2   11088  123456  0.0000
SPC            2   11089  123456  0.0000
SPC            2   11090  123456  0.0000
SPC            2   11091  123456  0.0000
SPC            2   11092  123456  0.0000
SPC            2   11093  123456  0.0000
SPC            2   11094  123456  0.0000
SPC            2   11095  123456  0.0000
SPC            2   11096  123456  0.0000
SPC            2   11097  123456  0.0000
SPC            2   11098  123456  0.0000
SPC            2   11099  123456  0.0000
SPC            2   11100  123456  0.0000
SPC            2   11101  123456  0.0000
SPC            2   11102  123456  0.0000
SPC            2   11103  123456  0.0000
SPC            2   11104  123456  0.0000
SPC            2   11105  123456  0.0000
SPC            2   11106  123456  0.0000
SPC            2   11107  123456  0.0000
SPC            2   11108  123456  0.0000
SPC            2   11109  123456  0.0000
SPC            2   11110  123456  0.0000
SPC            2   11111  123456  0.0000
SPC            2   11112  123456  0.0000
SPC            2   11113  123456  0.0000
SPC            2   11114  123456  0.0000
SPC            2   11115  123456  0.0000
SPC            2   11116  123456  0.0000
SPC            2   11117  123456  0.0000
SPC            2   11118  123456  0.0000
SPC            2   11119  123456  0.0000
SPC            2   11120  123456  0.0000
SPC            2   11121  123456  0.0000
SPC            2   11122  123456  0.0000
SPC            2   11123  123456  0.0000
SPC            2   11124  123456  0.0000
SPC            2   11125  123456  0.0000
SPC            2   11126  123456  0.0000
SPC            2   11127  123456  0.0000
SPC            2   11128  123456  0.0000
SPC            2   11129  123456  0.0000
SPC            2   11130  123456  0.0000
SPC            2   11131  123456  0.0000
SPC            2   11132  123456  0.0000
SPC            2   11133  123456  0.0000
SPC            2   11134  123456  0.0000
SPC            2   11135  123456  0.0000
SPC            2   11136  123456  0.0000
SPC            2   11137  123456  0.0000
SPC            2   11138  123456  0.0000
SPC            2   11139  123456  0.0000
SPC            2   11140  123456  0.0000
SPC            2   11141  123456  0.0000
SPC            2   11142  123456  0.0000
SPC            2   11143  123456  0.0000
SPC            2   11144  123456  0.0000
SPC            2   11145  123456  0.0000
SPC            2   11146  123456  0.0000
SPC            2   11147  123456  0.0000
SPC            2   11148  123456  0.0000
SPC            2   11149  123456  0.0000
SPC            2   11150  123456  0.0000
SPC            2   11151  123456  0.0000
SPC            2   11152  123456  0.0000
SPC            2   11153  123456  0.0000
SPC            2   11154  123456  0.0000
SPC            2   11155  123456  0.0000
SPC            2   11156  123456  0.0000
SPC            2   11157  123456  0.0000
SPC            2   11158  123456  0.0000
SPC            2   11159  123456  0.0000
SPC            2   11160  123456  0.0000
SPC            2   11161  123456  0.0000
SPC            2   11162  123456  0.0000
SPC            2   11163  123456  0.0000
SPC            2   11164  123456  0.0000
SPC            2   11165  123456  0.0000
SPC            2   11166  123456  0.0000
SPC            2   11167  123456  0.0000
SPC            2   11168  123456  0.0000
SPC            2   11169  123456  0.0000
SPC            2   11170  123456  0.0000
SPC            2   11171  123456  0.0000
SPC            2   11172  123456  0.0000
SPC            2   11173  123456  0.0000
SPC            2   11174  123456  0.0000
SPC            2   11175  123456  0.0000
SPC            2   11176  123456  0.0000
SPC            2   11177  123456  0.0000
SPC            2   11178  123456  0.0000
SPC            2   11179  123456  0.0000
SPC            2   11180  123456  0.0000
SPC            2   11181  123456  0.0000
SPC            2   11182  123456  0.0000
SPC            2   11183  123456  0.0000
SPC            2   11184  123456  0.0000
SPC            2   11185  123456  0.0000
SPC            2   11186  123456  0.0000
SPC            2   11187  123456  0.0000
SPC            2   11188  123456  0.0000
SPC            2   11189  123456  0.0000
SPC            2   11190  123456  0.0000
SPC            2   11191  123456  0.0000
SPC            2   11192  123456  0.0000
SPC            2   11193  123456  0.0000
SPC            2   11194  123456  0.0000
SPC            2   11195  123456  0.0000
SPC            2   11196  123456  0.0000
SPC            2   11197  123456  0.0000
SPC            2   11198  123456  0.0000
SPC            2   11199  123456  0.0000
SPC            2   11200  123456  0.0000
SPC            2   11201  123456  0.0000
SPC            2   11202  123456  0.0000
SPC            2   11203  123456  0.0000
SPC            2   11204  123456  0.0000
SPC            2   11205  123456  0.0000
SPC            2   11206  123456  0.0000
SPC            2   11207  123456  0.0000
SPC            2   11208  123456  0.0000
SPC            2   11209  123456  0.0000
SPC            2   11210  123456  0.0000
SPC            2   11211  123456  0.0000
SPC            2   11212  123456  0.0000
SPC            2   11213  123456  0.0000
SPC            2   11214  123456  0.0000
SPC            2   11215  123456  0.0000
SPC            2   11216  123456  0.0000
SPC            2   11217  123456  0.0000
SPC            2   11218  123456  0.0000
SPC            2   11219  123456  0.0000
SPC            2   11220  123456  0.0000
SPC            2   11221  123456  0.0000
SPC            2   11222  123456  0.0000
SPC            2   11223  123456  0.0000
SPC            2   11224  123456  0.0000
SPC            2   11225  123456  0.0000
SPC            2   11226  123456  0.0000
SPC            2   11227  123456  0.0000
SPC            2   11228  123456  0.0000
SPC            2   11229  123456  0.0000
SPC            2   11230  123456  0.0000
SPC            2   11231  123456  0.0000
SPC            2   11232  123456  0.0000
SPC            2   11233  123456  0.0000
SPC            2   11234  123456  0.0000
SPC            2   11235  123456  0.0000
SPC            2   11236  123456  0.0000
SPC            2   11237  123456  0.0000
SPC            2   11238  123456  0.0000
SPC            2   11239  123456  0.0000
SPC            2   11240  123456  0.0000
SPC            2   11241  123456  0.0000
SPC            2   11242  123456  0.0000
SPC            2   11243  123456  0.0000
SPC            2   11244  123456  0.0000
SPC            2   11245  123456  0.0000
SPC            2   11246  123456  0.0000
SPC            2   11247  123456  0.0000
SPC            2   11248  123456  0.0000
SPC            2   11249  123456  0.0000
SPC            2   11250  123456  0.0000
SPC            2   11251  123456  0.0000
SPC            2   11252  123456  0.0000
SPC            2   11253  123456  0.0000
SPC            2   11254  123456  0.0000
SPC            2   11255  123456  0.0000
SPC            2   11256  123456  0.0000
SPC            2   11257  123456  0.0000
SPC            2   11258  123456  0.0000
SPC            2   11259  123456  0.0000
SPC            2   11260  123456  0.0000
SPC            2   11261  123456  0.0000
SPC            2   11262  123456  0.0000
SPC            2   11263  123456  0.0000
SPC            2   11264  123456  0.0000
SPC            2   11265  123456  0.0000
SPC            2   11266  123456  0.0000
SPC            2   11267  123456  0.0000
SPC            2   11268  123456  0.0000
SPC            2   11269  123456  0.0000
SPC            2   11270  123456  0.0000
SPC            2   11271  123456  0.0000
SPC            2   11272  123456  0.0000
SPC            2   11273  123456  0.0000
SPC            2   11274  123456  0.0000
SPC            2   11275  123456  0.0000
SPC            2   11276  123456  0.0000
SPC            2   11277  123456  0.0000
SPC            2   11278  123456  0.0000
SPC            2   11279  123456  0.0000
SPC            2   11280  123456  0.0000
SPC            2   11281  123456  0.0000
SPC            2   11282  123456  0.0000
SPC            2   11283  123456  0.0000
SPC            2   11284  123456  0.0000
SPC            2   11285  123456  0.0000
SPC            2   11286  123456  0.0000
SPC            2   11287  123456  0.0000
SPC            2   11288  123456  0.0000
SPC            2   11289  123456  0.0000
SPC            2   11290  123456  0.0000
SPC            2   11291  123456  0.0000
SPC            2   11292  123456  0.0000
SPC            2   11293  123456  0.0000
SPC            2   11294  123456  0.0000
SPC            2   11295  123456  0.0000
SPC            2   11296  123456  0.0000
SPC            2   11297  123456  0.0000
SPC            2   11298  123456  0.0000
SPC            2   11299  123456  0.0000
SPC            2   11300  123456  0.0000
SPC            2   11301  123456  0.0000
SPC            2   11302  123456  0.0000
SPC            2   11303  123456  0.0000
SPC            2   11304  123456  0.0000
SPC            2   11305  123456  0.0000
SPC            2   11306  123456  0.0000
SPC            2   11307  123456  0.0000
SPC            2   11308  123456  0.0000
SPC            2   11309  123456  0.0000
SPC            2   11310  123456  0.0000
SPC            2   11311  123456  0.0000
SPC            2   11312  123456  0.0000
SPC            2   11313  123456  0.0000
SPC            2   11314  123456  0.0000
SPC            2   11315  123456  0.0000
SPC            2   11316  123456  0.0000
SPC            2   11317  123456  0.0000
SPC            2   11318  123456  0.0000
SPC            2   11319  123456  0.0000
SPC            2   11320  123456  0.0000
SPC            2   11321  123456  0.0000
SPC            2   11322  123456  0.0000
SPC            2   11323  123456  0.0000
SPC            2   11324  123456  0.0000
SPC            2   11325  123456  0.0000
SPC            2   11326  123456  0.0000
SPC            2   11327  123456  0.0000
SPC            2   11328  123456  0.0000
SPC            2   11329  123456  0.0000
SPC            2   11330  123456  0.0000
SPC            2   11331  123456  0.0000
SPC            2   11332  123456  0.0000
SPC            2   11333  123456  0.0000
SPC            2   11334  123456  0.0000
SPC            2   11335  123456  0.0000
SPC            2   11336  123456  0.0000
SPC            2   11337  123456  0.0000
SPC            2   11338  123456  0.0000
SPC            2   11339  123456  0.0000
SPC            2   11340  123456  0.0000
SPC            2   11341  123456  0.0000
SPC            2   11342  123456  0.0000
SPC            2   11343  123456  0.0000
SPC            2   11344  123456  0.0000
SPC            2   11345  123456  0.0000
SPC            2   11346  123456  0.0000
SPC            2   11347  123456  0.0000
SPC            2   11348  123456  0.0000
SPC            2   11349  123456  0.0000
SPC            2   11350  123456  0.0000
SPC            2   11351  123456  0.0000
SPC            2   11352  123456  0.0000
SPC            2   11353  123456  0.0000
SPC            2   11354  123456  0.0000
SPC            2   11355  123456  0.0000
SPC            2   11356  123456  0.0000
SPC            2   11357  123456  0.0000
SPC            2   11358  123456  0.0000
SPC            2   11359  123456  0.0000
SPC            2   11360  123456  0.0000
SPC            2   11361  123456  0.0000
SPC            2   11362  123456  0.0000
SPC            2   11363  123456  0.0000
SPC            2   11364  123456  0.0000
SPC            2   11365  123456  0.0000
SPC            2   11366  123456  0.0000
SPC            2   11367  123456  0.0000
SPC            2   11368  123456  0.0000
SPC            2   11369  123456  0.0000
SPC            2   11370  123456  0.0000
SPC            2   11371  123456  0.0000
SPC            2   11372  123456  0.0000
SPC            2   11373  123456  0.0000
SPC            2   11374  123456  0.0000
SPC            2   11375  123456  0.0000
SPC            2   11376  123456  0.0000
SPC            2   11377  123456  0.0000
SPC            2   11378  123456  0.0000
SPC            2   11379  123456  0.0000
SPC            2   11380  123456  0.0000
SPC            2   11381  123456  0.0000
SPC            2   11382  123456  0.0000
SPC            2   11383  123456  0.0000
SPC            2   11384  123456  0.0000
SPC            2   11385  123456  0.0000
SPC            2   11386  123456  0.0000
SPC            2   11387  123456  0.0000
SPC            2   11388  123456  0.0000
SPC            2   11389  123456  0.0000
SPC            2   11390  123456  0.0000
SPC            2   11391  123456  0.0000
SPC            2   11392  123456  0.0000
SPC            2   11393  123456  0.0000
SPC            2   11394  123456  0.0000
SPC            2   11395  123456  0.0000
SPC            2   11396  123456  0.0000
SPC            2   11397  123456  0.0000
SPC            2   11398  123456  0.0000
SPC            2   11399  123456  0.0000
SPC            2   11400  123456  0.0000
SPC            2   11401  123456  0.0000
SPC            2   11402  123456  0.0000
SPC            2   11403  123456  0.0000
SPC            2   11404  123456  0.0000
SPC            2   11405  123456  0.0000
SPC            2   11406  123456  0.0000
SPC            2   11407  123456  0.0000
SPC            2   11408  123456  0.0000
SPC            2   11409  123456  0.0000
SPC            2   11410  123456  0.0000
SPC            2   11411  123456  0.0000
SPC            2   11412  123456  0.0000
SPC            2   11413  123456  0.0000
SPC            2   11414  123456  0.0000
SPC            2   11415  123456  0.0000
SPC            2   11416  123456  0.0000
SPC            2   11417  123456  0.0000
SPC            2   11418  123456  0.0000
SPC            2   11419  123456  0.0000
SPC            2   11420  123456  0.0000
SPC            2   11421  123456  0.0000
SPC            2   11422  123456  0.0000
SPC            2   11423  123456  0.0000
SPC            2   11424  123456  0.0000
SPC            2   11425  123456  0.0000
SPC            2   11426  123456  0.0000
SPC            2   11427  123456  0.0000
SPC            2   11428  123456  0.0000
SPC            2   11429  123456  0.0000
SPC            2   11430  123456  0.0000
SPC            2   11431  123456  0.0000
SPC            2   11432  123456  0.0000
SPC            2   11433  123456  0.0000
SPC            2   11434  123456  0.0000
SPC            2   11435  123456  0.0000
SPC            2   11436  123456  0.0000
SPC            2   11437  123456  0.0000
SPC            2   11438  123456  0.0000
SPC            2   11439  123456  0.0000
SPC            2   11440  123456  0.0000
SPC            2   11441  123456  0.0000
SPC            2   11442  123456  0.0000
SPC            2   11443  123456  0.0000
SPC            2   11444  123456  0.0000
SPC            2   11445  123456  0.0000
SPC            2   11446  123456  0.0000
SPC            2   11447  123456  0.0000
SPC            2   11448  123456  0.0000
SPC            2   11449  123456  0.0000
SPC            2   11450  123456  0.0000
SPC            2   11451  123456  0.0000
SPC            2   11452  123456  0.0000
SPC            2   11453  123456  0.0000
SPC            2   11454  123456  0.0000
SPC            2   11455  123456  0.0000
SPC            2   11456  123456  0.0000
SPC            2   11457  123456  0.0000
SPC            2   11458  123456  0.0000
SPC            2   11459  123456  0.0000
SPC            2   11460  123456  0.0000
SPC            2   11461  123456  0.0000
SPC            2   11462  123456  0.0000
SPC            2   11463  123456  0.0000
SPC            2   11464  123456  0.0000
SPC            2   11465  123456  0.0000
SPC            2   11466  123456  0.0000
SPC            2   11467  123456  0.0000
SPC            2   11468  123456  0.0000
SPC            2   11469  123456  0.0000
SPC            2   11470  123456  0.0000
SPC            2   11471  123456  0.0000
SPC            2   11472  123456  0.0000
SPC            2   11473  123456  0.0000
SPC            2   11474  123456  0.0000
SPC            2   11475  123456  0.0000
SPC            2   11476  123456  0.0000
SPC            2   11477  123456  0.0000
SPC            2   11478  123456  0.0000
SPC            2   11479  123456  0.0000
SPC            2   11480  123456  0.0000
SPC            2   11481  123456  0.0000
SPC            2   11482  123456  0.0000
SPC            2   11483  123456  0.0000
SPC            2   11484  123456  0.0000
SPC            2   11485  123456  0.0000
SPC            2   11486  123456  0.0000
SPC            2   11487  123456  0.0000
SPC            2   11488  123456  0.0000
SPC            2   11489  123456  0.0000
SPC            2   11490  123456  0.0000
SPC            2   11491  123456  0.0000
SPC            2   11492  123456  0.0000
SPC            2   11493  123456  0.0000
SPC            2   11494  123456  0.0000
SPC            2   11495  123456  0.0000
SPC            2   11496  123456  0.0000
SPC            2   11497  123456  0.0000
SPC            2   11498  123456  0.0000
SPC            2   11499  123456  0.0000
SPC            2   11500  123456  0.0000
SPC            2   11501  123456  0.0000
SPC            2   11502  123456  0.0000
SPC            2   11503  123456  0.0000
SPC            2   11504  123456  0.0000
SPC            2   11505  123456  0.0000
SPC            2   11506  123456  0.0000
SPC            2   11507  123456  0.0000
SPC            2   11508  123456  0.0000
SPC            2   11509  123456  0.0000
SPC            2   11510  123456  0.0000
SPC            2   11511  123456  0.0000
SPC            2   11512  123456  0.0000
SPC            2   11513  123456  0.0000
SPC            2   11514  123456  0.0000
SPC            2   11515  123456  0.0000
SPC            2   11516  123456  0.0000
SPC            2   11517  123456  0.0000
SPC            2   11518  123456  0.0000
SPC            2   11519  123456  0.0000
SPC            2   11520  123456  0.0000
SPC            2   11521  123456  0.0000
SPC            2   11522  123456  0.0000
SPC            2   11523  123456  0.0000
SPC            2   11524  123456  0.0000
SPC            2   11525  123456  0.0000
SPC            2   11526  123456  0.0000
SPC            2   11527  123456  0.0000
SPC            2   11528  123456  0.0000
SPC            2   11529  123456  0.0000
SPC            2   11530  123456  0.0000
SPC            2   11531  123456  0.0000
SPC            2   11532  123456  0.0000
SPC            2   11533  123456  0.0000
SPC            2   11534  123456  0.0000
SPC            2   11535  123456  0.0000
SPC            2   11536  123456  0.0000
SPC            2   11537  123456  0.0000
SPC            2   11538  123456  0.0000
SPC            2   11539  123456  0.0000
SPC            2   11540  123456  0.0000
SPC            2   11541  123456  0.0000
SPC            2   11542  123456  0.0000
SPC            2   11543  123456  0.0000
SPC            2   11544  123456  0.0000
SPC            2   11545  123456  0.0000
SPC            2   11546  123456  0.0000
SPC            2   11547  123456  0.0000
SPC            2   11548  123456  0.0000
SPC            2   11549  123456  0.0000
SPC            2   11550  123456  0.0000
SPC            2   11551  123456  0.0000
SPC            2   11552  123456  0.0000
SPC            2   11553  123456  0.0000
SPC            2   11554  123456  0.0000
SPC            2   11555  123456  0.0000
SPC            2   11556  123456  0.0000
SPC            2   11557  123456  0.0000
SPC            2   11558  123456  0.0000
SPC            2   11559  123456  0.0000
SPC            2   11560  123456  0.0000
SPC            2   11561  123456  0.0000
SPC            2   11562  123456  0.0000
SPC            2   11563  123456  0.0000
SPC            2   11564  123456  0.0000
SPC            2   11565  123456  0.0000
SPC            2   11566  123456  0.0000
SPC            2   11567  123456  0.0000
SPC            2   11568  123456  0.0000
SPC            2   11569  123456  0.0000
SPC            2   11570  123456  0.0000
SPC            2   11571  123456  0.0000
SPC            2   11572  123456  0.0000
SPC            2   11573  123456  0.0000
SPC            2   11574  123456  0.0000
SPC            2   11575  123456  0.0000
SPC            2   11576  123456  0.0000
SPC            2   11577  123456  0.0000
SPC            2   11578  123456  0.0000
SPC            2   11579  123456  0.0000
SPC            2   11580  123456  0.0000
SPC            2   11581  123456  0.0000
SPC            2   11582  123456  0.0000
SPC            2   11583  123456  0.0000
SPC            2   11584  123456  0.0000
SPC            2   11585  123456  0.0000
SPC            2   11586  123456  0.0000
SPC            2   11587  123456  0.0000
SPC            2   11588  123456  0.0000
SPC            2   11589  123456  0.0000
SPC            2   11590  123456  0.0000
SPC            2   11591  123456  0.0000
SPC            2   11592  123456  0.0000
SPC            2   11593  123456  0.0000
SPC            2   11594  123456  0.0000
SPC            2   11595  123456  0.0000
SPC            2   11596  123456  0.0000
SPC            2   11597  123456  0.0000
SPC            2   11598  123456  0.0000
SPC            2   11599  123456  0.0000
SPC            2   11600  123456  0.0000
SPC            2   11601  123456  0.0000
SPC            2   11602  123456  0.0000
SPC            2   11603  123456  0.0000
SPC            2   11604  123456  0.0000
SPC            2   11605  123456  0.0000
SPC            2   11606  123456  0.0000
SPC            2   11607  123456  0.0000
SPC            2   11608  123456  0.0000
SPC            2   11609  123456  0.0000
SPC            2   11610  123456  0.0000
SPC            2   11611  123456  0.0000
SPC            2   11612  123456  0.0000
SPC            2   11613  123456  0.0000
SPC            2   11614  123456  0.0000
SPC            2   11615  123456  0.0000
SPC            2   11616  123456  0.0000
SPC            2   11617  123456  0.0000
SPC            2   11618  123456  0.0000
SPC            2   11619  123456  0.0000
SPC            2   11620  123456  0.0000
SPC            2   11621  123456  0.0000
SPC            2   11622  123456  0.0000
SPC            2   11623  123456  0.0000
SPC            2   11624  123456  0.0000
SPC            2   11625  123456  0.0000
SPC            2   11626  123456  0.0000
SPC            2   11627  123456  0.0000
SPC            2   11628  123456  0.0000
SPC            2   11629  123456  0.0000
SPC            2   11630  123456  0.0000
SPC            2   11631  123456  0.0000
SPC            2   11632  123456  0.0000
SPC            2   11633  123456  0.0000
SPC            2   11634  123456  0.0000
SPC            2   11635  123456  0.0000
SPC            2   11636  123456  0.0000
SPC            2   11637  123456  0.0000
SPC            2   11638  123456  0.0000
SPC            2   11639  123456  0.0000
SPC            2   11640  123456  0.0000
SPC            2   11641  123456  0.0000
SPC            2   11642  123456  0.0000
SPC            2   11643  123456  0.0000
SPC            2   11644  123456  0.0000
SPC            2   11645  123456  0.0000
SPC            2   11646  123456  0.0000
SPC            2   11647  123456  0.0000
SPC            2   11648  123456  0.0000
SPC            2   11649  123456  0.0000
SPC            2   11650  123456  0.0000
SPC            2   11651  123456  0.0000
SPC            2   11652  123456  0.0000
SPC            2   11653  123456  0.0000
SPC            2   11654  123456  0.0000
SPC            2   11655  123456  0.0000
SPC            2   11656  123456  0.0000
SPC            2   11657  123456  0.0000
SPC            2   11658  123456  0.0000
SPC            2   11659  123456  0.0000
SPC            2   11660  123456  0.0000
SPC            2   11661  123456  0.0000
SPC            2   11662  123456  0.0000
SPC            2   11663  123456  0.0000
SPC            2   11664  123456  0.0000
SPC            2   11665  123456  0.0000
SPC            2   11666  123456  0.0000
SPC            2   11667  123456  0.0000
SPC            2   11668  123456  0.0000
SPC            2   11669  123456  0.0000
SPC            2   11670  123456  0.0000
SPC            2   11671  123456  0.0000
SPC            2   11672  123456  0.0000
SPC            2   11673  123456  0.0000
SPC            2   11674  123456  0.0000
SPC            2   11675  123456  0.0000
SPC            2   11676  123456  0.0000
SPC            2   11677  123456  0.0000
SPC            2   11678  123456  0.0000
SPC            2   11679  123456  0.0000
SPC            2   11680  123456  0.0000
SPC            2   11681  123456  0.0000
SPC            2   11682  123456  0.0000
SPC            2   11683  123456  0.0000
SPC            2   11684  123456  0.0000
SPC            2   11685  123456  0.0000
SPC            2   11686  123456  0.0000
SPC            2   11687  123456  0.0000
SPC            2   11688  123456  0.0000
SPC            2   11689  123456  0.0000
SPC            2   11690  123456  0.0000
SPC            2   11691  123456  0.0000
SPC            2   11692  123456  0.0000
SPC            2   11693  123456  0.0000
SPC            2   11694  123456  0.0000
SPC            2   11695  123456  0.0000
SPC            2   11696  123456  0.0000
SPC            2   11697  123456  0.0000
SPC            2   11698  123456  0.0000
SPC            2   11699  123456  0.0000
SPC            2   11700  123456  0.0000
SPC            2   11701  123456  0.0000
SPC            2   11702  123456  0.0000
SPC            2   11703  123456  0.0000
SPC            2   11704  123456  0.0000
SPC            2   11705  123456  0.0000
SPC            2   11706  123456  0.0000
SPC            2   11707  123456  0.0000
SPC            2   11708  123456  0.0000
SPC            2   11709  123456  0.0000
SPC            2   11710  123456  0.0000
SPC            2   11711  123456  0.0000
SPC            2   11712  123456  0.0000
SPC            2   11713  123456  0.0000
SPC            2   11714  123456  0.0000
SPC            2   11715  123456  0.0000
SPC            2   11716  123456  0.0000
SPC            2   11717  123456  0.0000
SPC            2   11718  123456  0.0000
SPC            2   11719  123456  0.0000
SPC            2   11720  123456  0.0000
SPC            2   11721  123456  0.0000
SPC            2   11722  123456  0.0000
SPC            2   11723  123456  0.0000
SPC            2   11724  123456  0.0000
SPC            2   11725  123456  0.0000
SPC            2   11726  123456  0.0000
SPC            2   11727  123456  0.0000
SPC            2   11728  123456  0.0000
SPC            2   11729  123456  0.0000
SPC            2   11730  123456  0.0000
SPC            2   11731  123456  0.0000
SPC            2   11732  123456  0.0000
SPC            2   11733  123456  0.0000
SPC            2   11734  123456  0.0000
SPC            2   11735  123456  0.0000
SPC            2   11736  123456  0.0000
SPC            2   11737  123456  0.0000
SPC            2   11738  123456  0.0000
SPC            2   11739  123456  0.0000
SPC            2   11740  123456  0.0000
SPC            2   11741  123456  0.0000
SPC            2   11742  123456  0.0000
SPC            2   11743  123456  0.0000
SPC            2   11744  123456  0.0000
SPC            2   11745  123456  0.0000
SPC            2   11746  123456  0.0000
SPC            2   11747  123456  0.0000
SPC            2   11748  123456  0.0000
SPC            2   11749  123456  0.0000
SPC            2   11750  123456  0.0000
SPC            2   11751  123456  0.0000
SPC            2   11752  123456  0.0000
SPC            2   11753  123456  0.0000
SPC            2   11754  123456  0.0000
SPC            2   11755  123456  0.0000
SPC            2   11756  123456  0.0000
SPC            2   11757  123456  0.0000
SPC            2   11758  123456  0.0000
SPC            2   11759  123456  0.0000
SPC            2   11760  123456  0.0000
SPC            2   11761  123456  0.0000
SPC            2   11762  123456  0.0000
SPC            2   11763  123456  0.0000
SPC            2   11764  123456  0.0000
SPC            2   11765  123456  0.0000
SPC            2   11766  123456  0.0000
SPC            2   11767  123456  0.0000
SPC            2   11768  123456  0.0000
SPC            2   11769  123456  0.0000
SPC            2   11770  123456  0.0000
SPC            2   11771  123456  0.0000
SPC            2   11772  123456  0.0000
SPC            2   11773  123456  0.0000
SPC            2   11774  123456  0.0000
SPC            2   11775  123456  0.0000
SPC            2   11776  123456  0.0000
SPC            2   11777  123456  0.0000
ENDDATA 3088dc3c
